# vtk DataFile Version 5.1
vtk output
ASCII
DATASET UNSTRUCTURED_GRID
POINTS 9610 double
0.1016 1.5 0.07553717494 0.1016 1.45 0.072586730123 0.1016 1.4 0.075662434101 
0.1016 1.35 0.07241269201 0.1016 1.3 0.073299214244 0.1016 1.25 0.083241671324 
0.1016 1.2 0.08569123596 0.1016 1.15 0.077467411757 0.1016 1.1 0.068724192679 
0.1016 1.05 0.058219458908 0.1016 1 0.047355044633 0.1016 0.95 0.05262138322 
0.1016 0.9 0.054255034775 0.1016 0.85 0.049980182201 0.1016 0.8 0.054412789643 
0.1016 0.75 0.072089999914 0.1016 0.7 0.091008931398 0.1016 0.65 0.09657767415 
0.1016 0.6 0.089469343424 0.1016 0.55 0.089980430901 0.1016 0.5 0.096735879779 
0.1016 0.45 0.10385231674 0.1016 0.4 0.094612747431 0.1016 0.35 0.082164645195 
0.1016 0.3 0.08035415411 0.1016 0.25 0.089107640088 0.1016 0.2 0.091087311506 
0.1016 0.15 0.081848211586 0.1016 0.1 0.075282156467 0.1016 0.05 0.069869413972 
0.1016 0 0.067057110369 5.08 1.5 0.28700000048 5.08 1.45 0.28700000048 
5.08 1.4 0.28700000048 5.08 1.35 0.28700000048 5.08 1.3 0.28700000048 
5.08 1.25 0.28700000048 5.08 1.2 0.28700000048 5.08 1.15 0.28700000048 
5.08 1.1 0.28700000048 5.08 1.05 0.28700000048 5.08 1 0.28700000048 
5.08 0.95 0.28700000048 5.08 0.9 0.28700000048 5.08 0.85 0.28700000048 
5.08 0.8 0.28700000048 5.08 0.75 0.28700000048 5.08 0.7 0.28700000048 
5.08 0.65 0.28700000048 5.08 0.6 0.28700000048 5.08 0.55 0.28700000048 
5.08 0.5 0.28700000048 5.08 0.45 0.28700000048 5.08 0.4 0.28700000048 
5.08 0.35 0.28700000048 5.08 0.3 0.28700000048 5.08 0.25 0.28700000048 
5.08 0.2 0.28700000048 5.08 0.15 0.28700000048 5.08 0.1 0.28700000048 
5.08 0.05 0.28700000048 5.08 0 0.28700000048 0.151384 1.5 0.090614773333 
0.151384 1.45 0.090539246798 0.151384 1.4 0.10428993404 0.151384 1.35 0.091513998806 
0.151384 1.3 0.087625131011 0.151384 1.25 0.10741644353 0.151384 1.2 0.10945007205 
0.151384 1.15 0.094590209424 0.151384 1.1 0.08657322824 0.151384 1.05 0.080418519676 
0.151384 1 0.054744616151 0.151384 0.95 0.070542007685 0.151384 0.9 0.073492459953 
0.151384 0.85 0.065512552857 0.151384 0.8 0.066590674222 0.151384 0.75 0.086605943739 
0.151384 0.7 0.11054953188 0.151384 0.65 0.1184823364 0.151384 0.6 0.097780004144 
0.151384 0.55 0.10460165888 0.151384 0.5 0.11066024005 0.151384 0.45 0.13039319217 
0.151384 0.4 0.11354082078 0.151384 0.35 0.096594825387 0.151384 0.3 0.090717747808 
0.151384 0.25 0.10659813136 0.151384 0.2 0.11055461317 0.151384 0.15 0.088837958872 
0.151384 0.1 0.090591408312 0.151384 0.05 0.086541190743 0.151384 0 0.080604672432 
0.201168 1.5 0.11777001619 0.201168 1.45 0.12939123809 0.201168 1.4 0.14341463149 
0.201168 1.35 0.12747333944 0.201168 1.3 0.12244204432 0.201168 1.25 0.14342571795 
0.201168 1.2 0.13782611489 0.201168 1.15 0.12563630939 0.201168 1.1 0.11473683268 
0.201168 1.05 0.11732920259 0.201168 1 0.10000197589 0.201168 0.95 0.091014869511 
0.201168 0.9 0.10942294449 0.201168 0.85 0.11205178499 0.201168 0.8 0.11109313369 
0.201168 0.75 0.11571389437 0.201168 0.7 0.13586455584 0.201168 0.65 0.14760138094 
0.201168 0.6 0.12570586801 0.201168 0.55 0.13646830618 0.201168 0.5 0.14355620742 
0.201168 0.45 0.15392751992 0.201168 0.4 0.14757317305 0.201168 0.35 0.13431586325 
0.201168 0.3 0.11874909699 0.201168 0.25 0.12991766632 0.201168 0.2 0.13107007742 
0.201168 0.15 0.12015999854 0.201168 0.1 0.12344000489 0.201168 0.05 0.11064000428 
0.201168 0 0.12508000433 0.250952 1.5 0.15376405418 0.250952 1.45 0.16291598976 
0.250952 1.4 0.16549560428 0.250952 1.35 0.16194143891 0.250952 1.3 0.16829551756 
0.250952 1.25 0.17509652674 0.250952 1.2 0.16629597545 0.250952 1.15 0.15710483491 
0.250952 1.1 0.15832109749 0.250952 1.05 0.15463031828 0.250952 1 0.13882249594 
0.250952 0.95 0.13247841597 0.250952 0.9 0.14482088387 0.250952 0.85 0.13861592114 
0.250952 0.8 0.14133302867 0.250952 0.75 0.148092255 0.250952 0.7 0.17184633017 
0.250952 0.65 0.18749898672 0.250952 0.6 0.17037445307 0.250952 0.55 0.17554911971 
0.250952 0.5 0.18078650534 0.250952 0.45 0.18977843225 0.250952 0.4 0.17453044653 
0.250952 0.35 0.16892449558 0.250952 0.3 0.15387426317 0.250952 0.25 0.16555188596 
0.250952 0.2 0.16206766665 0.250952 0.15 0.1557200104 0.250952 0.1 0.1606400013 
0.250952 0.05 0.14460000396 0.250952 0 0.16728000343 0.300736 1.5 0.18724030256 
0.300736 1.45 0.20370472968 0.300736 1.4 0.22031629086 0.300736 1.35 0.19358682632 
0.300736 1.3 0.20051541924 0.300736 1.25 0.20549027622 0.300736 1.2 0.19645866752 
0.300736 1.15 0.18840691447 0.300736 1.1 0.18611766398 0.300736 1.05 0.20321129262 
0.300736 1 0.16406552494 0.300736 0.95 0.16627067327 0.300736 0.9 0.17730879784 
0.300736 0.85 0.17571769655 0.300736 0.8 0.17230536044 0.300736 0.75 0.17951102555 
0.300736 0.7 0.19351065159 0.300736 0.65 0.21399375796 0.300736 0.6 0.20090480149 
0.300736 0.55 0.21114248037 0.300736 0.5 0.21706022322 0.300736 0.45 0.21125163138 
0.300736 0.4 0.20263709128 0.300736 0.35 0.19942955673 0.300736 0.3 0.1920542717 
0.300736 0.25 0.2021445781 0.300736 0.2 0.1996023953 0.300736 0.15 0.16139999032 
0.300736 0.1 0.19028000534 0.300736 0.05 0.17623999715 0.300736 0 0.22164000571 
0.35052 1.5 0.22863642871 0.35052 1.45 0.23421537876 0.35052 1.4 0.23869735003 
0.35052 1.35 0.22763724625 0.35052 1.3 0.23437358439 0.35052 1.25 0.23680537939 
0.35052 1.2 0.23051658273 0.35052 1.15 0.22239938378 0.35052 1.1 0.22033679485 
0.35052 1.05 0.20613434911 0.35052 1 0.21358257532 0.35052 0.95 0.20753590763 
0.35052 0.9 0.20705078542 0.35052 0.85 0.21589924395 0.35052 0.8 0.2091076225 
0.35052 0.75 0.20697136223 0.35052 0.7 0.22184735537 0.35052 0.65 0.237454772 
0.35052 0.6 0.23198954761 0.35052 0.55 0.24127683043 0.35052 0.5 0.25274798274 
0.35052 0.45 0.24195557833 0.35052 0.4 0.23832948506 0.35052 0.35 0.22985157371 
0.35052 0.3 0.22743009031 0.35052 0.25 0.22639991343 0.35052 0.2 0.22194777429 
0.35052 0.15 0.23019999266 0.35052 0.1 0.22540000081 0.35052 0.05 0.21899999678 
0.35052 0 0.24699999392 0.400304 1.5 0.26592051983 0.400304 1.45 0.26706492901 
0.400304 1.4 0.26453712583 0.400304 1.35 0.26389077306 0.400304 1.3 0.26394101977 
0.400304 1.25 0.26242849231 0.400304 1.2 0.25733023882 0.400304 1.15 0.25559693575 
0.400304 1.1 0.25228962302 0.400304 1.05 0.2324526459 0.400304 1 0.2511395216 
0.400304 0.95 0.24434675276 0.400304 0.9 0.23334616423 0.400304 0.85 0.24857497215 
0.400304 0.8 0.24607524276 0.400304 0.75 0.24556060135 0.400304 0.7 0.2518030107 
0.400304 0.65 0.25358602405 0.400304 0.6 0.25407192111 0.400304 0.55 0.25518795848 
0.400304 0.5 0.25752818584 0.400304 0.45 0.25806760788 0.400304 0.4 0.25932464004 
0.400304 0.35 0.25990742445 0.400304 0.3 0.2613530755 0.400304 0.25 0.26162454486 
0.400304 0.2 0.25546893477 0.400304 0.15 0.26715999842 0.400304 0.1 0.25872001052 
0.400304 0.05 0.26227998734 0.400304 0 0.26355999708 0.450088 1.5 0.28612622619 
0.450088 1.45 0.28484910727 0.450088 1.4 0.28075128794 0.450088 1.35 0.27819865942 
0.450088 1.3 0.27499672771 0.450088 1.25 0.2712584734 0.450088 1.2 0.26769369841 
0.450088 1.15 0.2664282918 0.450088 1.1 0.26186415553 0.450088 1.05 0.25313535333 
0.450088 1 0.25865450501 0.450088 0.95 0.25493007898 0.450088 0.9 0.24891191721 
0.450088 0.85 0.25599470735 0.450088 0.8 0.25854167342 0.450088 0.75 0.25905948877 
0.450088 0.7 0.25931295753 0.450088 0.65 0.25713437796 0.450088 0.6 0.25578075647 
0.450088 0.55 0.2537766397 0.450088 0.5 0.25315022469 0.450088 0.45 0.25639021397 
0.450088 0.4 0.26148712635 0.450088 0.35 0.26712396741 0.450088 0.3 0.27195706964 
0.450088 0.25 0.27371785045 0.450088 0.2 0.2730948925 0.450088 0.15 0.27913853526 
0.450088 0.1 0.27514895797 0.450088 0.05 0.27415531874 0.450088 0 0.27383312583 
0.499872 1.5 0.29312691092 0.499872 1.45 0.28690880537 0.499872 1.4 0.28001990914 
0.499872 1.35 0.27505648136 0.499872 1.3 0.27107337117 0.499872 1.25 0.26741027832 
0.499872 1.2 0.26432609558 0.499872 1.15 0.26172086596 0.499872 1.1 0.25753954053 
0.499872 1.05 0.25316652656 0.499872 1 0.25230500102 0.499872 0.95 0.25012046099 
0.499872 0.9 0.24785016477 0.499872 0.85 0.24975381792 0.499872 0.8 0.25204750896 
0.499872 0.75 0.25268420577 0.499872 0.7 0.25191059709 0.499872 0.65 0.25041997433 
0.499872 0.6 0.24901908636 0.499872 0.55 0.24742048979 0.499872 0.5 0.24678272009 
0.499872 0.45 0.24896767735 0.499872 0.4 0.25348797441 0.499872 0.35 0.25895187259 
0.499872 0.3 0.26410961151 0.499872 0.25 0.26733443141 0.499872 0.2 0.26953750849 
0.499872 0.15 0.27266132832 0.499872 0.1 0.27402433753 0.499872 0.05 0.27542313933 
0.499872 0 0.27720424533 0.549656 1.5 0.29478025436 0.549656 1.45 0.28194713593 
0.549656 1.4 0.27354833484 0.549656 1.35 0.26854613423 0.549656 1.3 0.26540139318 
0.549656 1.25 0.26271036267 0.549656 1.2 0.26012045145 0.549656 1.15 0.25750741363 
0.549656 1.1 0.25404635072 0.549656 1.05 0.25025397539 0.549656 1 0.24849590659 
0.549656 0.95 0.24716900289 0.549656 0.9 0.24565604329 0.549656 0.85 0.24559685588 
0.549656 0.8 0.24699191749 0.549656 0.75 0.24764293432 0.549656 0.7 0.2468572706 
0.549656 0.65 0.24708242714 0.549656 0.6 0.24750550091 0.549656 0.55 0.24712203443 
0.549656 0.5 0.24601733685 0.549656 0.45 0.24675409496 0.549656 0.4 0.24925287068 
0.549656 0.35 0.25236439705 0.549656 0.3 0.25670140982 0.549656 0.25 0.2600440383 
0.549656 0.2 0.26218295097 0.549656 0.15 0.26437482238 0.549656 0.1 0.26884609461 
0.549656 0.05 0.27404668927 0.549656 0 0.27760261297 0.59944 1.5 0.29526519775 
0.59944 1.45 0.27798950672 0.59944 1.4 0.2758385241 0.59944 1.35 0.27246806026 
0.59944 1.3 0.27185976505 0.59944 1.25 0.27056837082 0.59944 1.2 0.26922178268 
0.59944 1.15 0.26787272096 0.59944 1.1 0.266310215 0.59944 1.05 0.26302695274 
0.59944 1 0.26263484359 0.59944 0.95 0.26242727041 0.59944 0.9 0.26126891375 
0.59944 0.85 0.26032009721 0.59944 0.8 0.26140961051 0.59944 0.75 0.2623540163 
0.59944 0.7 0.26057526469 0.59944 0.65 0.26239901781 0.59944 0.6 0.26355689764 
0.59944 0.55 0.26437866688 0.59944 0.5 0.26244387031 0.59944 0.45 0.2624656558 
0.59944 0.4 0.26362404227 0.59944 0.35 0.26329267025 0.59944 0.3 0.26658922434 
0.59944 0.25 0.26815634966 0.59944 0.2 0.26933547854 0.59944 0.15 0.26895016432 
0.59944 0.1 0.27344289422 0.59944 0.05 0.27901953459 0.59944 0 0.28081145883 
0.649224 1.5 0.28700000048 0.649224 1.45 0.28700000048 0.649224 1.4 0.28700000048 
0.649224 1.35 0.28700000048 0.649224 1.3 0.28700000048 0.649224 1.25 0.28700000048 
0.649224 1.2 0.28700000048 0.649224 1.15 0.28700000048 0.649224 1.1 0.28700000048 
0.649224 1.05 0.28700000048 0.649224 1 0.28700000048 0.649224 0.95 0.28700000048 
0.649224 0.9 0.28700000048 0.649224 0.85 0.28700000048 0.649224 0.8 0.28700000048 
0.649224 0.75 0.28700000048 0.649224 0.7 0.28700000048 0.649224 0.65 0.28700000048 
0.649224 0.6 0.28700000048 0.649224 0.55 0.28700000048 0.649224 0.5 0.28700000048 
0.649224 0.45 0.28700000048 0.649224 0.4 0.28700000048 0.649224 0.35 0.28700000048 
0.649224 0.3 0.28700000048 0.649224 0.25 0.28700000048 0.649224 0.2 0.28700000048 
0.649224 0.15 0.28700000048 0.649224 0.1 0.28700000048 0.649224 0.05 0.28700000048 
0.649224 0 0.28700000048 0.699008 1.5 0.28700000048 0.699008 1.45 0.28700000048 
0.699008 1.4 0.28700000048 0.699008 1.35 0.28700000048 0.699008 1.3 0.28700000048 
0.699008 1.25 0.28700000048 0.699008 1.2 0.28700000048 0.699008 1.15 0.28700000048 
0.699008 1.1 0.28700000048 0.699008 1.05 0.28700000048 0.699008 1 0.28700000048 
0.699008 0.95 0.28700000048 0.699008 0.9 0.28700000048 0.699008 0.85 0.28700000048 
0.699008 0.8 0.28700000048 0.699008 0.75 0.28700000048 0.699008 0.7 0.28700000048 
0.699008 0.65 0.28700000048 0.699008 0.6 0.28700000048 0.699008 0.55 0.28700000048 
0.699008 0.5 0.28700000048 0.699008 0.45 0.28700000048 0.699008 0.4 0.28700000048 
0.699008 0.35 0.28700000048 0.699008 0.3 0.28700000048 0.699008 0.25 0.28700000048 
0.699008 0.2 0.28700000048 0.699008 0.15 0.28700000048 0.699008 0.1 0.28700000048 
0.699008 0.05 0.28700000048 0.699008 0 0.28700000048 0.748792 1.5 0.28700000048 
0.748792 1.45 0.28700000048 0.748792 1.4 0.28700000048 0.748792 1.35 0.28700000048 
0.748792 1.3 0.28700000048 0.748792 1.25 0.28700000048 0.748792 1.2 0.28700000048 
0.748792 1.15 0.28700000048 0.748792 1.1 0.28700000048 0.748792 1.05 0.28700000048 
0.748792 1 0.28700000048 0.748792 0.95 0.28700000048 0.748792 0.9 0.28700000048 
0.748792 0.85 0.28700000048 0.748792 0.8 0.28700000048 0.748792 0.75 0.28700000048 
0.748792 0.7 0.28700000048 0.748792 0.65 0.28700000048 0.748792 0.6 0.28700000048 
0.748792 0.55 0.28700000048 0.748792 0.5 0.28700000048 0.748792 0.45 0.28700000048 
0.748792 0.4 0.28700000048 0.748792 0.35 0.28700000048 0.748792 0.3 0.28700000048 
0.748792 0.25 0.28700000048 0.748792 0.2 0.28700000048 0.748792 0.15 0.28700000048 
0.748792 0.1 0.28700000048 0.748792 0.05 0.28700000048 0.748792 0 0.28700000048 
0.798576 1.5 0.28700000048 0.798576 1.45 0.28700000048 0.798576 1.4 0.28700000048 
0.798576 1.35 0.28700000048 0.798576 1.3 0.28700000048 0.798576 1.25 0.28700000048 
0.798576 1.2 0.28700000048 0.798576 1.15 0.28700000048 0.798576 1.1 0.28700000048 
0.798576 1.05 0.28700000048 0.798576 1 0.28700000048 0.798576 0.95 0.28700000048 
0.798576 0.9 0.28700000048 0.798576 0.85 0.28700000048 0.798576 0.8 0.28700000048 
0.798576 0.75 0.28700000048 0.798576 0.7 0.28700000048 0.798576 0.65 0.28700000048 
0.798576 0.6 0.28700000048 0.798576 0.55 0.28700000048 0.798576 0.5 0.28700000048 
0.798576 0.45 0.28700000048 0.798576 0.4 0.28700000048 0.798576 0.35 0.28700000048 
0.798576 0.3 0.28700000048 0.798576 0.25 0.28700000048 0.798576 0.2 0.28700000048 
0.798576 0.15 0.28700000048 0.798576 0.1 0.28700000048 0.798576 0.05 0.28700000048 
0.798576 0 0.28700000048 0.84836 1.5 0.28700000048 0.84836 1.45 0.28700000048 
0.84836 1.4 0.28700000048 0.84836 1.35 0.28700000048 0.84836 1.3 0.28700000048 
0.84836 1.25 0.28700000048 0.84836 1.2 0.28700000048 0.84836 1.15 0.28700000048 
0.84836 1.1 0.28700000048 0.84836 1.05 0.28700000048 0.84836 1 0.28700000048 
0.84836 0.95 0.28700000048 0.84836 0.9 0.28700000048 0.84836 0.85 0.28700000048 
0.84836 0.8 0.28700000048 0.84836 0.75 0.28700000048 0.84836 0.7 0.28700000048 
0.84836 0.65 0.28700000048 0.84836 0.6 0.28700000048 0.84836 0.55 0.28700000048 
0.84836 0.5 0.28700000048 0.84836 0.45 0.28700000048 0.84836 0.4 0.28700000048 
0.84836 0.35 0.28700000048 0.84836 0.3 0.28700000048 0.84836 0.25 0.28700000048 
0.84836 0.2 0.28700000048 0.84836 0.15 0.28700000048 0.84836 0.1 0.28700000048 
0.84836 0.05 0.28700000048 0.84836 0 0.28700000048 0.898144 1.5 0.28700000048 
0.898144 1.45 0.28700000048 0.898144 1.4 0.28700000048 0.898144 1.35 0.28700000048 
0.898144 1.3 0.28700000048 0.898144 1.25 0.28700000048 0.898144 1.2 0.28700000048 
0.898144 1.15 0.28700000048 0.898144 1.1 0.28700000048 0.898144 1.05 0.28700000048 
0.898144 1 0.28700000048 0.898144 0.95 0.28700000048 0.898144 0.9 0.28700000048 
0.898144 0.85 0.28700000048 0.898144 0.8 0.28700000048 0.898144 0.75 0.28700000048 
0.898144 0.7 0.28700000048 0.898144 0.65 0.28700000048 0.898144 0.6 0.28700000048 
0.898144 0.55 0.28700000048 0.898144 0.5 0.28700000048 0.898144 0.45 0.28700000048 
0.898144 0.4 0.28700000048 0.898144 0.35 0.28700000048 0.898144 0.3 0.28700000048 
0.898144 0.25 0.28700000048 0.898144 0.2 0.28700000048 0.898144 0.15 0.28700000048 
0.898144 0.1 0.28700000048 0.898144 0.05 0.28700000048 0.898144 0 0.28700000048 
0.947928 1.5 0.28700000048 0.947928 1.45 0.28700000048 0.947928 1.4 0.28700000048 
0.947928 1.35 0.28700000048 0.947928 1.3 0.28700000048 0.947928 1.25 0.28700000048 
0.947928 1.2 0.28700000048 0.947928 1.15 0.28700000048 0.947928 1.1 0.28700000048 
0.947928 1.05 0.28700000048 0.947928 1 0.28700000048 0.947928 0.95 0.28700000048 
0.947928 0.9 0.28700000048 0.947928 0.85 0.28700000048 0.947928 0.8 0.28700000048 
0.947928 0.75 0.28700000048 0.947928 0.7 0.28700000048 0.947928 0.65 0.28700000048 
0.947928 0.6 0.28700000048 0.947928 0.55 0.28700000048 0.947928 0.5 0.28700000048 
0.947928 0.45 0.28700000048 0.947928 0.4 0.28700000048 0.947928 0.35 0.28700000048 
0.947928 0.3 0.28700000048 0.947928 0.25 0.28700000048 0.947928 0.2 0.28700000048 
0.947928 0.15 0.28700000048 0.947928 0.1 0.28700000048 0.947928 0.05 0.28700000048 
0.947928 0 0.28700000048 0.997712 1.5 0.28700000048 0.997712 1.45 0.28700000048 
0.997712 1.4 0.28700000048 0.997712 1.35 0.28700000048 0.997712 1.3 0.28700000048 
0.997712 1.25 0.28700000048 0.997712 1.2 0.28700000048 0.997712 1.15 0.28700000048 
0.997712 1.1 0.28700000048 0.997712 1.05 0.28700000048 0.997712 1 0.28700000048 
0.997712 0.95 0.28700000048 0.997712 0.9 0.28700000048 0.997712 0.85 0.28700000048 
0.997712 0.8 0.28700000048 0.997712 0.75 0.28700000048 0.997712 0.7 0.28700000048 
0.997712 0.65 0.28700000048 0.997712 0.6 0.28700000048 0.997712 0.55 0.28700000048 
0.997712 0.5 0.28700000048 0.997712 0.45 0.28700000048 0.997712 0.4 0.28700000048 
0.997712 0.35 0.28700000048 0.997712 0.3 0.28700000048 0.997712 0.25 0.28700000048 
0.997712 0.2 0.28700000048 0.997712 0.15 0.28700000048 0.997712 0.1 0.28700000048 
0.997712 0.05 0.28700000048 0.997712 0 0.28700000048 1.047496 1.5 0.28700000048 
1.047496 1.45 0.28700000048 1.047496 1.4 0.28700000048 1.047496 1.35 0.28700000048 
1.047496 1.3 0.28700000048 1.047496 1.25 0.28700000048 1.047496 1.2 0.28700000048 
1.047496 1.15 0.28700000048 1.047496 1.1 0.28700000048 1.047496 1.05 0.28700000048 
1.047496 1 0.28700000048 1.047496 0.95 0.28700000048 1.047496 0.9 0.28700000048 
1.047496 0.85 0.28700000048 1.047496 0.8 0.28700000048 1.047496 0.75 0.28700000048 
1.047496 0.7 0.28700000048 1.047496 0.65 0.28700000048 1.047496 0.6 0.28700000048 
1.047496 0.55 0.28700000048 1.047496 0.5 0.28700000048 1.047496 0.45 0.28700000048 
1.047496 0.4 0.28700000048 1.047496 0.35 0.28700000048 1.047496 0.3 0.28700000048 
1.047496 0.25 0.28700000048 1.047496 0.2 0.28700000048 1.047496 0.15 0.28700000048 
1.047496 0.1 0.28700000048 1.047496 0.05 0.28700000048 1.047496 0 0.28700000048 
1.09728 1.5 0.28700000048 1.09728 1.45 0.28700000048 1.09728 1.4 0.28700000048 
1.09728 1.35 0.28700000048 1.09728 1.3 0.28700000048 1.09728 1.25 0.28700000048 
1.09728 1.2 0.28700000048 1.09728 1.15 0.28700000048 1.09728 1.1 0.28700000048 
1.09728 1.05 0.28700000048 1.09728 1 0.28700000048 1.09728 0.95 0.28700000048 
1.09728 0.9 0.28700000048 1.09728 0.85 0.28700000048 1.09728 0.8 0.28700000048 
1.09728 0.75 0.28700000048 1.09728 0.7 0.28700000048 1.09728 0.65 0.28700000048 
1.09728 0.6 0.28700000048 1.09728 0.55 0.28700000048 1.09728 0.5 0.28700000048 
1.09728 0.45 0.28700000048 1.09728 0.4 0.28700000048 1.09728 0.35 0.28700000048 
1.09728 0.3 0.28700000048 1.09728 0.25 0.28700000048 1.09728 0.2 0.28700000048 
1.09728 0.15 0.28700000048 1.09728 0.1 0.28700000048 1.09728 0.05 0.28700000048 
1.09728 0 0.28700000048 1.147064 1.5 0.28700000048 1.147064 1.45 0.28700000048 
1.147064 1.4 0.28700000048 1.147064 1.35 0.28700000048 1.147064 1.3 0.28700000048 
1.147064 1.25 0.28700000048 1.147064 1.2 0.28700000048 1.147064 1.15 0.28700000048 
1.147064 1.1 0.28700000048 1.147064 1.05 0.28700000048 1.147064 1 0.28700000048 
1.147064 0.95 0.28700000048 1.147064 0.9 0.28700000048 1.147064 0.85 0.28700000048 
1.147064 0.8 0.28700000048 1.147064 0.75 0.28700000048 1.147064 0.7 0.28700000048 
1.147064 0.65 0.28700000048 1.147064 0.6 0.28700000048 1.147064 0.55 0.28700000048 
1.147064 0.5 0.28700000048 1.147064 0.45 0.28700000048 1.147064 0.4 0.28700000048 
1.147064 0.35 0.28700000048 1.147064 0.3 0.28700000048 1.147064 0.25 0.28700000048 
1.147064 0.2 0.28700000048 1.147064 0.15 0.28700000048 1.147064 0.1 0.28700000048 
1.147064 0.05 0.28700000048 1.147064 0 0.28700000048 1.196848 1.5 0.28700000048 
1.196848 1.45 0.28700000048 1.196848 1.4 0.28700000048 1.196848 1.35 0.28700000048 
1.196848 1.3 0.28700000048 1.196848 1.25 0.28700000048 1.196848 1.2 0.28700000048 
1.196848 1.15 0.28700000048 1.196848 1.1 0.28700000048 1.196848 1.05 0.28700000048 
1.196848 1 0.28700000048 1.196848 0.95 0.28700000048 1.196848 0.9 0.28700000048 
1.196848 0.85 0.28700000048 1.196848 0.8 0.28700000048 1.196848 0.75 0.28700000048 
1.196848 0.7 0.28700000048 1.196848 0.65 0.28700000048 1.196848 0.6 0.28700000048 
1.196848 0.55 0.28700000048 1.196848 0.5 0.28700000048 1.196848 0.45 0.28700000048 
1.196848 0.4 0.28700000048 1.196848 0.35 0.28700000048 1.196848 0.3 0.28700000048 
1.196848 0.25 0.28700000048 1.196848 0.2 0.28700000048 1.196848 0.15 0.28700000048 
1.196848 0.1 0.28700000048 1.196848 0.05 0.28700000048 1.196848 0 0.28700000048 
1.246632 1.5 0.28700000048 1.246632 1.45 0.28700000048 1.246632 1.4 0.28700000048 
1.246632 1.35 0.28700000048 1.246632 1.3 0.28700000048 1.246632 1.25 0.28700000048 
1.246632 1.2 0.28700000048 1.246632 1.15 0.28700000048 1.246632 1.1 0.28700000048 
1.246632 1.05 0.28700000048 1.246632 1 0.28700000048 1.246632 0.95 0.28700000048 
1.246632 0.9 0.28700000048 1.246632 0.85 0.28700000048 1.246632 0.8 0.28700000048 
1.246632 0.75 0.28700000048 1.246632 0.7 0.28700000048 1.246632 0.65 0.28700000048 
1.246632 0.6 0.28700000048 1.246632 0.55 0.28700000048 1.246632 0.5 0.28700000048 
1.246632 0.45 0.28700000048 1.246632 0.4 0.28700000048 1.246632 0.35 0.28700000048 
1.246632 0.3 0.28700000048 1.246632 0.25 0.28700000048 1.246632 0.2 0.28700000048 
1.246632 0.15 0.28700000048 1.246632 0.1 0.28700000048 1.246632 0.05 0.28700000048 
1.246632 0 0.28700000048 1.296416 1.5 0.28700000048 1.296416 1.45 0.28700000048 
1.296416 1.4 0.28700000048 1.296416 1.35 0.28700000048 1.296416 1.3 0.28700000048 
1.296416 1.25 0.28700000048 1.296416 1.2 0.28700000048 1.296416 1.15 0.28700000048 
1.296416 1.1 0.28700000048 1.296416 1.05 0.28700000048 1.296416 1 0.28700000048 
1.296416 0.95 0.28700000048 1.296416 0.9 0.28700000048 1.296416 0.85 0.28700000048 
1.296416 0.8 0.28700000048 1.296416 0.75 0.28700000048 1.296416 0.7 0.28700000048 
1.296416 0.65 0.28700000048 1.296416 0.6 0.28700000048 1.296416 0.55 0.28700000048 
1.296416 0.5 0.28700000048 1.296416 0.45 0.28700000048 1.296416 0.4 0.28700000048 
1.296416 0.35 0.28700000048 1.296416 0.3 0.28700000048 1.296416 0.25 0.28700000048 
1.296416 0.2 0.28700000048 1.296416 0.15 0.28700000048 1.296416 0.1 0.28700000048 
1.296416 0.05 0.28700000048 1.296416 0 0.28700000048 1.3462 1.5 0.28700000048 
1.3462 1.45 0.28700000048 1.3462 1.4 0.28700000048 1.3462 1.35 0.28700000048 
1.3462 1.3 0.28700000048 1.3462 1.25 0.28700000048 1.3462 1.2 0.28700000048 
1.3462 1.15 0.28700000048 1.3462 1.1 0.28700000048 1.3462 1.05 0.28700000048 
1.3462 1 0.28700000048 1.3462 0.95 0.28700000048 1.3462 0.9 0.28700000048 
1.3462 0.85 0.28700000048 1.3462 0.8 0.28700000048 1.3462 0.75 0.28700000048 
1.3462 0.7 0.28700000048 1.3462 0.65 0.28700000048 1.3462 0.6 0.28700000048 
1.3462 0.55 0.28700000048 1.3462 0.5 0.28700000048 1.3462 0.45 0.28700000048 
1.3462 0.4 0.28700000048 1.3462 0.35 0.28700000048 1.3462 0.3 0.28700000048 
1.3462 0.25 0.28700000048 1.3462 0.2 0.28700000048 1.3462 0.15 0.28700000048 
1.3462 0.1 0.28700000048 1.3462 0.05 0.28700000048 1.3462 0 0.28700000048 
1.395984 1.5 0.28700000048 1.395984 1.45 0.28700000048 1.395984 1.4 0.28700000048 
1.395984 1.35 0.28700000048 1.395984 1.3 0.28700000048 1.395984 1.25 0.28700000048 
1.395984 1.2 0.28700000048 1.395984 1.15 0.28700000048 1.395984 1.1 0.28700000048 
1.395984 1.05 0.28700000048 1.395984 1 0.28700000048 1.395984 0.95 0.28700000048 
1.395984 0.9 0.28700000048 1.395984 0.85 0.28700000048 1.395984 0.8 0.28700000048 
1.395984 0.75 0.28700000048 1.395984 0.7 0.28700000048 1.395984 0.65 0.28700000048 
1.395984 0.6 0.28700000048 1.395984 0.55 0.28700000048 1.395984 0.5 0.28700000048 
1.395984 0.45 0.28700000048 1.395984 0.4 0.28700000048 1.395984 0.35 0.28700000048 
1.395984 0.3 0.28700000048 1.395984 0.25 0.28700000048 1.395984 0.2 0.28700000048 
1.395984 0.15 0.28700000048 1.395984 0.1 0.28700000048 1.395984 0.05 0.28700000048 
1.395984 0 0.28700000048 1.445768 1.5 0.28700000048 1.445768 1.45 0.28700000048 
1.445768 1.4 0.28700000048 1.445768 1.35 0.28700000048 1.445768 1.3 0.28700000048 
1.445768 1.25 0.28700000048 1.445768 1.2 0.28700000048 1.445768 1.15 0.28700000048 
1.445768 1.1 0.28700000048 1.445768 1.05 0.28700000048 1.445768 1 0.28700000048 
1.445768 0.95 0.28700000048 1.445768 0.9 0.28700000048 1.445768 0.85 0.28700000048 
1.445768 0.8 0.28700000048 1.445768 0.75 0.28700000048 1.445768 0.7 0.28700000048 
1.445768 0.65 0.28700000048 1.445768 0.6 0.28700000048 1.445768 0.55 0.28700000048 
1.445768 0.5 0.28700000048 1.445768 0.45 0.28700000048 1.445768 0.4 0.28700000048 
1.445768 0.35 0.28700000048 1.445768 0.3 0.28700000048 1.445768 0.25 0.28700000048 
1.445768 0.2 0.28700000048 1.445768 0.15 0.28700000048 1.445768 0.1 0.28700000048 
1.445768 0.05 0.28700000048 1.445768 0 0.28700000048 1.495552 1.5 0.28700000048 
1.495552 1.45 0.28700000048 1.495552 1.4 0.28700000048 1.495552 1.35 0.28700000048 
1.495552 1.3 0.28700000048 1.495552 1.25 0.28700000048 1.495552 1.2 0.28700000048 
1.495552 1.15 0.28700000048 1.495552 1.1 0.28700000048 1.495552 1.05 0.28700000048 
1.495552 1 0.28700000048 1.495552 0.95 0.28700000048 1.495552 0.9 0.28700000048 
1.495552 0.85 0.28700000048 1.495552 0.8 0.28700000048 1.495552 0.75 0.28700000048 
1.495552 0.7 0.28700000048 1.495552 0.65 0.28700000048 1.495552 0.6 0.28700000048 
1.495552 0.55 0.28700000048 1.495552 0.5 0.28700000048 1.495552 0.45 0.28700000048 
1.495552 0.4 0.28700000048 1.495552 0.35 0.28700000048 1.495552 0.3 0.28700000048 
1.495552 0.25 0.28700000048 1.495552 0.2 0.28700000048 1.495552 0.15 0.28700000048 
1.495552 0.1 0.28700000048 1.495552 0.05 0.28700000048 1.495552 0 0.28700000048 
1.545336 1.5 0.28700000048 1.545336 1.45 0.28700000048 1.545336 1.4 0.28700000048 
1.545336 1.35 0.28700000048 1.545336 1.3 0.28700000048 1.545336 1.25 0.28700000048 
1.545336 1.2 0.28700000048 1.545336 1.15 0.28700000048 1.545336 1.1 0.28700000048 
1.545336 1.05 0.28700000048 1.545336 1 0.28700000048 1.545336 0.95 0.28700000048 
1.545336 0.9 0.28700000048 1.545336 0.85 0.28700000048 1.545336 0.8 0.28700000048 
1.545336 0.75 0.28700000048 1.545336 0.7 0.28700000048 1.545336 0.65 0.28700000048 
1.545336 0.6 0.28700000048 1.545336 0.55 0.28700000048 1.545336 0.5 0.28700000048 
1.545336 0.45 0.28700000048 1.545336 0.4 0.28700000048 1.545336 0.35 0.28700000048 
1.545336 0.3 0.28700000048 1.545336 0.25 0.28700000048 1.545336 0.2 0.28700000048 
1.545336 0.15 0.28700000048 1.545336 0.1 0.28700000048 1.545336 0.05 0.28700000048 
1.545336 0 0.28700000048 1.59512 1.5 0.28700000048 1.59512 1.45 0.28700000048 
1.59512 1.4 0.28700000048 1.59512 1.35 0.28700000048 1.59512 1.3 0.28700000048 
1.59512 1.25 0.28700000048 1.59512 1.2 0.28700000048 1.59512 1.15 0.28700000048 
1.59512 1.1 0.28700000048 1.59512 1.05 0.28700000048 1.59512 1 0.28700000048 
1.59512 0.95 0.28700000048 1.59512 0.9 0.28700000048 1.59512 0.85 0.28700000048 
1.59512 0.8 0.28700000048 1.59512 0.75 0.28700000048 1.59512 0.7 0.28700000048 
1.59512 0.65 0.28700000048 1.59512 0.6 0.28700000048 1.59512 0.55 0.28700000048 
1.59512 0.5 0.28700000048 1.59512 0.45 0.28700000048 1.59512 0.4 0.28700000048 
1.59512 0.35 0.28700000048 1.59512 0.3 0.28700000048 1.59512 0.25 0.28700000048 
1.59512 0.2 0.28700000048 1.59512 0.15 0.28700000048 1.59512 0.1 0.28700000048 
1.59512 0.05 0.28700000048 1.59512 0 0.28700000048 1.644904 1.5 0.28700000048 
1.644904 1.45 0.28700000048 1.644904 1.4 0.28700000048 1.644904 1.35 0.28700000048 
1.644904 1.3 0.28700000048 1.644904 1.25 0.28700000048 1.644904 1.2 0.28700000048 
1.644904 1.15 0.28700000048 1.644904 1.1 0.28700000048 1.644904 1.05 0.28700000048 
1.644904 1 0.28700000048 1.644904 0.95 0.28700000048 1.644904 0.9 0.28700000048 
1.644904 0.85 0.28700000048 1.644904 0.8 0.28700000048 1.644904 0.75 0.28700000048 
1.644904 0.7 0.28700000048 1.644904 0.65 0.28700000048 1.644904 0.6 0.28700000048 
1.644904 0.55 0.28700000048 1.644904 0.5 0.28700000048 1.644904 0.45 0.28700000048 
1.644904 0.4 0.28700000048 1.644904 0.35 0.28700000048 1.644904 0.3 0.28700000048 
1.644904 0.25 0.28700000048 1.644904 0.2 0.28700000048 1.644904 0.15 0.28700000048 
1.644904 0.1 0.28700000048 1.644904 0.05 0.28700000048 1.644904 0 0.28700000048 
1.694688 1.5 0.28700000048 1.694688 1.45 0.28700000048 1.694688 1.4 0.28700000048 
1.694688 1.35 0.28700000048 1.694688 1.3 0.28700000048 1.694688 1.25 0.28700000048 
1.694688 1.2 0.28700000048 1.694688 1.15 0.28700000048 1.694688 1.1 0.28700000048 
1.694688 1.05 0.28700000048 1.694688 1 0.28700000048 1.694688 0.95 0.28700000048 
1.694688 0.9 0.28700000048 1.694688 0.85 0.28700000048 1.694688 0.8 0.28700000048 
1.694688 0.75 0.28700000048 1.694688 0.7 0.28700000048 1.694688 0.65 0.28700000048 
1.694688 0.6 0.28700000048 1.694688 0.55 0.28700000048 1.694688 0.5 0.28700000048 
1.694688 0.45 0.28700000048 1.694688 0.4 0.28700000048 1.694688 0.35 0.28700000048 
1.694688 0.3 0.28700000048 1.694688 0.25 0.28700000048 1.694688 0.2 0.28700000048 
1.694688 0.15 0.28700000048 1.694688 0.1 0.28700000048 1.694688 0.05 0.28700000048 
1.694688 0 0.28700000048 1.744472 1.5 0.28700000048 1.744472 1.45 0.28700000048 
1.744472 1.4 0.28700000048 1.744472 1.35 0.28700000048 1.744472 1.3 0.28700000048 
1.744472 1.25 0.28700000048 1.744472 1.2 0.28700000048 1.744472 1.15 0.28700000048 
1.744472 1.1 0.28700000048 1.744472 1.05 0.28700000048 1.744472 1 0.28700000048 
1.744472 0.95 0.28700000048 1.744472 0.9 0.28700000048 1.744472 0.85 0.28700000048 
1.744472 0.8 0.28700000048 1.744472 0.75 0.28700000048 1.744472 0.7 0.28700000048 
1.744472 0.65 0.28700000048 1.744472 0.6 0.28700000048 1.744472 0.55 0.28700000048 
1.744472 0.5 0.28700000048 1.744472 0.45 0.28700000048 1.744472 0.4 0.28700000048 
1.744472 0.35 0.28700000048 1.744472 0.3 0.28700000048 1.744472 0.25 0.28700000048 
1.744472 0.2 0.28700000048 1.744472 0.15 0.28700000048 1.744472 0.1 0.28700000048 
1.744472 0.05 0.28700000048 1.744472 0 0.28700000048 1.794256 1.5 0.28700000048 
1.794256 1.45 0.28700000048 1.794256 1.4 0.28700000048 1.794256 1.35 0.28700000048 
1.794256 1.3 0.28700000048 1.794256 1.25 0.28700000048 1.794256 1.2 0.28700000048 
1.794256 1.15 0.28700000048 1.794256 1.1 0.28700000048 1.794256 1.05 0.28700000048 
1.794256 1 0.28700000048 1.794256 0.95 0.28700000048 1.794256 0.9 0.28700000048 
1.794256 0.85 0.28700000048 1.794256 0.8 0.28700000048 1.794256 0.75 0.28700000048 
1.794256 0.7 0.28700000048 1.794256 0.65 0.28700000048 1.794256 0.6 0.28700000048 
1.794256 0.55 0.28700000048 1.794256 0.5 0.28700000048 1.794256 0.45 0.28700000048 
1.794256 0.4 0.28700000048 1.794256 0.35 0.28700000048 1.794256 0.3 0.28700000048 
1.794256 0.25 0.28700000048 1.794256 0.2 0.28700000048 1.794256 0.15 0.28700000048 
1.794256 0.1 0.28700000048 1.794256 0.05 0.28700000048 1.794256 0 0.28700000048 
1.84404 1.5 0.28700000048 1.84404 1.45 0.28700000048 1.84404 1.4 0.28700000048 
1.84404 1.35 0.28700000048 1.84404 1.3 0.28700000048 1.84404 1.25 0.28700000048 
1.84404 1.2 0.28700000048 1.84404 1.15 0.28700000048 1.84404 1.1 0.28700000048 
1.84404 1.05 0.28700000048 1.84404 1 0.28700000048 1.84404 0.95 0.28700000048 
1.84404 0.9 0.28700000048 1.84404 0.85 0.28700000048 1.84404 0.8 0.28700000048 
1.84404 0.75 0.28700000048 1.84404 0.7 0.28700000048 1.84404 0.65 0.28700000048 
1.84404 0.6 0.28700000048 1.84404 0.55 0.28700000048 1.84404 0.5 0.28700000048 
1.84404 0.45 0.28700000048 1.84404 0.4 0.28700000048 1.84404 0.35 0.28700000048 
1.84404 0.3 0.28700000048 1.84404 0.25 0.28700000048 1.84404 0.2 0.28700000048 
1.84404 0.15 0.28700000048 1.84404 0.1 0.28700000048 1.84404 0.05 0.28700000048 
1.84404 0 0.28700000048 1.893824 1.5 0.28700000048 1.893824 1.45 0.28700000048 
1.893824 1.4 0.28700000048 1.893824 1.35 0.28700000048 1.893824 1.3 0.28700000048 
1.893824 1.25 0.28700000048 1.893824 1.2 0.28700000048 1.893824 1.15 0.28700000048 
1.893824 1.1 0.28700000048 1.893824 1.05 0.28700000048 1.893824 1 0.28700000048 
1.893824 0.95 0.28700000048 1.893824 0.9 0.28700000048 1.893824 0.85 0.28700000048 
1.893824 0.8 0.28700000048 1.893824 0.75 0.28700000048 1.893824 0.7 0.28700000048 
1.893824 0.65 0.28700000048 1.893824 0.6 0.28700000048 1.893824 0.55 0.28700000048 
1.893824 0.5 0.28700000048 1.893824 0.45 0.28700000048 1.893824 0.4 0.28700000048 
1.893824 0.35 0.28700000048 1.893824 0.3 0.28700000048 1.893824 0.25 0.28700000048 
1.893824 0.2 0.28700000048 1.893824 0.15 0.28700000048 1.893824 0.1 0.28700000048 
1.893824 0.05 0.28700000048 1.893824 0 0.28700000048 1.943608 1.5 0.28700000048 
1.943608 1.45 0.28700000048 1.943608 1.4 0.28700000048 1.943608 1.35 0.28700000048 
1.943608 1.3 0.28700000048 1.943608 1.25 0.28700000048 1.943608 1.2 0.28700000048 
1.943608 1.15 0.28700000048 1.943608 1.1 0.28700000048 1.943608 1.05 0.28700000048 
1.943608 1 0.28700000048 1.943608 0.95 0.28700000048 1.943608 0.9 0.28700000048 
1.943608 0.85 0.28700000048 1.943608 0.8 0.28700000048 1.943608 0.75 0.28700000048 
1.943608 0.7 0.28700000048 1.943608 0.65 0.28700000048 1.943608 0.6 0.28700000048 
1.943608 0.55 0.28700000048 1.943608 0.5 0.28700000048 1.943608 0.45 0.28700000048 
1.943608 0.4 0.28700000048 1.943608 0.35 0.28700000048 1.943608 0.3 0.28700000048 
1.943608 0.25 0.28700000048 1.943608 0.2 0.28700000048 1.943608 0.15 0.28700000048 
1.943608 0.1 0.28700000048 1.943608 0.05 0.28700000048 1.943608 0 0.28700000048 
1.993392 1.5 0.28700000048 1.993392 1.45 0.28700000048 1.993392 1.4 0.28700000048 
1.993392 1.35 0.28700000048 1.993392 1.3 0.28700000048 1.993392 1.25 0.28700000048 
1.993392 1.2 0.28700000048 1.993392 1.15 0.28700000048 1.993392 1.1 0.28700000048 
1.993392 1.05 0.28700000048 1.993392 1 0.28700000048 1.993392 0.95 0.28700000048 
1.993392 0.9 0.28700000048 1.993392 0.85 0.28700000048 1.993392 0.8 0.28700000048 
1.993392 0.75 0.28700000048 1.993392 0.7 0.28700000048 1.993392 0.65 0.28700000048 
1.993392 0.6 0.28700000048 1.993392 0.55 0.28700000048 1.993392 0.5 0.28700000048 
1.993392 0.45 0.28700000048 1.993392 0.4 0.28700000048 1.993392 0.35 0.28700000048 
1.993392 0.3 0.28700000048 1.993392 0.25 0.28700000048 1.993392 0.2 0.28700000048 
1.993392 0.15 0.28700000048 1.993392 0.1 0.28700000048 1.993392 0.05 0.28700000048 
1.993392 0 0.28700000048 2.043176 1.5 0.28700000048 2.043176 1.45 0.28700000048 
2.043176 1.4 0.28700000048 2.043176 1.35 0.28700000048 2.043176 1.3 0.28700000048 
2.043176 1.25 0.28700000048 2.043176 1.2 0.28700000048 2.043176 1.15 0.28700000048 
2.043176 1.1 0.28700000048 2.043176 1.05 0.28700000048 2.043176 1 0.28700000048 
2.043176 0.95 0.28700000048 2.043176 0.9 0.28700000048 2.043176 0.85 0.28700000048 
2.043176 0.8 0.28700000048 2.043176 0.75 0.28700000048 2.043176 0.7 0.28700000048 
2.043176 0.65 0.28700000048 2.043176 0.6 0.28700000048 2.043176 0.55 0.28700000048 
2.043176 0.5 0.28700000048 2.043176 0.45 0.28700000048 2.043176 0.4 0.28700000048 
2.043176 0.35 0.28700000048 2.043176 0.3 0.28700000048 2.043176 0.25 0.28700000048 
2.043176 0.2 0.28700000048 2.043176 0.15 0.28700000048 2.043176 0.1 0.28700000048 
2.043176 0.05 0.28700000048 2.043176 0 0.28700000048 2.09296 1.5 0.28700000048 
2.09296 1.45 0.28700000048 2.09296 1.4 0.28700000048 2.09296 1.35 0.28700000048 
2.09296 1.3 0.28700000048 2.09296 1.25 0.28700000048 2.09296 1.2 0.28700000048 
2.09296 1.15 0.28700000048 2.09296 1.1 0.28700000048 2.09296 1.05 0.28700000048 
2.09296 1 0.28700000048 2.09296 0.95 0.28700000048 2.09296 0.9 0.28700000048 
2.09296 0.85 0.28700000048 2.09296 0.8 0.28700000048 2.09296 0.75 0.28700000048 
2.09296 0.7 0.28700000048 2.09296 0.65 0.28700000048 2.09296 0.6 0.28700000048 
2.09296 0.55 0.28700000048 2.09296 0.5 0.28700000048 2.09296 0.45 0.28700000048 
2.09296 0.4 0.28700000048 2.09296 0.35 0.28700000048 2.09296 0.3 0.28700000048 
2.09296 0.25 0.28700000048 2.09296 0.2 0.28700000048 2.09296 0.15 0.28700000048 
2.09296 0.1 0.28700000048 2.09296 0.05 0.28700000048 2.09296 0 0.28700000048 
2.142744 1.5 0.28700000048 2.142744 1.45 0.28700000048 2.142744 1.4 0.28700000048 
2.142744 1.35 0.28700000048 2.142744 1.3 0.28700000048 2.142744 1.25 0.28700000048 
2.142744 1.2 0.28700000048 2.142744 1.15 0.28700000048 2.142744 1.1 0.28700000048 
2.142744 1.05 0.28700000048 2.142744 1 0.28700000048 2.142744 0.95 0.28700000048 
2.142744 0.9 0.28700000048 2.142744 0.85 0.28700000048 2.142744 0.8 0.28700000048 
2.142744 0.75 0.28700000048 2.142744 0.7 0.28700000048 2.142744 0.65 0.28700000048 
2.142744 0.6 0.28700000048 2.142744 0.55 0.28700000048 2.142744 0.5 0.28700000048 
2.142744 0.45 0.28700000048 2.142744 0.4 0.28700000048 2.142744 0.35 0.28700000048 
2.142744 0.3 0.28700000048 2.142744 0.25 0.28700000048 2.142744 0.2 0.28700000048 
2.142744 0.15 0.28700000048 2.142744 0.1 0.28700000048 2.142744 0.05 0.28700000048 
2.142744 0 0.28700000048 2.192528 1.5 0.28700000048 2.192528 1.45 0.28700000048 
2.192528 1.4 0.28700000048 2.192528 1.35 0.28700000048 2.192528 1.3 0.28700000048 
2.192528 1.25 0.28700000048 2.192528 1.2 0.28700000048 2.192528 1.15 0.28700000048 
2.192528 1.1 0.28700000048 2.192528 1.05 0.28700000048 2.192528 1 0.28700000048 
2.192528 0.95 0.28700000048 2.192528 0.9 0.28700000048 2.192528 0.85 0.28700000048 
2.192528 0.8 0.28700000048 2.192528 0.75 0.28700000048 2.192528 0.7 0.28700000048 
2.192528 0.65 0.28700000048 2.192528 0.6 0.28700000048 2.192528 0.55 0.28700000048 
2.192528 0.5 0.28700000048 2.192528 0.45 0.28700000048 2.192528 0.4 0.28700000048 
2.192528 0.35 0.28700000048 2.192528 0.3 0.28700000048 2.192528 0.25 0.28700000048 
2.192528 0.2 0.28700000048 2.192528 0.15 0.28700000048 2.192528 0.1 0.28700000048 
2.192528 0.05 0.28700000048 2.192528 0 0.28700000048 2.242312 1.5 0.28700000048 
2.242312 1.45 0.28700000048 2.242312 1.4 0.28700000048 2.242312 1.35 0.28700000048 
2.242312 1.3 0.28700000048 2.242312 1.25 0.28700000048 2.242312 1.2 0.28700000048 
2.242312 1.15 0.28700000048 2.242312 1.1 0.28700000048 2.242312 1.05 0.28700000048 
2.242312 1 0.28700000048 2.242312 0.95 0.28700000048 2.242312 0.9 0.28700000048 
2.242312 0.85 0.28700000048 2.242312 0.8 0.28700000048 2.242312 0.75 0.28700000048 
2.242312 0.7 0.28700000048 2.242312 0.65 0.28700000048 2.242312 0.6 0.28700000048 
2.242312 0.55 0.28700000048 2.242312 0.5 0.28700000048 2.242312 0.45 0.28700000048 
2.242312 0.4 0.28700000048 2.242312 0.35 0.28700000048 2.242312 0.3 0.28700000048 
2.242312 0.25 0.28700000048 2.242312 0.2 0.28700000048 2.242312 0.15 0.28700000048 
2.242312 0.1 0.28700000048 2.242312 0.05 0.28700000048 2.242312 0 0.28700000048 
2.292096 1.5 0.28700000048 2.292096 1.45 0.28700000048 2.292096 1.4 0.28700000048 
2.292096 1.35 0.28700000048 2.292096 1.3 0.28700000048 2.292096 1.25 0.28700000048 
2.292096 1.2 0.28700000048 2.292096 1.15 0.28700000048 2.292096 1.1 0.28700000048 
2.292096 1.05 0.28700000048 2.292096 1 0.28700000048 2.292096 0.95 0.28700000048 
2.292096 0.9 0.28700000048 2.292096 0.85 0.28700000048 2.292096 0.8 0.28700000048 
2.292096 0.75 0.28700000048 2.292096 0.7 0.28700000048 2.292096 0.65 0.28700000048 
2.292096 0.6 0.28700000048 2.292096 0.55 0.28700000048 2.292096 0.5 0.28700000048 
2.292096 0.45 0.28700000048 2.292096 0.4 0.28700000048 2.292096 0.35 0.28700000048 
2.292096 0.3 0.28700000048 2.292096 0.25 0.28700000048 2.292096 0.2 0.28700000048 
2.292096 0.15 0.28700000048 2.292096 0.1 0.28700000048 2.292096 0.05 0.28700000048 
2.292096 0 0.28700000048 2.34188 1.5 0.28700000048 2.34188 1.45 0.28700000048 
2.34188 1.4 0.28700000048 2.34188 1.35 0.28700000048 2.34188 1.3 0.28700000048 
2.34188 1.25 0.28700000048 2.34188 1.2 0.28700000048 2.34188 1.15 0.28700000048 
2.34188 1.1 0.28700000048 2.34188 1.05 0.28700000048 2.34188 1 0.28700000048 
2.34188 0.95 0.28700000048 2.34188 0.9 0.28700000048 2.34188 0.85 0.28700000048 
2.34188 0.8 0.28700000048 2.34188 0.75 0.28700000048 2.34188 0.7 0.28700000048 
2.34188 0.65 0.28700000048 2.34188 0.6 0.28700000048 2.34188 0.55 0.28700000048 
2.34188 0.5 0.28700000048 2.34188 0.45 0.28700000048 2.34188 0.4 0.28700000048 
2.34188 0.35 0.28700000048 2.34188 0.3 0.28700000048 2.34188 0.25 0.28700000048 
2.34188 0.2 0.28700000048 2.34188 0.15 0.28700000048 2.34188 0.1 0.28700000048 
2.34188 0.05 0.28700000048 2.34188 0 0.28700000048 2.391664 1.5 0.28700000048 
2.391664 1.45 0.28700000048 2.391664 1.4 0.28700000048 2.391664 1.35 0.28700000048 
2.391664 1.3 0.28700000048 2.391664 1.25 0.28700000048 2.391664 1.2 0.28700000048 
2.391664 1.15 0.28700000048 2.391664 1.1 0.28700000048 2.391664 1.05 0.28700000048 
2.391664 1 0.28700000048 2.391664 0.95 0.28700000048 2.391664 0.9 0.28700000048 
2.391664 0.85 0.28700000048 2.391664 0.8 0.28700000048 2.391664 0.75 0.28700000048 
2.391664 0.7 0.28700000048 2.391664 0.65 0.28700000048 2.391664 0.6 0.28700000048 
2.391664 0.55 0.28700000048 2.391664 0.5 0.28700000048 2.391664 0.45 0.28700000048 
2.391664 0.4 0.28700000048 2.391664 0.35 0.28700000048 2.391664 0.3 0.28700000048 
2.391664 0.25 0.28700000048 2.391664 0.2 0.28700000048 2.391664 0.15 0.28700000048 
2.391664 0.1 0.28700000048 2.391664 0.05 0.28700000048 2.391664 0 0.28700000048 
2.441448 1.5 0.28700000048 2.441448 1.45 0.28700000048 2.441448 1.4 0.28700000048 
2.441448 1.35 0.28700000048 2.441448 1.3 0.28700000048 2.441448 1.25 0.28700000048 
2.441448 1.2 0.28700000048 2.441448 1.15 0.28700000048 2.441448 1.1 0.28700000048 
2.441448 1.05 0.28700000048 2.441448 1 0.28700000048 2.441448 0.95 0.28700000048 
2.441448 0.9 0.28700000048 2.441448 0.85 0.28700000048 2.441448 0.8 0.28700000048 
2.441448 0.75 0.28700000048 2.441448 0.7 0.28700000048 2.441448 0.65 0.28700000048 
2.441448 0.6 0.28700000048 2.441448 0.55 0.28700000048 2.441448 0.5 0.28700000048 
2.441448 0.45 0.28700000048 2.441448 0.4 0.28700000048 2.441448 0.35 0.28700000048 
2.441448 0.3 0.28700000048 2.441448 0.25 0.28700000048 2.441448 0.2 0.28700000048 
2.441448 0.15 0.28700000048 2.441448 0.1 0.28700000048 2.441448 0.05 0.28700000048 
2.441448 0 0.28700000048 2.491232 1.5 0.28700000048 2.491232 1.45 0.28700000048 
2.491232 1.4 0.28700000048 2.491232 1.35 0.28700000048 2.491232 1.3 0.28700000048 
2.491232 1.25 0.28700000048 2.491232 1.2 0.28700000048 2.491232 1.15 0.28700000048 
2.491232 1.1 0.28700000048 2.491232 1.05 0.28700000048 2.491232 1 0.28700000048 
2.491232 0.95 0.28700000048 2.491232 0.9 0.28700000048 2.491232 0.85 0.28700000048 
2.491232 0.8 0.28700000048 2.491232 0.75 0.28700000048 2.491232 0.7 0.28700000048 
2.491232 0.65 0.28700000048 2.491232 0.6 0.28700000048 2.491232 0.55 0.28700000048 
2.491232 0.5 0.28700000048 2.491232 0.45 0.28700000048 2.491232 0.4 0.28700000048 
2.491232 0.35 0.28700000048 2.491232 0.3 0.28700000048 2.491232 0.25 0.28700000048 
2.491232 0.2 0.28700000048 2.491232 0.15 0.28700000048 2.491232 0.1 0.28700000048 
2.491232 0.05 0.28700000048 2.491232 0 0.28700000048 2.541016 1.5 0.28700000048 
2.541016 1.45 0.28700000048 2.541016 1.4 0.28700000048 2.541016 1.35 0.28700000048 
2.541016 1.3 0.28700000048 2.541016 1.25 0.28700000048 2.541016 1.2 0.28700000048 
2.541016 1.15 0.28700000048 2.541016 1.1 0.28700000048 2.541016 1.05 0.28700000048 
2.541016 1 0.28700000048 2.541016 0.95 0.28700000048 2.541016 0.9 0.28700000048 
2.541016 0.85 0.28700000048 2.541016 0.8 0.28700000048 2.541016 0.75 0.28700000048 
2.541016 0.7 0.28700000048 2.541016 0.65 0.28700000048 2.541016 0.6 0.28700000048 
2.541016 0.55 0.28700000048 2.541016 0.5 0.28700000048 2.541016 0.45 0.28700000048 
2.541016 0.4 0.28700000048 2.541016 0.35 0.28700000048 2.541016 0.3 0.28700000048 
2.541016 0.25 0.28700000048 2.541016 0.2 0.28700000048 2.541016 0.15 0.28700000048 
2.541016 0.1 0.28700000048 2.541016 0.05 0.28700000048 2.541016 0 0.28700000048 
2.5908 1.5 0.28700000048 2.5908 1.45 0.28700000048 2.5908 1.4 0.28700000048 
2.5908 1.35 0.28700000048 2.5908 1.3 0.28700000048 2.5908 1.25 0.28700000048 
2.5908 1.2 0.28700000048 2.5908 1.15 0.28700000048 2.5908 1.1 0.28700000048 
2.5908 1.05 0.28700000048 2.5908 1 0.28700000048 2.5908 0.95 0.28700000048 
2.5908 0.9 0.28700000048 2.5908 0.85 0.28700000048 2.5908 0.8 0.28700000048 
2.5908 0.75 0.28700000048 2.5908 0.7 0.28700000048 2.5908 0.65 0.28700000048 
2.5908 0.6 0.28700000048 2.5908 0.55 0.28700000048 2.5908 0.5 0.28700000048 
2.5908 0.45 0.28700000048 2.5908 0.4 0.28700000048 2.5908 0.35 0.28700000048 
2.5908 0.3 0.28700000048 2.5908 0.25 0.28700000048 2.5908 0.2 0.28700000048 
2.5908 0.15 0.28700000048 2.5908 0.1 0.28700000048 2.5908 0.05 0.28700000048 
2.5908 0 0.28700000048 2.640584 1.5 0.28700000048 2.640584 1.45 0.28700000048 
2.640584 1.4 0.28700000048 2.640584 1.35 0.28700000048 2.640584 1.3 0.28700000048 
2.640584 1.25 0.28700000048 2.640584 1.2 0.28700000048 2.640584 1.15 0.28700000048 
2.640584 1.1 0.28700000048 2.640584 1.05 0.28700000048 2.640584 1 0.28700000048 
2.640584 0.95 0.28700000048 2.640584 0.9 0.28700000048 2.640584 0.85 0.28700000048 
2.640584 0.8 0.28700000048 2.640584 0.75 0.28700000048 2.640584 0.7 0.28700000048 
2.640584 0.65 0.28700000048 2.640584 0.6 0.28700000048 2.640584 0.55 0.28700000048 
2.640584 0.5 0.28700000048 2.640584 0.45 0.28700000048 2.640584 0.4 0.28700000048 
2.640584 0.35 0.28700000048 2.640584 0.3 0.28700000048 2.640584 0.25 0.28700000048 
2.640584 0.2 0.28700000048 2.640584 0.15 0.28700000048 2.640584 0.1 0.28700000048 
2.640584 0.05 0.28700000048 2.640584 0 0.28700000048 2.690368 1.5 0.28700000048 
2.690368 1.45 0.28700000048 2.690368 1.4 0.28700000048 2.690368 1.35 0.28700000048 
2.690368 1.3 0.28700000048 2.690368 1.25 0.28700000048 2.690368 1.2 0.28700000048 
2.690368 1.15 0.28700000048 2.690368 1.1 0.28700000048 2.690368 1.05 0.28700000048 
2.690368 1 0.28700000048 2.690368 0.95 0.28700000048 2.690368 0.9 0.28700000048 
2.690368 0.85 0.28700000048 2.690368 0.8 0.28700000048 2.690368 0.75 0.28700000048 
2.690368 0.7 0.28700000048 2.690368 0.65 0.28700000048 2.690368 0.6 0.28700000048 
2.690368 0.55 0.28700000048 2.690368 0.5 0.28700000048 2.690368 0.45 0.28700000048 
2.690368 0.4 0.28700000048 2.690368 0.35 0.28700000048 2.690368 0.3 0.28700000048 
2.690368 0.25 0.28700000048 2.690368 0.2 0.28700000048 2.690368 0.15 0.28700000048 
2.690368 0.1 0.28700000048 2.690368 0.05 0.28700000048 2.690368 0 0.28700000048 
2.740152 1.5 0.28700000048 2.740152 1.45 0.28700000048 2.740152 1.4 0.28700000048 
2.740152 1.35 0.28700000048 2.740152 1.3 0.28700000048 2.740152 1.25 0.28700000048 
2.740152 1.2 0.28700000048 2.740152 1.15 0.28700000048 2.740152 1.1 0.28700000048 
2.740152 1.05 0.28700000048 2.740152 1 0.28700000048 2.740152 0.95 0.28700000048 
2.740152 0.9 0.28700000048 2.740152 0.85 0.28700000048 2.740152 0.8 0.28700000048 
2.740152 0.75 0.28700000048 2.740152 0.7 0.28700000048 2.740152 0.65 0.28700000048 
2.740152 0.6 0.28700000048 2.740152 0.55 0.28700000048 2.740152 0.5 0.28700000048 
2.740152 0.45 0.28700000048 2.740152 0.4 0.28700000048 2.740152 0.35 0.28700000048 
2.740152 0.3 0.28700000048 2.740152 0.25 0.28700000048 2.740152 0.2 0.28700000048 
2.740152 0.15 0.28700000048 2.740152 0.1 0.28700000048 2.740152 0.05 0.28700000048 
2.740152 0 0.28700000048 2.789936 1.5 0.28700000048 2.789936 1.45 0.28700000048 
2.789936 1.4 0.28700000048 2.789936 1.35 0.28700000048 2.789936 1.3 0.28700000048 
2.789936 1.25 0.28700000048 2.789936 1.2 0.28700000048 2.789936 1.15 0.28700000048 
2.789936 1.1 0.28700000048 2.789936 1.05 0.28700000048 2.789936 1 0.28700000048 
2.789936 0.95 0.28700000048 2.789936 0.9 0.28700000048 2.789936 0.85 0.28700000048 
2.789936 0.8 0.28700000048 2.789936 0.75 0.28700000048 2.789936 0.7 0.28700000048 
2.789936 0.65 0.28700000048 2.789936 0.6 0.28700000048 2.789936 0.55 0.28700000048 
2.789936 0.5 0.28700000048 2.789936 0.45 0.28700000048 2.789936 0.4 0.28700000048 
2.789936 0.35 0.28700000048 2.789936 0.3 0.28700000048 2.789936 0.25 0.28700000048 
2.789936 0.2 0.28700000048 2.789936 0.15 0.28700000048 2.789936 0.1 0.28700000048 
2.789936 0.05 0.28700000048 2.789936 0 0.28700000048 2.83972 1.5 0.28700000048 
2.83972 1.45 0.28700000048 2.83972 1.4 0.28700000048 2.83972 1.35 0.28700000048 
2.83972 1.3 0.28700000048 2.83972 1.25 0.28700000048 2.83972 1.2 0.28700000048 
2.83972 1.15 0.28700000048 2.83972 1.1 0.28700000048 2.83972 1.05 0.28700000048 
2.83972 1 0.28700000048 2.83972 0.95 0.28700000048 2.83972 0.9 0.28700000048 
2.83972 0.85 0.28700000048 2.83972 0.8 0.28700000048 2.83972 0.75 0.28700000048 
2.83972 0.7 0.28700000048 2.83972 0.65 0.28700000048 2.83972 0.6 0.28700000048 
2.83972 0.55 0.28700000048 2.83972 0.5 0.28700000048 2.83972 0.45 0.28700000048 
2.83972 0.4 0.28700000048 2.83972 0.35 0.28700000048 2.83972 0.3 0.28700000048 
2.83972 0.25 0.28700000048 2.83972 0.2 0.28700000048 2.83972 0.15 0.28700000048 
2.83972 0.1 0.28700000048 2.83972 0.05 0.28700000048 2.83972 0 0.28700000048 
2.889504 1.5 0.28700000048 2.889504 1.45 0.28700000048 2.889504 1.4 0.28700000048 
2.889504 1.35 0.28700000048 2.889504 1.3 0.28700000048 2.889504 1.25 0.28700000048 
2.889504 1.2 0.28700000048 2.889504 1.15 0.28700000048 2.889504 1.1 0.28700000048 
2.889504 1.05 0.28700000048 2.889504 1 0.28700000048 2.889504 0.95 0.28700000048 
2.889504 0.9 0.28700000048 2.889504 0.85 0.28700000048 2.889504 0.8 0.28700000048 
2.889504 0.75 0.28700000048 2.889504 0.7 0.28700000048 2.889504 0.65 0.28700000048 
2.889504 0.6 0.28700000048 2.889504 0.55 0.28700000048 2.889504 0.5 0.28700000048 
2.889504 0.45 0.28700000048 2.889504 0.4 0.28700000048 2.889504 0.35 0.28700000048 
2.889504 0.3 0.28700000048 2.889504 0.25 0.28700000048 2.889504 0.2 0.28700000048 
2.889504 0.15 0.28700000048 2.889504 0.1 0.28700000048 2.889504 0.05 0.28700000048 
2.889504 0 0.28700000048 2.939288 1.5 0.28700000048 2.939288 1.45 0.28700000048 
2.939288 1.4 0.28700000048 2.939288 1.35 0.28700000048 2.939288 1.3 0.28700000048 
2.939288 1.25 0.28700000048 2.939288 1.2 0.28700000048 2.939288 1.15 0.28700000048 
2.939288 1.1 0.28700000048 2.939288 1.05 0.28700000048 2.939288 1 0.28700000048 
2.939288 0.95 0.28700000048 2.939288 0.9 0.28700000048 2.939288 0.85 0.28700000048 
2.939288 0.8 0.28700000048 2.939288 0.75 0.28700000048 2.939288 0.7 0.28700000048 
2.939288 0.65 0.28700000048 2.939288 0.6 0.28700000048 2.939288 0.55 0.28700000048 
2.939288 0.5 0.28700000048 2.939288 0.45 0.28700000048 2.939288 0.4 0.28700000048 
2.939288 0.35 0.28700000048 2.939288 0.3 0.28700000048 2.939288 0.25 0.28700000048 
2.939288 0.2 0.28700000048 2.939288 0.15 0.28700000048 2.939288 0.1 0.28700000048 
2.939288 0.05 0.28700000048 2.939288 0 0.28700000048 2.989072 1.5 0.28700000048 
2.989072 1.45 0.28700000048 2.989072 1.4 0.28700000048 2.989072 1.35 0.28700000048 
2.989072 1.3 0.28700000048 2.989072 1.25 0.28700000048 2.989072 1.2 0.28700000048 
2.989072 1.15 0.28700000048 2.989072 1.1 0.28700000048 2.989072 1.05 0.28700000048 
2.989072 1 0.28700000048 2.989072 0.95 0.28700000048 2.989072 0.9 0.28700000048 
2.989072 0.85 0.28700000048 2.989072 0.8 0.28700000048 2.989072 0.75 0.28700000048 
2.989072 0.7 0.28700000048 2.989072 0.65 0.28700000048 2.989072 0.6 0.28700000048 
2.989072 0.55 0.28700000048 2.989072 0.5 0.28700000048 2.989072 0.45 0.28700000048 
2.989072 0.4 0.28700000048 2.989072 0.35 0.28700000048 2.989072 0.3 0.28700000048 
2.989072 0.25 0.28700000048 2.989072 0.2 0.28700000048 2.989072 0.15 0.28700000048 
2.989072 0.1 0.28700000048 2.989072 0.05 0.28700000048 2.989072 0 0.28700000048 
3.038856 1.5 0.28700000048 3.038856 1.45 0.28700000048 3.038856 1.4 0.28700000048 
3.038856 1.35 0.28700000048 3.038856 1.3 0.28700000048 3.038856 1.25 0.28700000048 
3.038856 1.2 0.28700000048 3.038856 1.15 0.28700000048 3.038856 1.1 0.28700000048 
3.038856 1.05 0.28700000048 3.038856 1 0.28700000048 3.038856 0.95 0.28700000048 
3.038856 0.9 0.28700000048 3.038856 0.85 0.28700000048 3.038856 0.8 0.28700000048 
3.038856 0.75 0.28700000048 3.038856 0.7 0.28700000048 3.038856 0.65 0.28700000048 
3.038856 0.6 0.28700000048 3.038856 0.55 0.28700000048 3.038856 0.5 0.28700000048 
3.038856 0.45 0.28700000048 3.038856 0.4 0.28700000048 3.038856 0.35 0.28700000048 
3.038856 0.3 0.28700000048 3.038856 0.25 0.28700000048 3.038856 0.2 0.28700000048 
3.038856 0.15 0.28700000048 3.038856 0.1 0.28700000048 3.038856 0.05 0.28700000048 
3.038856 0 0.28700000048 3.08864 1.5 0.28700000048 3.08864 1.45 0.28700000048 
3.08864 1.4 0.28700000048 3.08864 1.35 0.28700000048 3.08864 1.3 0.28700000048 
3.08864 1.25 0.28700000048 3.08864 1.2 0.28700000048 3.08864 1.15 0.28700000048 
3.08864 1.1 0.28700000048 3.08864 1.05 0.28700000048 3.08864 1 0.28700000048 
3.08864 0.95 0.28700000048 3.08864 0.9 0.28700000048 3.08864 0.85 0.28700000048 
3.08864 0.8 0.28700000048 3.08864 0.75 0.28700000048 3.08864 0.7 0.28700000048 
3.08864 0.65 0.28700000048 3.08864 0.6 0.28700000048 3.08864 0.55 0.28700000048 
3.08864 0.5 0.28700000048 3.08864 0.45 0.28700000048 3.08864 0.4 0.28700000048 
3.08864 0.35 0.28700000048 3.08864 0.3 0.28700000048 3.08864 0.25 0.28700000048 
3.08864 0.2 0.28700000048 3.08864 0.15 0.28700000048 3.08864 0.1 0.28700000048 
3.08864 0.05 0.28700000048 3.08864 0 0.28700000048 3.138424 1.5 0.28700000048 
3.138424 1.45 0.28700000048 3.138424 1.4 0.28700000048 3.138424 1.35 0.28700000048 
3.138424 1.3 0.28700000048 3.138424 1.25 0.28700000048 3.138424 1.2 0.28700000048 
3.138424 1.15 0.28700000048 3.138424 1.1 0.28700000048 3.138424 1.05 0.28700000048 
3.138424 1 0.28700000048 3.138424 0.95 0.28700000048 3.138424 0.9 0.28700000048 
3.138424 0.85 0.28700000048 3.138424 0.8 0.28700000048 3.138424 0.75 0.28700000048 
3.138424 0.7 0.28700000048 3.138424 0.65 0.28700000048 3.138424 0.6 0.28700000048 
3.138424 0.55 0.28700000048 3.138424 0.5 0.28700000048 3.138424 0.45 0.28700000048 
3.138424 0.4 0.28700000048 3.138424 0.35 0.28700000048 3.138424 0.3 0.28700000048 
3.138424 0.25 0.28700000048 3.138424 0.2 0.28700000048 3.138424 0.15 0.28700000048 
3.138424 0.1 0.28700000048 3.138424 0.05 0.28700000048 3.138424 0 0.28700000048 
3.188208 1.5 0.28700000048 3.188208 1.45 0.28700000048 3.188208 1.4 0.28700000048 
3.188208 1.35 0.28700000048 3.188208 1.3 0.28700000048 3.188208 1.25 0.28700000048 
3.188208 1.2 0.28700000048 3.188208 1.15 0.28700000048 3.188208 1.1 0.28700000048 
3.188208 1.05 0.28700000048 3.188208 1 0.28700000048 3.188208 0.95 0.28700000048 
3.188208 0.9 0.28700000048 3.188208 0.85 0.28700000048 3.188208 0.8 0.28700000048 
3.188208 0.75 0.28700000048 3.188208 0.7 0.28700000048 3.188208 0.65 0.28700000048 
3.188208 0.6 0.28700000048 3.188208 0.55 0.28700000048 3.188208 0.5 0.28700000048 
3.188208 0.45 0.28700000048 3.188208 0.4 0.28700000048 3.188208 0.35 0.28700000048 
3.188208 0.3 0.28700000048 3.188208 0.25 0.28700000048 3.188208 0.2 0.28700000048 
3.188208 0.15 0.28700000048 3.188208 0.1 0.28700000048 3.188208 0.05 0.28700000048 
3.188208 0 0.28700000048 3.237992 1.5 0.28700000048 3.237992 1.45 0.28700000048 
3.237992 1.4 0.28700000048 3.237992 1.35 0.28700000048 3.237992 1.3 0.28700000048 
3.237992 1.25 0.28700000048 3.237992 1.2 0.28700000048 3.237992 1.15 0.28700000048 
3.237992 1.1 0.28700000048 3.237992 1.05 0.28700000048 3.237992 1 0.28700000048 
3.237992 0.95 0.28700000048 3.237992 0.9 0.28700000048 3.237992 0.85 0.28700000048 
3.237992 0.8 0.28700000048 3.237992 0.75 0.28700000048 3.237992 0.7 0.28700000048 
3.237992 0.65 0.28700000048 3.237992 0.6 0.28700000048 3.237992 0.55 0.28700000048 
3.237992 0.5 0.28700000048 3.237992 0.45 0.28700000048 3.237992 0.4 0.28700000048 
3.237992 0.35 0.28700000048 3.237992 0.3 0.28700000048 3.237992 0.25 0.28700000048 
3.237992 0.2 0.28700000048 3.237992 0.15 0.28700000048 3.237992 0.1 0.28700000048 
3.237992 0.05 0.28700000048 3.237992 0 0.28700000048 3.287776 1.5 0.28700000048 
3.287776 1.45 0.28700000048 3.287776 1.4 0.28700000048 3.287776 1.35 0.28700000048 
3.287776 1.3 0.28700000048 3.287776 1.25 0.28700000048 3.287776 1.2 0.28700000048 
3.287776 1.15 0.28700000048 3.287776 1.1 0.28700000048 3.287776 1.05 0.28700000048 
3.287776 1 0.28700000048 3.287776 0.95 0.28700000048 3.287776 0.9 0.28700000048 
3.287776 0.85 0.28700000048 3.287776 0.8 0.28700000048 3.287776 0.75 0.28700000048 
3.287776 0.7 0.28700000048 3.287776 0.65 0.28700000048 3.287776 0.6 0.28700000048 
3.287776 0.55 0.28700000048 3.287776 0.5 0.28700000048 3.287776 0.45 0.28700000048 
3.287776 0.4 0.28700000048 3.287776 0.35 0.28700000048 3.287776 0.3 0.28700000048 
3.287776 0.25 0.28700000048 3.287776 0.2 0.28700000048 3.287776 0.15 0.28700000048 
3.287776 0.1 0.28700000048 3.287776 0.05 0.28700000048 3.287776 0 0.28700000048 
3.33756 1.5 0.28700000048 3.33756 1.45 0.28700000048 3.33756 1.4 0.28700000048 
3.33756 1.35 0.28700000048 3.33756 1.3 0.28700000048 3.33756 1.25 0.28700000048 
3.33756 1.2 0.28700000048 3.33756 1.15 0.28700000048 3.33756 1.1 0.28700000048 
3.33756 1.05 0.28700000048 3.33756 1 0.28700000048 3.33756 0.95 0.28700000048 
3.33756 0.9 0.28700000048 3.33756 0.85 0.28700000048 3.33756 0.8 0.28700000048 
3.33756 0.75 0.28700000048 3.33756 0.7 0.28700000048 3.33756 0.65 0.28700000048 
3.33756 0.6 0.28700000048 3.33756 0.55 0.28700000048 3.33756 0.5 0.28700000048 
3.33756 0.45 0.28700000048 3.33756 0.4 0.28700000048 3.33756 0.35 0.28700000048 
3.33756 0.3 0.28700000048 3.33756 0.25 0.28700000048 3.33756 0.2 0.28700000048 
3.33756 0.15 0.28700000048 3.33756 0.1 0.28700000048 3.33756 0.05 0.28700000048 
3.33756 0 0.28700000048 3.387344 1.5 0.28700000048 3.387344 1.45 0.28700000048 
3.387344 1.4 0.28700000048 3.387344 1.35 0.28700000048 3.387344 1.3 0.28700000048 
3.387344 1.25 0.28700000048 3.387344 1.2 0.28700000048 3.387344 1.15 0.28700000048 
3.387344 1.1 0.28700000048 3.387344 1.05 0.28700000048 3.387344 1 0.28700000048 
3.387344 0.95 0.28700000048 3.387344 0.9 0.28700000048 3.387344 0.85 0.28700000048 
3.387344 0.8 0.28700000048 3.387344 0.75 0.28700000048 3.387344 0.7 0.28700000048 
3.387344 0.65 0.28700000048 3.387344 0.6 0.28700000048 3.387344 0.55 0.28700000048 
3.387344 0.5 0.28700000048 3.387344 0.45 0.28700000048 3.387344 0.4 0.28700000048 
3.387344 0.35 0.28700000048 3.387344 0.3 0.28700000048 3.387344 0.25 0.28700000048 
3.387344 0.2 0.28700000048 3.387344 0.15 0.28700000048 3.387344 0.1 0.28700000048 
3.387344 0.05 0.28700000048 3.387344 0 0.28700000048 3.437128 1.5 0.28700000048 
3.437128 1.45 0.28700000048 3.437128 1.4 0.28700000048 3.437128 1.35 0.28700000048 
3.437128 1.3 0.28700000048 3.437128 1.25 0.28700000048 3.437128 1.2 0.28700000048 
3.437128 1.15 0.28700000048 3.437128 1.1 0.28700000048 3.437128 1.05 0.28700000048 
3.437128 1 0.28700000048 3.437128 0.95 0.28700000048 3.437128 0.9 0.28700000048 
3.437128 0.85 0.28700000048 3.437128 0.8 0.28700000048 3.437128 0.75 0.28700000048 
3.437128 0.7 0.28700000048 3.437128 0.65 0.28700000048 3.437128 0.6 0.28700000048 
3.437128 0.55 0.28700000048 3.437128 0.5 0.28700000048 3.437128 0.45 0.28700000048 
3.437128 0.4 0.28700000048 3.437128 0.35 0.28700000048 3.437128 0.3 0.28700000048 
3.437128 0.25 0.28700000048 3.437128 0.2 0.28700000048 3.437128 0.15 0.28700000048 
3.437128 0.1 0.28700000048 3.437128 0.05 0.28700000048 3.437128 0 0.28700000048 
3.486912 1.5 0.28700000048 3.486912 1.45 0.28700000048 3.486912 1.4 0.28700000048 
3.486912 1.35 0.28700000048 3.486912 1.3 0.28700000048 3.486912 1.25 0.28700000048 
3.486912 1.2 0.28700000048 3.486912 1.15 0.28700000048 3.486912 1.1 0.28700000048 
3.486912 1.05 0.28700000048 3.486912 1 0.28700000048 3.486912 0.95 0.28700000048 
3.486912 0.9 0.28700000048 3.486912 0.85 0.28700000048 3.486912 0.8 0.28700000048 
3.486912 0.75 0.28700000048 3.486912 0.7 0.28700000048 3.486912 0.65 0.28700000048 
3.486912 0.6 0.28700000048 3.486912 0.55 0.28700000048 3.486912 0.5 0.28700000048 
3.486912 0.45 0.28700000048 3.486912 0.4 0.28700000048 3.486912 0.35 0.28700000048 
3.486912 0.3 0.28700000048 3.486912 0.25 0.28700000048 3.486912 0.2 0.28700000048 
3.486912 0.15 0.28700000048 3.486912 0.1 0.28700000048 3.486912 0.05 0.28700000048 
3.486912 0 0.28700000048 3.536696 1.5 0.28700000048 3.536696 1.45 0.28700000048 
3.536696 1.4 0.28700000048 3.536696 1.35 0.28700000048 3.536696 1.3 0.28700000048 
3.536696 1.25 0.28700000048 3.536696 1.2 0.28700000048 3.536696 1.15 0.28700000048 
3.536696 1.1 0.28700000048 3.536696 1.05 0.28700000048 3.536696 1 0.28700000048 
3.536696 0.95 0.28700000048 3.536696 0.9 0.28700000048 3.536696 0.85 0.28700000048 
3.536696 0.8 0.28700000048 3.536696 0.75 0.28700000048 3.536696 0.7 0.28700000048 
3.536696 0.65 0.28700000048 3.536696 0.6 0.28700000048 3.536696 0.55 0.28700000048 
3.536696 0.5 0.28700000048 3.536696 0.45 0.28700000048 3.536696 0.4 0.28700000048 
3.536696 0.35 0.28700000048 3.536696 0.3 0.28700000048 3.536696 0.25 0.28700000048 
3.536696 0.2 0.28700000048 3.536696 0.15 0.28700000048 3.536696 0.1 0.28700000048 
3.536696 0.05 0.28700000048 3.536696 0 0.28700000048 3.58648 1.5 0.28700000048 
3.58648 1.45 0.28700000048 3.58648 1.4 0.28700000048 3.58648 1.35 0.28700000048 
3.58648 1.3 0.28700000048 3.58648 1.25 0.28700000048 3.58648 1.2 0.28700000048 
3.58648 1.15 0.28700000048 3.58648 1.1 0.28700000048 3.58648 1.05 0.28700000048 
3.58648 1 0.28700000048 3.58648 0.95 0.28700000048 3.58648 0.9 0.28700000048 
3.58648 0.85 0.28700000048 3.58648 0.8 0.28700000048 3.58648 0.75 0.28700000048 
3.58648 0.7 0.28700000048 3.58648 0.65 0.28700000048 3.58648 0.6 0.28700000048 
3.58648 0.55 0.28700000048 3.58648 0.5 0.28700000048 3.58648 0.45 0.28700000048 
3.58648 0.4 0.28700000048 3.58648 0.35 0.28700000048 3.58648 0.3 0.28700000048 
3.58648 0.25 0.28700000048 3.58648 0.2 0.28700000048 3.58648 0.15 0.28700000048 
3.58648 0.1 0.28700000048 3.58648 0.05 0.28700000048 3.58648 0 0.28700000048 
3.636264 1.5 0.28700000048 3.636264 1.45 0.28700000048 3.636264 1.4 0.28700000048 
3.636264 1.35 0.28700000048 3.636264 1.3 0.28700000048 3.636264 1.25 0.28700000048 
3.636264 1.2 0.28700000048 3.636264 1.15 0.28700000048 3.636264 1.1 0.28700000048 
3.636264 1.05 0.28700000048 3.636264 1 0.28700000048 3.636264 0.95 0.28700000048 
3.636264 0.9 0.28700000048 3.636264 0.85 0.28700000048 3.636264 0.8 0.28700000048 
3.636264 0.75 0.28700000048 3.636264 0.7 0.28700000048 3.636264 0.65 0.28700000048 
3.636264 0.6 0.28700000048 3.636264 0.55 0.28700000048 3.636264 0.5 0.28700000048 
3.636264 0.45 0.28700000048 3.636264 0.4 0.28700000048 3.636264 0.35 0.28700000048 
3.636264 0.3 0.28700000048 3.636264 0.25 0.28700000048 3.636264 0.2 0.28700000048 
3.636264 0.15 0.28700000048 3.636264 0.1 0.28700000048 3.636264 0.05 0.28700000048 
3.636264 0 0.28700000048 3.686048 1.5 0.28700000048 3.686048 1.45 0.28700000048 
3.686048 1.4 0.28700000048 3.686048 1.35 0.28700000048 3.686048 1.3 0.28700000048 
3.686048 1.25 0.28700000048 3.686048 1.2 0.28700000048 3.686048 1.15 0.28700000048 
3.686048 1.1 0.28700000048 3.686048 1.05 0.28700000048 3.686048 1 0.28700000048 
3.686048 0.95 0.28700000048 3.686048 0.9 0.28700000048 3.686048 0.85 0.28700000048 
3.686048 0.8 0.28700000048 3.686048 0.75 0.28700000048 3.686048 0.7 0.28700000048 
3.686048 0.65 0.28700000048 3.686048 0.6 0.28700000048 3.686048 0.55 0.28700000048 
3.686048 0.5 0.28700000048 3.686048 0.45 0.28700000048 3.686048 0.4 0.28700000048 
3.686048 0.35 0.28700000048 3.686048 0.3 0.28700000048 3.686048 0.25 0.28700000048 
3.686048 0.2 0.28700000048 3.686048 0.15 0.28700000048 3.686048 0.1 0.28700000048 
3.686048 0.05 0.28700000048 3.686048 0 0.28700000048 3.735832 1.5 0.28700000048 
3.735832 1.45 0.28700000048 3.735832 1.4 0.28700000048 3.735832 1.35 0.28700000048 
3.735832 1.3 0.28700000048 3.735832 1.25 0.28700000048 3.735832 1.2 0.28700000048 
3.735832 1.15 0.28700000048 3.735832 1.1 0.28700000048 3.735832 1.05 0.28700000048 
3.735832 1 0.28700000048 3.735832 0.95 0.28700000048 3.735832 0.9 0.28700000048 
3.735832 0.85 0.28700000048 3.735832 0.8 0.28700000048 3.735832 0.75 0.28700000048 
3.735832 0.7 0.28700000048 3.735832 0.65 0.28700000048 3.735832 0.6 0.28700000048 
3.735832 0.55 0.28700000048 3.735832 0.5 0.28700000048 3.735832 0.45 0.28700000048 
3.735832 0.4 0.28700000048 3.735832 0.35 0.28700000048 3.735832 0.3 0.28700000048 
3.735832 0.25 0.28700000048 3.735832 0.2 0.28700000048 3.735832 0.15 0.28700000048 
3.735832 0.1 0.28700000048 3.735832 0.05 0.28700000048 3.735832 0 0.28700000048 
3.785616 1.5 0.28700000048 3.785616 1.45 0.28700000048 3.785616 1.4 0.28700000048 
3.785616 1.35 0.28700000048 3.785616 1.3 0.28700000048 3.785616 1.25 0.28700000048 
3.785616 1.2 0.28700000048 3.785616 1.15 0.28700000048 3.785616 1.1 0.28700000048 
3.785616 1.05 0.28700000048 3.785616 1 0.28700000048 3.785616 0.95 0.28700000048 
3.785616 0.9 0.28700000048 3.785616 0.85 0.28700000048 3.785616 0.8 0.28700000048 
3.785616 0.75 0.28700000048 3.785616 0.7 0.28700000048 3.785616 0.65 0.28700000048 
3.785616 0.6 0.28700000048 3.785616 0.55 0.28700000048 3.785616 0.5 0.28700000048 
3.785616 0.45 0.28700000048 3.785616 0.4 0.28700000048 3.785616 0.35 0.28700000048 
3.785616 0.3 0.28700000048 3.785616 0.25 0.28700000048 3.785616 0.2 0.28700000048 
3.785616 0.15 0.28700000048 3.785616 0.1 0.28700000048 3.785616 0.05 0.28700000048 
3.785616 0 0.28700000048 3.8354 1.5 0.28700000048 3.8354 1.45 0.28700000048 
3.8354 1.4 0.28700000048 3.8354 1.35 0.28700000048 3.8354 1.3 0.28700000048 
3.8354 1.25 0.28700000048 3.8354 1.2 0.28700000048 3.8354 1.15 0.28700000048 
3.8354 1.1 0.28700000048 3.8354 1.05 0.28700000048 3.8354 1 0.28700000048 
3.8354 0.95 0.28700000048 3.8354 0.9 0.28700000048 3.8354 0.85 0.28700000048 
3.8354 0.8 0.28700000048 3.8354 0.75 0.28700000048 3.8354 0.7 0.28700000048 
3.8354 0.65 0.28700000048 3.8354 0.6 0.28700000048 3.8354 0.55 0.28700000048 
3.8354 0.5 0.28700000048 3.8354 0.45 0.28700000048 3.8354 0.4 0.28700000048 
3.8354 0.35 0.28700000048 3.8354 0.3 0.28700000048 3.8354 0.25 0.28700000048 
3.8354 0.2 0.28700000048 3.8354 0.15 0.28700000048 3.8354 0.1 0.28700000048 
3.8354 0.05 0.28700000048 3.8354 0 0.28700000048 3.885184 1.5 0.28700000048 
3.885184 1.45 0.28700000048 3.885184 1.4 0.28700000048 3.885184 1.35 0.28700000048 
3.885184 1.3 0.28700000048 3.885184 1.25 0.28700000048 3.885184 1.2 0.28700000048 
3.885184 1.15 0.28700000048 3.885184 1.1 0.28700000048 3.885184 1.05 0.28700000048 
3.885184 1 0.28700000048 3.885184 0.95 0.28700000048 3.885184 0.9 0.28700000048 
3.885184 0.85 0.28700000048 3.885184 0.8 0.28700000048 3.885184 0.75 0.28700000048 
3.885184 0.7 0.28700000048 3.885184 0.65 0.28700000048 3.885184 0.6 0.28700000048 
3.885184 0.55 0.28700000048 3.885184 0.5 0.28700000048 3.885184 0.45 0.28700000048 
3.885184 0.4 0.28700000048 3.885184 0.35 0.28700000048 3.885184 0.3 0.28700000048 
3.885184 0.25 0.28700000048 3.885184 0.2 0.28700000048 3.885184 0.15 0.28700000048 
3.885184 0.1 0.28700000048 3.885184 0.05 0.28700000048 3.885184 0 0.28700000048 
3.934968 1.5 0.28700000048 3.934968 1.45 0.28700000048 3.934968 1.4 0.28700000048 
3.934968 1.35 0.28700000048 3.934968 1.3 0.28700000048 3.934968 1.25 0.28700000048 
3.934968 1.2 0.28700000048 3.934968 1.15 0.28700000048 3.934968 1.1 0.28700000048 
3.934968 1.05 0.28700000048 3.934968 1 0.28700000048 3.934968 0.95 0.28700000048 
3.934968 0.9 0.28700000048 3.934968 0.85 0.28700000048 3.934968 0.8 0.28700000048 
3.934968 0.75 0.28700000048 3.934968 0.7 0.28700000048 3.934968 0.65 0.28700000048 
3.934968 0.6 0.28700000048 3.934968 0.55 0.28700000048 3.934968 0.5 0.28700000048 
3.934968 0.45 0.28700000048 3.934968 0.4 0.28700000048 3.934968 0.35 0.28700000048 
3.934968 0.3 0.28700000048 3.934968 0.25 0.28700000048 3.934968 0.2 0.28700000048 
3.934968 0.15 0.28700000048 3.934968 0.1 0.28700000048 3.934968 0.05 0.28700000048 
3.934968 0 0.28700000048 3.984752 1.5 0.28700000048 3.984752 1.45 0.28700000048 
3.984752 1.4 0.28700000048 3.984752 1.35 0.28700000048 3.984752 1.3 0.28700000048 
3.984752 1.25 0.28700000048 3.984752 1.2 0.28700000048 3.984752 1.15 0.28700000048 
3.984752 1.1 0.28700000048 3.984752 1.05 0.28700000048 3.984752 1 0.28700000048 
3.984752 0.95 0.28700000048 3.984752 0.9 0.28700000048 3.984752 0.85 0.28700000048 
3.984752 0.8 0.28700000048 3.984752 0.75 0.28700000048 3.984752 0.7 0.28700000048 
3.984752 0.65 0.28700000048 3.984752 0.6 0.28700000048 3.984752 0.55 0.28700000048 
3.984752 0.5 0.28700000048 3.984752 0.45 0.28700000048 3.984752 0.4 0.28700000048 
3.984752 0.35 0.28700000048 3.984752 0.3 0.28700000048 3.984752 0.25 0.28700000048 
3.984752 0.2 0.28700000048 3.984752 0.15 0.28700000048 3.984752 0.1 0.28700000048 
3.984752 0.05 0.28700000048 3.984752 0 0.28700000048 4.034536 1.5 0.28700000048 
4.034536 1.45 0.28700000048 4.034536 1.4 0.28700000048 4.034536 1.35 0.28700000048 
4.034536 1.3 0.28700000048 4.034536 1.25 0.28700000048 4.034536 1.2 0.28700000048 
4.034536 1.15 0.28700000048 4.034536 1.1 0.28700000048 4.034536 1.05 0.28700000048 
4.034536 1 0.28700000048 4.034536 0.95 0.28700000048 4.034536 0.9 0.28700000048 
4.034536 0.85 0.28700000048 4.034536 0.8 0.28700000048 4.034536 0.75 0.28700000048 
4.034536 0.7 0.28700000048 4.034536 0.65 0.28700000048 4.034536 0.6 0.28700000048 
4.034536 0.55 0.28700000048 4.034536 0.5 0.28700000048 4.034536 0.45 0.28700000048 
4.034536 0.4 0.28700000048 4.034536 0.35 0.28700000048 4.034536 0.3 0.28700000048 
4.034536 0.25 0.28700000048 4.034536 0.2 0.28700000048 4.034536 0.15 0.28700000048 
4.034536 0.1 0.28700000048 4.034536 0.05 0.28700000048 4.034536 0 0.28700000048 
4.08432 1.5 0.28700000048 4.08432 1.45 0.28700000048 4.08432 1.4 0.28700000048 
4.08432 1.35 0.28700000048 4.08432 1.3 0.28700000048 4.08432 1.25 0.28700000048 
4.08432 1.2 0.28700000048 4.08432 1.15 0.28700000048 4.08432 1.1 0.28700000048 
4.08432 1.05 0.28700000048 4.08432 1 0.28700000048 4.08432 0.95 0.28700000048 
4.08432 0.9 0.28700000048 4.08432 0.85 0.28700000048 4.08432 0.8 0.28700000048 
4.08432 0.75 0.28700000048 4.08432 0.7 0.28700000048 4.08432 0.65 0.28700000048 
4.08432 0.6 0.28700000048 4.08432 0.55 0.28700000048 4.08432 0.5 0.28700000048 
4.08432 0.45 0.28700000048 4.08432 0.4 0.28700000048 4.08432 0.35 0.28700000048 
4.08432 0.3 0.28700000048 4.08432 0.25 0.28700000048 4.08432 0.2 0.28700000048 
4.08432 0.15 0.28700000048 4.08432 0.1 0.28700000048 4.08432 0.05 0.28700000048 
4.08432 0 0.28700000048 4.134104 1.5 0.28700000048 4.134104 1.45 0.28700000048 
4.134104 1.4 0.28700000048 4.134104 1.35 0.28700000048 4.134104 1.3 0.28700000048 
4.134104 1.25 0.28700000048 4.134104 1.2 0.28700000048 4.134104 1.15 0.28700000048 
4.134104 1.1 0.28700000048 4.134104 1.05 0.28700000048 4.134104 1 0.28700000048 
4.134104 0.95 0.28700000048 4.134104 0.9 0.28700000048 4.134104 0.85 0.28700000048 
4.134104 0.8 0.28700000048 4.134104 0.75 0.28700000048 4.134104 0.7 0.28700000048 
4.134104 0.65 0.28700000048 4.134104 0.6 0.28700000048 4.134104 0.55 0.28700000048 
4.134104 0.5 0.28700000048 4.134104 0.45 0.28700000048 4.134104 0.4 0.28700000048 
4.134104 0.35 0.28700000048 4.134104 0.3 0.28700000048 4.134104 0.25 0.28700000048 
4.134104 0.2 0.28700000048 4.134104 0.15 0.28700000048 4.134104 0.1 0.28700000048 
4.134104 0.05 0.28700000048 4.134104 0 0.28700000048 4.183888 1.5 0.28700000048 
4.183888 1.45 0.28700000048 4.183888 1.4 0.28700000048 4.183888 1.35 0.28700000048 
4.183888 1.3 0.28700000048 4.183888 1.25 0.28700000048 4.183888 1.2 0.28700000048 
4.183888 1.15 0.28700000048 4.183888 1.1 0.28700000048 4.183888 1.05 0.28700000048 
4.183888 1 0.28700000048 4.183888 0.95 0.28700000048 4.183888 0.9 0.28700000048 
4.183888 0.85 0.28700000048 4.183888 0.8 0.28700000048 4.183888 0.75 0.28700000048 
4.183888 0.7 0.28700000048 4.183888 0.65 0.28700000048 4.183888 0.6 0.28700000048 
4.183888 0.55 0.28700000048 4.183888 0.5 0.28700000048 4.183888 0.45 0.28700000048 
4.183888 0.4 0.28700000048 4.183888 0.35 0.28700000048 4.183888 0.3 0.28700000048 
4.183888 0.25 0.28700000048 4.183888 0.2 0.28700000048 4.183888 0.15 0.28700000048 
4.183888 0.1 0.28700000048 4.183888 0.05 0.28700000048 4.183888 0 0.28700000048 
4.233672 1.5 0.28700000048 4.233672 1.45 0.28700000048 4.233672 1.4 0.28700000048 
4.233672 1.35 0.28700000048 4.233672 1.3 0.28700000048 4.233672 1.25 0.28700000048 
4.233672 1.2 0.28700000048 4.233672 1.15 0.28700000048 4.233672 1.1 0.28700000048 
4.233672 1.05 0.28700000048 4.233672 1 0.28700000048 4.233672 0.95 0.28700000048 
4.233672 0.9 0.28700000048 4.233672 0.85 0.28700000048 4.233672 0.8 0.28700000048 
4.233672 0.75 0.28700000048 4.233672 0.7 0.28700000048 4.233672 0.65 0.28700000048 
4.233672 0.6 0.28700000048 4.233672 0.55 0.28700000048 4.233672 0.5 0.28700000048 
4.233672 0.45 0.28700000048 4.233672 0.4 0.28700000048 4.233672 0.35 0.28700000048 
4.233672 0.3 0.28700000048 4.233672 0.25 0.28700000048 4.233672 0.2 0.28700000048 
4.233672 0.15 0.28700000048 4.233672 0.1 0.28700000048 4.233672 0.05 0.28700000048 
4.233672 0 0.28700000048 4.283456 1.5 0.28700000048 4.283456 1.45 0.28700000048 
4.283456 1.4 0.28700000048 4.283456 1.35 0.28700000048 4.283456 1.3 0.28700000048 
4.283456 1.25 0.28700000048 4.283456 1.2 0.28700000048 4.283456 1.15 0.28700000048 
4.283456 1.1 0.28700000048 4.283456 1.05 0.28700000048 4.283456 1 0.28700000048 
4.283456 0.95 0.28700000048 4.283456 0.9 0.28700000048 4.283456 0.85 0.28700000048 
4.283456 0.8 0.28700000048 4.283456 0.75 0.28700000048 4.283456 0.7 0.28700000048 
4.283456 0.65 0.28700000048 4.283456 0.6 0.28700000048 4.283456 0.55 0.28700000048 
4.283456 0.5 0.28700000048 4.283456 0.45 0.28700000048 4.283456 0.4 0.28700000048 
4.283456 0.35 0.28700000048 4.283456 0.3 0.28700000048 4.283456 0.25 0.28700000048 
4.283456 0.2 0.28700000048 4.283456 0.15 0.28700000048 4.283456 0.1 0.28700000048 
4.283456 0.05 0.28700000048 4.283456 0 0.28700000048 4.33324 1.5 0.28700000048 
4.33324 1.45 0.28700000048 4.33324 1.4 0.28700000048 4.33324 1.35 0.28700000048 
4.33324 1.3 0.28700000048 4.33324 1.25 0.28700000048 4.33324 1.2 0.28700000048 
4.33324 1.15 0.28700000048 4.33324 1.1 0.28700000048 4.33324 1.05 0.28700000048 
4.33324 1 0.28700000048 4.33324 0.95 0.28700000048 4.33324 0.9 0.28700000048 
4.33324 0.85 0.28700000048 4.33324 0.8 0.28700000048 4.33324 0.75 0.28700000048 
4.33324 0.7 0.28700000048 4.33324 0.65 0.28700000048 4.33324 0.6 0.28700000048 
4.33324 0.55 0.28700000048 4.33324 0.5 0.28700000048 4.33324 0.45 0.28700000048 
4.33324 0.4 0.28700000048 4.33324 0.35 0.28700000048 4.33324 0.3 0.28700000048 
4.33324 0.25 0.28700000048 4.33324 0.2 0.28700000048 4.33324 0.15 0.28700000048 
4.33324 0.1 0.28700000048 4.33324 0.05 0.28700000048 4.33324 0 0.28700000048 
4.383024 1.5 0.28700000048 4.383024 1.45 0.28700000048 4.383024 1.4 0.28700000048 
4.383024 1.35 0.28700000048 4.383024 1.3 0.28700000048 4.383024 1.25 0.28700000048 
4.383024 1.2 0.28700000048 4.383024 1.15 0.28700000048 4.383024 1.1 0.28700000048 
4.383024 1.05 0.28700000048 4.383024 1 0.28700000048 4.383024 0.95 0.28700000048 
4.383024 0.9 0.28700000048 4.383024 0.85 0.28700000048 4.383024 0.8 0.28700000048 
4.383024 0.75 0.28700000048 4.383024 0.7 0.28700000048 4.383024 0.65 0.28700000048 
4.383024 0.6 0.28700000048 4.383024 0.55 0.28700000048 4.383024 0.5 0.28700000048 
4.383024 0.45 0.28700000048 4.383024 0.4 0.28700000048 4.383024 0.35 0.28700000048 
4.383024 0.3 0.28700000048 4.383024 0.25 0.28700000048 4.383024 0.2 0.28700000048 
4.383024 0.15 0.28700000048 4.383024 0.1 0.28700000048 4.383024 0.05 0.28700000048 
4.383024 0 0.28700000048 4.432808 1.5 0.28700000048 4.432808 1.45 0.28700000048 
4.432808 1.4 0.28700000048 4.432808 1.35 0.28700000048 4.432808 1.3 0.28700000048 
4.432808 1.25 0.28700000048 4.432808 1.2 0.28700000048 4.432808 1.15 0.28700000048 
4.432808 1.1 0.28700000048 4.432808 1.05 0.28700000048 4.432808 1 0.28700000048 
4.432808 0.95 0.28700000048 4.432808 0.9 0.28700000048 4.432808 0.85 0.28700000048 
4.432808 0.8 0.28700000048 4.432808 0.75 0.28700000048 4.432808 0.7 0.28700000048 
4.432808 0.65 0.28700000048 4.432808 0.6 0.28700000048 4.432808 0.55 0.28700000048 
4.432808 0.5 0.28700000048 4.432808 0.45 0.28700000048 4.432808 0.4 0.28700000048 
4.432808 0.35 0.28700000048 4.432808 0.3 0.28700000048 4.432808 0.25 0.28700000048 
4.432808 0.2 0.28700000048 4.432808 0.15 0.28700000048 4.432808 0.1 0.28700000048 
4.432808 0.05 0.28700000048 4.432808 0 0.28700000048 4.482592 1.5 0.28700000048 
4.482592 1.45 0.28700000048 4.482592 1.4 0.28700000048 4.482592 1.35 0.28700000048 
4.482592 1.3 0.28700000048 4.482592 1.25 0.28700000048 4.482592 1.2 0.28700000048 
4.482592 1.15 0.28700000048 4.482592 1.1 0.28700000048 4.482592 1.05 0.28700000048 
4.482592 1 0.28700000048 4.482592 0.95 0.28700000048 4.482592 0.9 0.28700000048 
4.482592 0.85 0.28700000048 4.482592 0.8 0.28700000048 4.482592 0.75 0.28700000048 
4.482592 0.7 0.28700000048 4.482592 0.65 0.28700000048 4.482592 0.6 0.28700000048 
4.482592 0.55 0.28700000048 4.482592 0.5 0.28700000048 4.482592 0.45 0.28700000048 
4.482592 0.4 0.28700000048 4.482592 0.35 0.28700000048 4.482592 0.3 0.28700000048 
4.482592 0.25 0.28700000048 4.482592 0.2 0.28700000048 4.482592 0.15 0.28700000048 
4.482592 0.1 0.28700000048 4.482592 0.05 0.28700000048 4.482592 0 0.28700000048 
4.532376 1.5 0.28700000048 4.532376 1.45 0.28700000048 4.532376 1.4 0.28700000048 
4.532376 1.35 0.28700000048 4.532376 1.3 0.28700000048 4.532376 1.25 0.28700000048 
4.532376 1.2 0.28700000048 4.532376 1.15 0.28700000048 4.532376 1.1 0.28700000048 
4.532376 1.05 0.28700000048 4.532376 1 0.28700000048 4.532376 0.95 0.28700000048 
4.532376 0.9 0.28700000048 4.532376 0.85 0.28700000048 4.532376 0.8 0.28700000048 
4.532376 0.75 0.28700000048 4.532376 0.7 0.28700000048 4.532376 0.65 0.28700000048 
4.532376 0.6 0.28700000048 4.532376 0.55 0.28700000048 4.532376 0.5 0.28700000048 
4.532376 0.45 0.28700000048 4.532376 0.4 0.28700000048 4.532376 0.35 0.28700000048 
4.532376 0.3 0.28700000048 4.532376 0.25 0.28700000048 4.532376 0.2 0.28700000048 
4.532376 0.15 0.28700000048 4.532376 0.1 0.28700000048 4.532376 0.05 0.28700000048 
4.532376 0 0.28700000048 4.58216 1.5 0.28700000048 4.58216 1.45 0.28700000048 
4.58216 1.4 0.28700000048 4.58216 1.35 0.28700000048 4.58216 1.3 0.28700000048 
4.58216 1.25 0.28700000048 4.58216 1.2 0.28700000048 4.58216 1.15 0.28700000048 
4.58216 1.1 0.28700000048 4.58216 1.05 0.28700000048 4.58216 1 0.28700000048 
4.58216 0.95 0.28700000048 4.58216 0.9 0.28700000048 4.58216 0.85 0.28700000048 
4.58216 0.8 0.28700000048 4.58216 0.75 0.28700000048 4.58216 0.7 0.28700000048 
4.58216 0.65 0.28700000048 4.58216 0.6 0.28700000048 4.58216 0.55 0.28700000048 
4.58216 0.5 0.28700000048 4.58216 0.45 0.28700000048 4.58216 0.4 0.28700000048 
4.58216 0.35 0.28700000048 4.58216 0.3 0.28700000048 4.58216 0.25 0.28700000048 
4.58216 0.2 0.28700000048 4.58216 0.15 0.28700000048 4.58216 0.1 0.28700000048 
4.58216 0.05 0.28700000048 4.58216 0 0.28700000048 4.631944 1.5 0.28700000048 
4.631944 1.45 0.28700000048 4.631944 1.4 0.28700000048 4.631944 1.35 0.28700000048 
4.631944 1.3 0.28700000048 4.631944 1.25 0.28700000048 4.631944 1.2 0.28700000048 
4.631944 1.15 0.28700000048 4.631944 1.1 0.28700000048 4.631944 1.05 0.28700000048 
4.631944 1 0.28700000048 4.631944 0.95 0.28700000048 4.631944 0.9 0.28700000048 
4.631944 0.85 0.28700000048 4.631944 0.8 0.28700000048 4.631944 0.75 0.28700000048 
4.631944 0.7 0.28700000048 4.631944 0.65 0.28700000048 4.631944 0.6 0.28700000048 
4.631944 0.55 0.28700000048 4.631944 0.5 0.28700000048 4.631944 0.45 0.28700000048 
4.631944 0.4 0.28700000048 4.631944 0.35 0.28700000048 4.631944 0.3 0.28700000048 
4.631944 0.25 0.28700000048 4.631944 0.2 0.28700000048 4.631944 0.15 0.28700000048 
4.631944 0.1 0.28700000048 4.631944 0.05 0.28700000048 4.631944 0 0.28700000048 
4.681728 1.5 0.28700000048 4.681728 1.45 0.28700000048 4.681728 1.4 0.28700000048 
4.681728 1.35 0.28700000048 4.681728 1.3 0.28700000048 4.681728 1.25 0.28700000048 
4.681728 1.2 0.28700000048 4.681728 1.15 0.28700000048 4.681728 1.1 0.28700000048 
4.681728 1.05 0.28700000048 4.681728 1 0.28700000048 4.681728 0.95 0.28700000048 
4.681728 0.9 0.28700000048 4.681728 0.85 0.28700000048 4.681728 0.8 0.28700000048 
4.681728 0.75 0.28700000048 4.681728 0.7 0.28700000048 4.681728 0.65 0.28700000048 
4.681728 0.6 0.28700000048 4.681728 0.55 0.28700000048 4.681728 0.5 0.28700000048 
4.681728 0.45 0.28700000048 4.681728 0.4 0.28700000048 4.681728 0.35 0.28700000048 
4.681728 0.3 0.28700000048 4.681728 0.25 0.28700000048 4.681728 0.2 0.28700000048 
4.681728 0.15 0.28700000048 4.681728 0.1 0.28700000048 4.681728 0.05 0.28700000048 
4.681728 0 0.28700000048 4.731512 1.5 0.28700000048 4.731512 1.45 0.28700000048 
4.731512 1.4 0.28700000048 4.731512 1.35 0.28700000048 4.731512 1.3 0.28700000048 
4.731512 1.25 0.28700000048 4.731512 1.2 0.28700000048 4.731512 1.15 0.28700000048 
4.731512 1.1 0.28700000048 4.731512 1.05 0.28700000048 4.731512 1 0.28700000048 
4.731512 0.95 0.28700000048 4.731512 0.9 0.28700000048 4.731512 0.85 0.28700000048 
4.731512 0.8 0.28700000048 4.731512 0.75 0.28700000048 4.731512 0.7 0.28700000048 
4.731512 0.65 0.28700000048 4.731512 0.6 0.28700000048 4.731512 0.55 0.28700000048 
4.731512 0.5 0.28700000048 4.731512 0.45 0.28700000048 4.731512 0.4 0.28700000048 
4.731512 0.35 0.28700000048 4.731512 0.3 0.28700000048 4.731512 0.25 0.28700000048 
4.731512 0.2 0.28700000048 4.731512 0.15 0.28700000048 4.731512 0.1 0.28700000048 
4.731512 0.05 0.28700000048 4.731512 0 0.28700000048 4.781296 1.5 0.28700000048 
4.781296 1.45 0.28700000048 4.781296 1.4 0.28700000048 4.781296 1.35 0.28700000048 
4.781296 1.3 0.28700000048 4.781296 1.25 0.28700000048 4.781296 1.2 0.28700000048 
4.781296 1.15 0.28700000048 4.781296 1.1 0.28700000048 4.781296 1.05 0.28700000048 
4.781296 1 0.28700000048 4.781296 0.95 0.28700000048 4.781296 0.9 0.28700000048 
4.781296 0.85 0.28700000048 4.781296 0.8 0.28700000048 4.781296 0.75 0.28700000048 
4.781296 0.7 0.28700000048 4.781296 0.65 0.28700000048 4.781296 0.6 0.28700000048 
4.781296 0.55 0.28700000048 4.781296 0.5 0.28700000048 4.781296 0.45 0.28700000048 
4.781296 0.4 0.28700000048 4.781296 0.35 0.28700000048 4.781296 0.3 0.28700000048 
4.781296 0.25 0.28700000048 4.781296 0.2 0.28700000048 4.781296 0.15 0.28700000048 
4.781296 0.1 0.28700000048 4.781296 0.05 0.28700000048 4.781296 0 0.28700000048 
4.83108 1.5 0.28700000048 4.83108 1.45 0.28700000048 4.83108 1.4 0.28700000048 
4.83108 1.35 0.28700000048 4.83108 1.3 0.28700000048 4.83108 1.25 0.28700000048 
4.83108 1.2 0.28700000048 4.83108 1.15 0.28700000048 4.83108 1.1 0.28700000048 
4.83108 1.05 0.28700000048 4.83108 1 0.28700000048 4.83108 0.95 0.28700000048 
4.83108 0.9 0.28700000048 4.83108 0.85 0.28700000048 4.83108 0.8 0.28700000048 
4.83108 0.75 0.28700000048 4.83108 0.7 0.28700000048 4.83108 0.65 0.28700000048 
4.83108 0.6 0.28700000048 4.83108 0.55 0.28700000048 4.83108 0.5 0.28700000048 
4.83108 0.45 0.28700000048 4.83108 0.4 0.28700000048 4.83108 0.35 0.28700000048 
4.83108 0.3 0.28700000048 4.83108 0.25 0.28700000048 4.83108 0.2 0.28700000048 
4.83108 0.15 0.28700000048 4.83108 0.1 0.28700000048 4.83108 0.05 0.28700000048 
4.83108 0 0.28700000048 4.880864 1.5 0.28700000048 4.880864 1.45 0.28700000048 
4.880864 1.4 0.28700000048 4.880864 1.35 0.28700000048 4.880864 1.3 0.28700000048 
4.880864 1.25 0.28700000048 4.880864 1.2 0.28700000048 4.880864 1.15 0.28700000048 
4.880864 1.1 0.28700000048 4.880864 1.05 0.28700000048 4.880864 1 0.28700000048 
4.880864 0.95 0.28700000048 4.880864 0.9 0.28700000048 4.880864 0.85 0.28700000048 
4.880864 0.8 0.28700000048 4.880864 0.75 0.28700000048 4.880864 0.7 0.28700000048 
4.880864 0.65 0.28700000048 4.880864 0.6 0.28700000048 4.880864 0.55 0.28700000048 
4.880864 0.5 0.28700000048 4.880864 0.45 0.28700000048 4.880864 0.4 0.28700000048 
4.880864 0.35 0.28700000048 4.880864 0.3 0.28700000048 4.880864 0.25 0.28700000048 
4.880864 0.2 0.28700000048 4.880864 0.15 0.28700000048 4.880864 0.1 0.28700000048 
4.880864 0.05 0.28700000048 4.880864 0 0.28700000048 4.930648 1.5 0.28700000048 
4.930648 1.45 0.28700000048 4.930648 1.4 0.28700000048 4.930648 1.35 0.28700000048 
4.930648 1.3 0.28700000048 4.930648 1.25 0.28700000048 4.930648 1.2 0.28700000048 
4.930648 1.15 0.28700000048 4.930648 1.1 0.28700000048 4.930648 1.05 0.28700000048 
4.930648 1 0.28700000048 4.930648 0.95 0.28700000048 4.930648 0.9 0.28700000048 
4.930648 0.85 0.28700000048 4.930648 0.8 0.28700000048 4.930648 0.75 0.28700000048 
4.930648 0.7 0.28700000048 4.930648 0.65 0.28700000048 4.930648 0.6 0.28700000048 
4.930648 0.55 0.28700000048 4.930648 0.5 0.28700000048 4.930648 0.45 0.28700000048 
4.930648 0.4 0.28700000048 4.930648 0.35 0.28700000048 4.930648 0.3 0.28700000048 
4.930648 0.25 0.28700000048 4.930648 0.2 0.28700000048 4.930648 0.15 0.28700000048 
4.930648 0.1 0.28700000048 4.930648 0.05 0.28700000048 4.930648 0 0.28700000048 
4.980432 1.5 0.28700000048 4.980432 1.45 0.28700000048 4.980432 1.4 0.28700000048 
4.980432 1.35 0.28700000048 4.980432 1.3 0.28700000048 4.980432 1.25 0.28700000048 
4.980432 1.2 0.28700000048 4.980432 1.15 0.28700000048 4.980432 1.1 0.28700000048 
4.980432 1.05 0.28700000048 4.980432 1 0.28700000048 4.980432 0.95 0.28700000048 
4.980432 0.9 0.28700000048 4.980432 0.85 0.28700000048 4.980432 0.8 0.28700000048 
4.980432 0.75 0.28700000048 4.980432 0.7 0.28700000048 4.980432 0.65 0.28700000048 
4.980432 0.6 0.28700000048 4.980432 0.55 0.28700000048 4.980432 0.5 0.28700000048 
4.980432 0.45 0.28700000048 4.980432 0.4 0.28700000048 4.980432 0.35 0.28700000048 
4.980432 0.3 0.28700000048 4.980432 0.25 0.28700000048 4.980432 0.2 0.28700000048 
4.980432 0.15 0.28700000048 4.980432 0.1 0.28700000048 4.980432 0.05 0.28700000048 
4.980432 0 0.28700000048 5.030216 1.5 0.28700000048 5.030216 1.45 0.28700000048 
5.030216 1.4 0.28700000048 5.030216 1.35 0.28700000048 5.030216 1.3 0.28700000048 
5.030216 1.25 0.28700000048 5.030216 1.2 0.28700000048 5.030216 1.15 0.28700000048 
5.030216 1.1 0.28700000048 5.030216 1.05 0.28700000048 5.030216 1 0.28700000048 
5.030216 0.95 0.28700000048 5.030216 0.9 0.28700000048 5.030216 0.85 0.28700000048 
5.030216 0.8 0.28700000048 5.030216 0.75 0.28700000048 5.030216 0.7 0.28700000048 
5.030216 0.65 0.28700000048 5.030216 0.6 0.28700000048 5.030216 0.55 0.28700000048 
5.030216 0.5 0.28700000048 5.030216 0.45 0.28700000048 5.030216 0.4 0.28700000048 
5.030216 0.35 0.28700000048 5.030216 0.3 0.28700000048 5.030216 0.25 0.28700000048 
5.030216 0.2 0.28700000048 5.030216 0.15 0.28700000048 5.030216 0.1 0.28700000048 
5.030216 0.05 0.28700000048 5.030216 0 0.28700000048 -0.1 1.5 0.1160915792 
-0.1 1.45 0.11451849341 -0.1 1.4 0.11634581536 -0.1 1.35 0.11724532396 
-0.1 1.3 0.11357600242 -0.1 1.25 0.10954142362 -0.1 1.2 0.11729095131 
-0.1 1.15 0.1104593873 -0.1 1.1 0.097332336009 -0.1 1.05 0.098348386586 
-0.1 1 0.10968960077 -0.1 0.95 0.11770316213 -0.1 0.9 0.12366381288 
-0.1 0.85 0.13197147846 -0.1 0.8 0.13618977368 -0.1 0.75 0.13155791163 
-0.1 0.7 0.12597556412 -0.1 0.65 0.12274619937 -0.1 0.6 0.12366847694 
-0.1 0.55 0.12845523655 -0.1 0.5 0.12948125601 -0.1 0.45 0.12450997531 
-0.1 0.4 0.12146220356 -0.1 0.35 0.11839369684 -0.1 0.3 0.11446168274 
-0.1 0.25 0.11130096018 -0.1 0.2 0.11261065304 -0.1 0.15 0.11501403898 
-0.1 0.1 0.11592453718 -0.1 0.05 0.12115393579 -0.1 0 0.12771977484 
-0.0748 1.5 0.10475361347 -0.0748 1.45 0.10245766491 -0.0748 1.4 0.10407715291 
-0.0748 1.35 0.10550159961 -0.0748 1.3 0.10386436433 -0.0748 1.25 0.10251642019 
-0.0748 1.2 0.10526592284 -0.0748 1.15 0.099424794316 -0.0748 1.1 0.089574284852 
-0.0748 1.05 0.089498251677 -0.0748 1 0.098003670573 -0.0748 0.95 0.10595984012 
-0.0748 0.9 0.11235741526 -0.0748 0.85 0.11928457767 -0.0748 0.8 0.12304712087 
-0.0748 0.75 0.12093673646 -0.0748 0.7 0.1171367839 -0.0748 0.65 0.11478222907 
-0.0748 0.6 0.11548889428 -0.0748 0.55 0.11865933239 -0.0748 0.5 0.11953098327 
-0.0748 0.45 0.11642342061 -0.0748 0.4 0.11304684728 -0.0748 0.35 0.10947015882 
-0.0748 0.3 0.10560438037 -0.0748 0.25 0.10303290933 -0.0748 0.2 0.10353410989 
-0.0748 0.15 0.10486523807 -0.0748 0.1 0.10583431274 -0.0748 0.05 0.10950435698 
-0.0748 0 0.11467251182 -0.0496 1.5 0.095024935901 -0.0496 1.45 0.092018440366 
-0.0496 1.4 0.09303291887 -0.0496 1.35 0.094586052001 -0.0496 1.3 0.094554841518 
-0.0496 1.25 0.094558604062 -0.0496 1.2 0.095008015633 -0.0496 1.15 0.089808344841 
-0.0496 1.1 0.082140535116 -0.0496 1.05 0.080964796245 -0.0496 1 0.086614258587 
-0.0496 0.95 0.093485146761 -0.0496 0.9 0.099614456296 -0.0496 0.85 0.10551571101 
-0.0496 0.8 0.10934607685 -0.0496 0.75 0.1096503213 -0.0496 0.7 0.10827337205 
-0.0496 0.65 0.10721731931 -0.0496 0.6 0.10784299672 -0.0496 0.55 0.10995634645 
-0.0496 0.5 0.11074052006 -0.0496 0.45 0.1086614579 -0.0496 0.4 0.1052222997 
-0.0496 0.35 0.10132876784 -0.0496 0.3 0.097791649401 -0.0496 0.25 0.095805160701 
-0.0496 0.2 0.095782950521 -0.0496 0.15 0.096156567335 -0.0496 0.1 0.096516117454 
-0.0496 0.05 0.098738059402 -0.0496 0 0.10269084573 -0.0244 1.5 0.086867339909 
-0.0244 1.45 0.083219662309 -0.0244 1.4 0.083581633866 -0.0244 1.35 0.085075221956 
-0.0244 1.3 0.08612742275 -0.0244 1.25 0.087035767734 -0.0244 1.2 0.086675100029 
-0.0244 1.15 0.081906959414 -0.0244 1.1 0.075299821794 -0.0244 1.05 0.072894327343 
-0.0244 1 0.075933210552 -0.0244 0.95 0.081274010241 -0.0244 0.9 0.086617156863 
-0.0244 0.85 0.091648384929 -0.0244 0.8 0.095874771476 -0.0244 0.75 0.098609812558 
-0.0244 0.7 0.099951937795 -0.0244 0.65 0.10038558394 -0.0244 0.6 0.1010184586 
-0.0244 0.55 0.10248803347 -0.0244 0.5 0.10334660858 -0.0244 0.45 0.10192619264 
-0.0244 0.4 0.098425000906 -0.0244 0.35 0.094260185957 -0.0244 0.3 0.091130666435 
-0.0244 0.25 0.089816689491 -0.0244 0.2 0.089573018253 -0.0244 0.15 0.089033007622 
-0.0244 0.1 0.088355086744 -0.0244 0.05 0.089118972421 -0.0244 0 0.091971315444 
0.0008 1.5 0.080383352935 0.0008 1.45 0.076239593327 0.0008 1.4 0.076081670821 
0.0008 1.35 0.077378600836 0.0008 1.3 0.079124286771 0.0008 1.25 0.080910429358 
0.0008 1.2 0.080538414419 0.0008 1.15 0.0759768188 0.0008 1.1 0.069560699165 
0.0008 1.05 0.065715461969 0.0008 1 0.066368550062 0.0008 0.95 0.070148147643 
0.0008 0.9 0.074443712831 0.0008 0.85 0.078553885221 0.0008 0.8 0.083304226398 
0.0008 0.75 0.088583998382 0.0008 0.7 0.092847369611 0.0008 0.65 0.094784259796 
0.0008 0.6 0.095346532762 0.0008 0.55 0.096421651542 0.0008 0.5 0.097617015243 
0.0008 0.45 0.096797525883 0.0008 0.4 0.09308372438 0.0008 0.35 0.088483765721 
0.0008 0.3 0.0857732445 0.0008 0.25 0.085346333683 0.0008 0.2 0.085149042308 
0.0008 0.15 0.083666689694 0.0008 0.1 0.081681363285 0.0008 0.05 0.080941639841 
0.0008 0 0.082731544971 0.026 1.5 0.075753979385 0.026 1.45 0.071349427104 
0.026 1.4 0.070935755968 0.026 1.35 0.071870163083 0.026 1.3 0.07402522862 
0.026 1.25 0.076897218823 0.026 1.2 0.076958909631 0.026 1.15 0.072316773236 
0.026 1.1 0.065488040447 0.026 1.05 0.059972312301 0.026 1 0.058361303061 
0.026 0.95 0.060884494334 0.026 0.9 0.064099043608 0.026 0.85 0.067031234503 
0.026 0.8 0.072246298194 0.026 0.75 0.080268524587 0.026 0.7 0.087688803673 
0.026 0.65 0.090992301702 0.026 0.6 0.091149441898 0.026 0.55 0.09193251282 
0.026 0.5 0.093842558563 0.026 0.45 0.093818962574 0.026 0.4 0.089617177844 
0.026 0.35 0.084185957909 0.026 0.3 0.081877686083 0.026 0.25 0.082703597844 
0.026 0.2 0.082792006433 0.026 0.15 0.080238886178 0.026 0.1 0.076785080135 
0.026 0.05 0.074523195624 0.026 0 0.075233675539 0.0512 1.5 0.073208130896 
0.0512 1.45 0.068877793849 0.0512 1.4 0.068650685251 0.0512 1.35 0.068930931389 
0.0512 1.3 0.071203835309 0.0512 1.25 0.075584582984 0.0512 1.2 0.076349742711 
0.0512 1.15 0.071229614317 0.0512 1.1 0.063647501171 0.0512 1.05 0.056277662516 
0.0512 1 0.052337992936 0.0512 0.95 0.054282709956 0.0512 0.9 0.056587077677 
0.0512 0.85 0.057854387909 0.0512 0.8 0.063290476799 0.0512 0.75 0.074322454631 
0.0512 0.7 0.085225731134 0.0512 0.65 0.089622296393 0.0512 0.6 0.088694609702 
0.0512 0.55 0.089190892875 0.0512 0.5 0.092312678695 0.0512 0.45 0.093561939895 
0.0512 0.4 0.088447012007 0.0512 0.35 0.08153616637 0.0512 0.3 0.079586915672 
0.0512 0.25 0.082221642137 0.0512 0.2 0.08280339092 0.0512 0.15 0.078875765204 
0.0512 0.1 0.073921523988 0.0512 0.05 0.070221945643 0.0512 0 0.069807805121 
0.0764 1.5 0.073017992079 0.0764 1.45 0.069179452956 0.0764 1.4 0.069910407066 
0.0764 1.35 0.068965613842 0.0764 1.3 0.070912621915 0.0764 1.25 0.077516041696 
0.0764 1.2 0.079137094319 0.0764 1.15 0.072934351861 0.0764 1.1 0.064577914774 
0.0764 1.05 0.05535921827 0.0764 1 0.048625711352 0.0764 0.95 0.051208291203 
0.0764 0.9 0.052958533168 0.0764 0.85 0.051840424538 0.0764 0.8 0.057069219649 
0.0764 0.75 0.071385353804 0.0764 0.7 0.086166381836 0.0764 0.65 0.091288648546 
0.0764 0.6 0.088141329587 0.0764 0.55 0.088400781155 0.0764 0.5 0.093260362744 
0.0764 0.45 0.096668183804 0.0764 0.4 0.089994229376 0.0764 0.35 0.080733478069 
0.0764 0.3 0.079028248787 0.0764 0.25 0.084251068532 0.0764 0.2 0.085480958223 
0.0764 0.15 0.079540431499 0.0764 0.1 0.073321923614 0.0764 0.05 0.068475157022 
0.0764 0 0.06688901037 -10.16 1.5 -7.5036878445e-23 -10.16 1.45 -4.3131368368e-24 
-10.16 1.4 -1.84795132e-23 -10.16 1.35 0 -10.16 1.3 0 
-10.16 1.25 -1.4013323543e-23 -10.16 1.2 -1.3833286551e-23 -10.16 1.15 -1.3664659644e-23 
-10.16 1.1 1.5635325693e-23 -10.16 1.05 0 -10.16 1 0 
-10.16 0.95 -2.6756391701e-23 -10.16 0.9 0 -10.16 0.85 -5.3679190139e-22 
-10.16 0.8 0 -10.16 0.75 -1.3579639371e-23 -10.16 0.7 -5.484443236e-22 
-10.16 0.65 0 -10.16 0.6 -6.3819034035e-22 -10.16 0.55 0 
-10.16 0.5 0 -10.16 0.45 0 -10.16 0.4 0 
-10.16 0.35 -1.5804504803e-23 -10.16 0.3 -1.6566658034e-23 -10.16 0.25 0 
-10.16 0.2 0 -10.16 0.15 2.0375833842e-23 -10.16 0.1 -1.3392232842e-22 
-10.16 0.05 0 -10.16 0 0 -10.109950249 1.5 1.0633537031e-22 
-10.109950249 1.45 -2.7967937785e-21 -10.109950249 1.4 -2.4704297852e-23 -10.109950249 1.35 0 
-10.109950249 1.3 0 -10.109950249 1.25 1.2432148983e-21 -10.109950249 1.2 -1.289093231e-21 
-10.109950249 1.15 0 -10.109950249 1.1 -2.6105949064e-23 -10.109950249 1.05 -1.2426511593e-21 
-10.109950249 1 6.208812932e-22 -10.109950249 0.95 -3.109697577e-23 -10.109950249 0.9 1.3214533245e-23 
-10.109950249 0.85 0 -10.109950249 0.8 -1.3359936876e-23 -10.109950249 0.75 -1.3082363229e-21 
-10.109950249 0.7 6.4535743828e-22 -10.109950249 0.65 6.5455416804e-22 -10.109950249 0.6 6.6625101889e-22 
-10.109950249 0.55 0 -10.109950249 0.5 -6.9611514706e-22 -10.109950249 0.45 0 
-10.109950249 0.4 -7.0500625317e-24 -10.109950249 0.35 3.4823937757e-22 -10.109950249 0.3 3.6263425893e-22 
-10.109950249 0.25 0 -10.109950249 0.2 0 -10.109950249 0.15 -3.842560402e-22 
-10.109950249 0.1 2.3628958953e-22 -10.109950249 0.05 2.6372932726e-22 -10.109950249 0 0 
-10.059900498 1.5 -7.6476972426e-23 -10.059900498 1.45 1.978960606e-23 -10.059900498 1.4 -5.1456690817e-24 
-10.059900498 1.35 -1.0407417941e-22 -10.059900498 1.3 -2.826663435e-23 -10.059900498 1.25 9.2165208007e-26 
-10.059900498 1.2 1.8286385457e-24 -10.059900498 1.15 0 -10.059900498 1.1 -2.0118097799e-26 
-10.059900498 1.05 2.0860460284e-24 -10.059900498 1 0 -10.059900498 0.95 1.2759060933e-26 
-10.059900498 0.9 -2.4136875725e-25 -10.059900498 0.85 -5.3475894689e-26 -10.059900498 0.8 9.6628262534e-25 
-10.059900498 0.75 5.3257419661e-25 -10.059900498 0.7 -6.0277552021e-25 -10.059900498 0.65 -9.7436056101e-25 
-10.059900498 0.6 -6.1489242372e-25 -10.059900498 0.55 5.0584029218e-25 -10.059900498 0.5 0 
-10.059900498 0.45 2.3878375867e-25 -10.059900498 0.4 0 -10.059900498 0.35 -3.1253535077e-25 
-10.059900498 0.3 3.5567959335e-24 -10.059900498 0.25 -1.2699395241e-23 -10.059900498 0.2 0 
-10.059900498 0.15 -1.0530287129e-22 -10.059900498 0.1 -6.4542352589e-23 -10.059900498 0.05 2.3065267981e-22 
-10.059900498 0 0 -10.009850746 1.5 -7.6763335246e-23 -10.009850746 1.45 2.006516464e-23 
-10.009850746 1.4 -5.2478549679e-24 -10.009850746 1.35 0 -10.009850746 1.3 0 
-10.009850746 1.25 1.1003764068e-25 -10.009850746 1.2 7.3651383104e-24 -10.009850746 1.15 1.1385851312e-26 
-10.009850746 1.1 1.4818973972e-26 -10.009850746 1.05 1.2310766072e-25 -10.009850746 1 0 
-10.009850746 0.95 0 -10.009850746 0.9 -6.3654172518e-26 -10.009850746 0.85 0 
-10.009850746 0.8 0 -10.009850746 0.75 -2.4081137771e-25 -10.009850746 0.7 -3.0389190044e-25 
-10.009850746 0.65 -2.1164152011e-26 -10.009850746 0.6 7.1086228322e-27 -10.009850746 0.55 3.8871022497e-25 
-10.009850746 0.5 0 -10.009850746 0.45 5.5737953335e-27 -10.009850746 0.4 0 
-10.009850746 0.35 0 -10.009850746 0.3 2.1976832571e-24 -10.009850746 0.25 3.9438335761e-24 
-10.009850746 0.2 0 -10.009850746 0.15 5.4872091716e-23 -10.009850746 0.1 -1.5776719544e-22 
-10.009850746 0.05 1.6862100011e-22 -10.009850746 0 0 -9.959800995 1.5 1.512648485e-22 
-9.959800995 1.45 -3.978641117e-23 -9.959800995 1.4 1.0429268915e-23 -9.959800995 1.35 0 
-9.959800995 1.3 0 -9.959800995 1.25 -1.8897522902e-25 -9.959800995 1.2 1.9891593153e-24 
-9.959800995 1.15 0 -9.959800995 1.1 0 -9.959800995 1.05 1.9580908174e-25 
-9.959800995 1 0 -9.959800995 0.95 -1.5501560522e-26 -9.959800995 0.9 2.5203119846e-26 
-9.959800995 0.85 3.1003121044e-25 -9.959800995 0.8 -2.5542428643e-25 -9.959800995 0.75 -2.0186802653e-26 
-9.959800995 0.7 0 -9.959800995 0.65 -3.685153858e-25 -9.959800995 0.6 1.8078423973e-25 
-9.959800995 0.55 -2.5348566075e-25 -9.959800995 0.5 0 -9.959800995 0.45 0 
-9.959800995 0.4 0 -9.959800995 0.35 1.6204336981e-25 -9.959800995 0.3 9.4233157566e-26 
-9.959800995 0.25 0 -9.959800995 0.2 0 -9.959800995 0.15 -4.8659225175e-23 
-9.959800995 0.1 3.6662162264e-23 -9.959800995 0.05 2.776114869e-22 -9.959800995 0 0 
-9.9097512438 1.5 -7.5250640818e-23 -9.9097512438 1.45 1.9691762064e-23 -9.9097512438 1.4 4.0811919618e-22 
-9.9097512438 1.35 0 -9.9097512438 1.3 0 -9.9097512438 1.25 -2.827645409e-23 
-9.9097512438 1.2 2.020085621e-24 -9.9097512438 1.15 -3.2554070887e-27 -9.9097512438 1.1 0 
-9.9097512438 1.05 -1.2097517247e-24 -9.9097512438 1 1.201997222e-25 -9.9097512438 0.95 9.3663673948e-27 
-9.9097512438 0.9 -2.9791430693e-25 -9.9097512438 0.85 0 -9.9097512438 0.8 -7.3670733862e-26 
-9.9097512438 0.75 3.000872736e-25 -9.9097512438 0.7 4.1100540631e-25 -9.9097512438 0.65 4.9986269867e-25 
-9.9097512438 0.6 -1.2900871007e-25 -9.9097512438 0.55 -1.1616075437e-25 -9.9097512438 0.5 2.0695667241e-25 
-9.9097512438 0.45 2.1051098382e-25 -9.9097512438 0.4 1.3175111105e-25 -9.9097512438 0.35 2.097839992e-26 
-9.9097512438 0.3 -7.898605399e-26 -9.9097512438 0.25 0 -9.9097512438 0.2 0 
-9.9097512438 0.15 -5.024366177e-23 -9.9097512438 0.1 -3.1679691543e-23 -9.9097512438 0.05 -3.6111023015e-22 
-9.9097512438 0 0 -9.8597014925 1.5 -1.4919932035e-22 -9.8597014925 1.45 1.9529597505e-23 
-9.8597014925 1.4 -5.1367833525e-24 -9.8597014925 1.35 0 -9.8597014925 1.3 0 
-9.8597014925 1.25 -3.5353489256e-25 -9.8597014925 1.2 2.2753483882e-24 -9.8597014925 1.15 -1.1786759299e-24 
-9.8597014925 1.1 0 -9.8597014925 1.05 0 -9.8597014925 1 -1.7407941507e-27 
-9.8597014925 0.95 0 -9.8597014925 0.9 -1.888621754e-25 -9.8597014925 0.85 0 
-9.8597014925 0.8 3.1003121044e-25 -9.8597014925 0.75 -2.369702414e-25 -9.8597014925 0.7 -1.4233318705e-25 
-9.8597014925 0.65 0 -9.8597014925 0.6 3.0696549974e-27 -9.8597014925 0.55 3.685153858e-25 
-9.8597014925 0.5 1.6107405697e-25 -9.8597014925 0.45 -1.8934683181e-25 -9.8597014925 0.4 0 
-9.8597014925 0.35 1.1559523971e-25 -9.8597014925 0.3 -7.0201298949e-26 -9.8597014925 0.25 4.8476137659e-24 
-9.8597014925 0.2 0 -9.8597014925 0.15 -4.4685638132e-23 -9.8597014925 0.1 -2.8252627336e-23 
-9.8597014925 0.05 0 -9.8597014925 0 0 -9.8096517413 1.5 1.4817746149e-22 
-9.8096517413 1.45 -3.878050623e-23 -9.8096517413 1.4 4.1749028313e-22 -9.8096517413 1.35 0 
-9.8096517413 1.3 2.8605907648e-23 -9.8096517413 1.25 6.9132267191e-24 -9.8096517413 1.2 2.9413459823e-24 
-9.8096517413 1.15 1.6204336981e-26 -9.8096517413 1.1 0 -9.8096517413 1.05 -2.969449941e-25 
-9.8096517413 1 0 -9.8096517413 0.95 0 -9.8096517413 0.9 -1.6252802623e-25 
-9.8096517413 0.85 0 -9.8096517413 0.8 2.3329082158e-25 -9.8096517413 0.75 4.5903673094e-25 
-9.8096517413 0.7 -6.5592798193e-26 -9.8096517413 0.65 -3.732002335e-26 -9.8096517413 0.6 2.0905701457e-25 
-9.8096517413 0.55 1.1406041221e-25 -9.8096517413 0.5 2.4718463427e-26 -9.8096517413 0.45 1.5800440197e-25 
-9.8096517413 0.4 -2.4232820932e-29 -9.8096517413 0.35 -2.5320290342e-26 -9.8096517413 0.3 -9.7100021077e-25 
-9.8096517413 0.25 2.2232094155e-24 -9.8096517413 0.2 -9.0162289182e-24 -9.8096517413 0.15 3.3852369093e-23 
-9.8096517413 0.1 7.7110301516e-23 -9.8096517413 0.05 -9.8021255997e-23 -9.8096517413 0 0 
-9.75960199 1.5 -1.4738360236e-22 -9.75960199 1.45 1.9274334738e-23 -9.75960199 1.4 4.0054905974e-22 
-9.75960199 1.35 0 -9.75960199 1.3 0 -9.75960199 1.25 9.5093459687e-26 
-9.75960199 1.2 -1.789666549e-26 -9.75960199 1.15 1.323020515e-24 -9.75960199 1.1 -3.2505605245e-25 
-9.75960199 1.05 -3.6156847945e-25 -9.75960199 1 0 -9.75960199 0.95 2.8448062201e-25 
-9.75960199 0.9 2.8369706127e-25 -9.75960199 0.85 0 -9.75960199 0.8 -5.8484175361e-26 
-9.75960199 0.75 -2.2682881817e-26 -9.75960199 0.7 -1.3829421922e-25 -9.75960199 0.65 -3.5639848229e-25 
-9.75960199 0.6 0 -9.75960199 0.55 -9.0472485068e-27 -9.75960199 0.5 0 
-9.75960199 0.45 -3.1827086259e-26 -9.75960199 0.4 0 -9.75960199 0.35 5.4444882121e-25 
-9.75960199 0.3 -6.4041873001e-26 -9.75960199 0.25 3.9363216482e-24 -9.75960199 0.2 0 
-9.75960199 0.15 -3.7468810405e-23 -9.75960199 0.1 -2.3756247971e-23 -9.75960199 0.05 0 
-9.75960199 0 0 -9.7095522388 1.5 -1.4676180327e-22 -9.7095522388 1.45 3.8392361421e-23 
-9.7095522388 1.4 0 -9.7095522388 1.35 0 -9.7095522388 1.3 -1.0602096191e-22 
-9.7095522388 1.25 8.7722343389e-26 -9.7095522388 1.2 -6.5277796173e-26 -9.7095522388 1.15 5.6238189756e-25 
-9.7095522388 1.1 0 -9.7095522388 1.05 2.604325671e-25 -9.7095522388 1 1.7270630406e-25 
-9.7095522388 0.95 -3.9812917488e-25 -9.7095522388 0.9 1.7901105297e-25 -9.7095522388 0.85 1.2359231714e-27 
-9.7095522388 0.8 1.7232664009e-25 -9.7095522388 0.75 -1.6838864645e-25 -9.7095522388 0.7 2.1713495024e-25 
-9.7095522388 0.65 -1.3425525138e-25 -9.7095522388 0.6 -6.8856315758e-25 -9.7095522388 0.55 -4.9265724316e-25 
-9.7095522388 0.5 0 -9.7095522388 0.45 -7.1781338039e-26 -9.7095522388 0.4 0 
-9.7095522388 0.35 5.9275895887e-25 -9.7095522388 0.3 0 -9.7095522388 0.25 -5.4488506129e-25 
-9.7095522388 0.2 0 -9.7095522388 0.15 -3.6590208683e-23 -9.7095522388 0.1 -2.217802129e-23 
-9.7095522388 0.05 0 -9.7095522388 0 0 -9.6595024876 1.5 1.463308454e-22 
-9.6595024876 1.45 -3.8289973587e-23 -9.6595024876 1.4 1.0063742326e-23 -9.6595024876 1.35 0 
-9.6595024876 1.3 0 -9.6595024876 1.25 -1.7160766733e-25 -9.6595024876 1.2 2.618430504e-24 
-9.6595024876 1.15 0 -9.6595024876 1.1 0 -9.6595024876 1.05 5.8484175361e-26 
-9.6595024876 1 0 -9.6595024876 0.95 -4.5963473681e-27 -9.6595024876 0.9 -5.4622997053e-25 
-9.6595024876 0.85 0 -9.6595024876 0.8 -3.7255435363e-25 -9.6595024876 0.75 -2.2799169775e-25 
-9.6595024876 0.7 3.3022604961e-25 -9.6595024876 0.65 0 -9.6595024876 0.6 5.7159480686e-25 
-9.6595024876 0.55 -1.9290114323e-25 -9.6595024876 0.5 2.1761960666e-25 -9.6595024876 0.45 0 
-9.6595024876 0.4 0 -9.6595024876 0.35 -1.290046425e-26 -9.6595024876 0.3 4.7785027467e-26 
-9.6595024876 0.25 0 -9.6595024876 0.2 -1.7556988886e-24 -9.6595024876 0.15 -2.7379919982e-23 
-9.6595024876 0.1 2.0844959956e-23 -9.6595024876 0.05 3.9771791999e-23 -9.6595024876 0 0 
-9.6094527363 1.5 -7.2979529204e-23 -9.6094527363 1.45 1.9104496141e-23 -9.6094527363 1.4 -5.0181386723e-24 
-9.6094527363 1.35 -1.0607750746e-22 -9.6094527363 1.3 -2.8000062473e-23 -9.6094527363 1.25 -7.2012816452e-24 
-9.6094527363 1.2 2.1477170046e-24 -9.6094527363 1.15 -3.9622264598e-27 -9.6094527363 1.1 0 
-9.6094527363 1.05 2.0388701741e-25 -9.6094527363 1 0 -9.6094527363 0.95 2.6615994379e-25 
-9.6094527363 0.9 0 -9.6094527363 0.85 -4.2651490474e-27 -9.6094527363 0.8 6.3654172518e-26 
-9.6094527363 0.75 3.3857855818e-25 -9.6094527363 0.7 1.1616075437e-25 -9.6094527363 0.65 -3.3281055515e-26 
-9.6094527363 0.6 1.7270630406e-25 -9.6094527363 0.55 0 -9.6094527363 0.5 -1.0582076005e-26 
-9.6094527363 0.45 3.0696549974e-27 -9.6094527363 0.4 0 -9.6094527363 0.35 1.2320471526e-25 
-9.6094527363 0.3 -1.0989062165e-24 -9.6094527363 0.25 4.6371388724e-25 -9.6094527363 0.2 0 
-9.6094527363 0.15 -3.1130458182e-23 -9.6094527363 0.1 3.9463640842e-23 -9.6094527363 0.05 -2.2595707678e-22 
-9.6094527363 0 0 -9.5594029851 1.5 -7.294671259e-23 -9.5594029851 1.45 1.5474151124e-21 
-9.5594029851 1.4 -5.0152104206e-24 -9.5594029851 1.35 1.0474464807e-22 -9.5594029851 1.3 1.3142558759e-24 
-9.5594029851 1.25 8.8833059543e-26 -9.5594029851 1.2 1.9243620833e-24 -9.5594029851 1.15 3.4973026571e-25 
-9.5594029851 1.1 0 -9.5594029851 1.05 0 -9.5594029851 1 6.3201760789e-25 
-9.5594029851 0.95 -4.833916281e-25 -9.5594029851 0.9 -7.1732108188e-26 -9.5594029851 0.85 -4.1358991185e-26 
-9.5594029851 0.8 3.942036551e-26 -9.5594029851 0.75 -7.5819541664e-26 -9.5594029851 0.7 0 
-9.5594029851 0.65 1.1147590667e-26 -9.5594029851 0.6 -2.7158015776e-25 -9.5594029851 0.55 -3.2618708178e-25 
-9.5594029851 0.5 0 -9.5594029851 0.45 0 -9.5594029851 0.4 1.1664541079e-25 
-9.5594029851 0.35 8.5302980948e-26 -9.5594029851 0.3 8.9309654789e-25 -9.5594029851 0.25 -3.3417612268e-25 
-9.5594029851 0.2 0 -9.5594029851 0.15 -6.3141586479e-24 -9.5594029851 0.1 -1.8766507108e-23 
-9.5594029851 0.05 -2.7491509091e-23 -9.5594029851 0 0 -9.5093532338 1.5 1.4587524983e-22 
-9.5093532338 1.45 0 -9.5093532338 1.4 0 -9.5093532338 1.35 0 
-9.5093532338 1.3 0 -9.5093532338 1.25 0 -9.5093532338 1.2 6.9935532697e-24 
-9.5093532338 1.15 1.6013698882e-24 -9.5093532338 1.1 -1.5541940339e-25 -9.5093532338 1.05 0 
-9.5093532338 1 -1.0598247654e-25 -9.5093532338 0.95 0 -9.5093532338 0.9 -5.7514862524e-26 
-9.5093532338 0.85 1.056270947e-24 -9.5093532338 0.8 0 -9.5093532338 0.75 -7.8275216359e-27 
-9.5093532338 0.7 4.2716127764e-25 -9.5093532338 0.65 -3.7061572796e-25 -9.5093532338 0.6 1.2178296604e-24 
-9.5093532338 0.55 0 -9.5093532338 0.5 0 -9.5093532338 0.45 0 
-9.5093532338 0.4 0 -9.5093532338 0.35 9.225812103e-26 -9.5093532338 0.3 4.5361646766e-26 
-9.5093532338 0.25 0 -9.5093532338 0.2 0 -9.5093532338 0.15 -6.300022655e-24 
-9.5093532338 0.1 1.7956896006e-23 -9.5093532338 0.05 0 -9.5093532338 0 0 
-9.4593034826 1.5 -7.2978721411e-23 -9.4593034826 1.45 1.9108434134e-23 -9.4593034826 1.4 -5.0156143174e-24 
-9.4593034826 1.35 0 -9.4593034826 1.3 0 -9.4593034826 1.25 7.7019078627e-26 
-9.4593034826 1.2 2.9081294162e-24 -9.4593034826 1.15 -1.2242110521e-26 -9.4593034826 1.1 3.2069414469e-27 
-9.4593034826 1.05 -5.7159480686e-25 -9.4593034826 1 -2.3522944725e-25 -9.4593034826 0.95 -4.9364667195e-25 
-9.4593034826 0.9 0 -9.4593034826 0.85 0 -9.4593034826 0.8 0 
-9.4593034826 0.75 -1.4488589164e-25 -9.4593034826 0.7 1.7674527189e-25 -9.4593034826 0.65 3.988885028e-25 
-9.4593034826 0.6 1.0194350871e-25 -9.4593034826 0.55 3.3281055515e-26 -9.4593034826 0.5 1.0000488303e-25 
-9.4593034826 0.45 0 -9.4593034826 0.4 0 -9.4593034826 0.35 0 
-9.4593034826 0.3 1.7013747713e-24 -9.4593034826 0.25 0 -9.4593034826 0.2 0 
-9.4593034826 0.15 -5.9516616792e-24 -9.4593034826 0.1 -1.7222207757e-23 -9.4593034826 0.05 0 
-9.4593034826 0 0 -9.4092537313 1.5 1.4614707236e-22 -9.4092537313 1.45 -1.5687297554e-21 
-9.4092537313 1.4 1.0047788403e-23 -9.4092537313 1.35 0 -9.4092537313 1.3 0 
-9.4092537313 1.25 -1.5908686705e-25 -9.4092537313 1.2 2.2541156053e-24 -9.4092537313 1.15 -1.7710065373e-24 
-9.4092537313 1.1 0 -9.4092537313 1.05 5.9162792955e-25 -9.4092537313 1 0 
-9.4092537313 0.95 2.1730450603e-25 -9.4092537313 0.9 -2.2925185374e-25 -9.4092537313 0.85 0 
-9.4092537313 0.8 -2.924208768e-26 -9.4092537313 0.75 7.96616394e-27 -9.4092537313 0.7 5.7256411969e-25 
-9.4092537313 0.65 3.5042088878e-25 -9.4092537313 0.6 -2.0291770457e-25 -9.4092537313 0.55 -2.6156359642e-25 
-9.4092537313 0.5 9.0392119863e-26 -9.4092537313 0.45 -2.7416515634e-25 -9.4092537313 0.4 0 
-9.4092537313 0.35 1.8676183323e-25 -9.4092537313 0.3 3.011454319e-26 -9.4092537313 0.25 2.8801878643e-25 
-9.4092537313 0.2 0 -9.4092537313 0.15 5.6457098657e-24 -9.4092537313 0.1 -7.4630955867e-23 
-9.4092537313 0.05 1.266025575e-22 -9.4092537313 0 0 -9.3592039801 1.5 -1.4644918716e-22 
-9.3592039801 1.45 3.8322083381e-23 -9.3592039801 1.4 3.9247806605e-22 -9.3592039801 1.35 0 
-9.3592039801 1.3 2.7983906601e-23 -9.3592039801 1.25 7.3484981771e-26 -9.3592039801 1.2 3.0656491618e-24 
-9.3592039801 1.15 -6.5875555524e-27 -9.3592039801 1.1 -4.8709942226e-27 -9.3592039801 1.05 2.0388701741e-25 
-9.3592039801 1 0 -9.3592039801 0.95 -5.6787877896e-27 -9.3592039801 0.9 -2.3522944725e-25 
-9.3592039801 0.85 2.924208768e-26 -9.3592039801 0.8 -5.9615204684e-26 -9.3592039801 0.75 -2.24566513e-27 
-9.3592039801 0.7 5.3217444135e-25 -9.3592039801 0.65 4.7562889166e-25 -9.3592039801 0.6 0 
-9.3592039801 0.55 -2.7771946776e-25 -9.3592039801 0.5 0 -9.3592039801 0.45 0 
-9.3592039801 0.4 0 -9.3592039801 0.35 1.4790698239e-25 -9.3592039801 0.3 -4.2938266065e-26 
-9.3592039801 0.25 -2.9257475398e-25 -9.3592039801 0.2 0 -9.3592039801 0.15 5.3054268256e-24 
-9.3592039801 0.1 -5.5959766822e-23 -9.3592039801 0.05 6.1069345122e-23 -9.3592039801 0 0 
-9.3091542289 1.5 -1.4678320979e-22 -9.3091542289 1.45 3.8403064686e-23 -9.3091542289 1.4 -1.0075253384e-23 
-9.3091542289 1.35 0 -9.3091542289 1.3 0 -9.3091542289 1.25 9.1054491852e-26 
-9.3091542289 1.2 2.5537099887e-24 -9.3091542289 1.15 -5.2910380027e-28 -9.3091542289 1.1 0 
-9.3091542289 1.05 7.2087490026e-25 -9.3091542289 1 0 -9.3091542289 0.95 -2.9129034052e-26 
-9.3091542289 0.9 -5.9065861671e-25 -9.3091542289 0.85 0 -9.3091542289 0.8 0 
-9.3091542289 0.75 -4.631084365e-26 -9.3091542289 0.7 2.009790789e-25 -9.3091542289 0.65 1.4847249705e-25 
-9.3091542289 0.6 -1.4443352921e-25 -9.3091542289 0.55 5.3120512851e-25 -9.3091542289 0.5 5.2021925433e-26 
-9.3091542289 0.45 -7.1732108188e-26 -9.3091542289 0.4 0 -9.3091542289 0.35 5.6743479818e-26 
-9.3091542289 0.3 -4.1524627323e-26 -9.3091542289 0.25 1.062054678e-24 -9.3091542289 0.2 0 
-9.3091542289 0.15 -5.5717584946e-24 -9.3091542289 0.1 -1.548262431e-23 -9.3091542289 0.05 0 
-9.3091542289 0 1.4540423045e-23 -9.2591044776 1.5 1.4721396571e-22 -9.2591044776 1.45 -3.8523829824e-23 
-9.2591044776 1.4 4.1541203223e-22 -9.2591044776 1.35 0 -9.2591044776 1.3 0 
-9.2591044776 1.25 -1.5080698299e-25 -9.2591044776 1.2 2.2375558371e-24 -9.2591044776 1.15 1.5800440197e-26 
-9.2591044776 1.1 -2.2812082442e-25 -9.2591044776 1.05 8.2588806396e-25 -9.2591044776 1 0 
-9.2591044776 0.95 7.1166593526e-27 -9.2591044776 0.9 -6.1101221414e-26 -9.2591044776 0.85 1.9694011106e-25 
-9.2591044776 0.8 1.3021628355e-25 -9.2591044776 0.75 -4.4851934153e-25 -9.2591044776 0.7 -1.2617731571e-25 
-9.2591044776 0.65 0 -9.2591044776 0.6 -3.5235951446e-25 -9.2591044776 0.55 9.6931283729e-28 
-9.2591044776 0.5 -1.888621754e-25 -9.2591044776 0.45 0 -9.2591044776 0.4 0 
-9.2591044776 0.35 5.9332447353e-27 -9.2591044776 0.3 7.9856044309e-25 -9.2591044776 0.25 0 
-9.2591044776 0.2 0 -9.2591044776 0.15 1.9397909799e-23 -9.2591044776 0.1 8.1244715209e-23 
-9.2591044776 0.05 0 -9.2591044776 0 -1.4317169097e-23 -9.2090547264 1.5 -1.4769541068e-22 
-9.2090547264 1.45 3.8662972266e-23 -9.2090547264 1.4 -1.0135635953e-23 -9.2090547264 1.35 0 
-9.2090547264 1.3 2.9203674887e-23 -9.2090547264 1.25 8.1966814224e-26 -9.2090547264 1.2 2.3870258488e-24 
-9.2090547264 1.15 1.0578057745e-26 -9.2090547264 1.1 0 -9.2090547264 1.05 6.562514149e-25 
-9.2090547264 1 -7.3670733862e-26 -9.2090547264 0.95 -6.89047814e-27 -9.2090547264 0.9 -9.5965915196e-26 
-9.2090547264 0.85 0 -9.2090547264 0.8 5.7256411969e-25 -9.2090547264 0.75 5.4639119397e-26 
-9.2090547264 0.7 -1.6656699406e-25 -9.2090547264 0.65 8.3849011692e-26 -9.2090547264 0.6 3.0696549974e-27 
-9.2090547264 0.55 -5.846810232e-25 -9.2090547264 0.5 4.5963473681e-26 -9.2090547264 0.45 -2.0445253207e-25 
-9.2090547264 0.4 0 -9.2090547264 0.35 3.4088486699e-25 -9.2090547264 0.3 -4.5967491941e-26 
-9.2090547264 0.25 -2.6955263733e-25 -9.2090547264 0.2 0 -9.2090547264 0.15 -2.2777064906e-23 
-9.2090547264 0.1 -1.4583146173e-23 -9.2090547264 0.05 0 -9.2090547264 0 -1.3703245987e-23 
-9.1590049751 1.5 -7.4290578163e-23 -9.1590049751 1.45 -1.5361614373e-21 -9.1590049751 1.4 -5.1078037583e-24 
-9.1590049751 1.35 -1.0678028786e-22 -9.1590049751 1.3 -2.7733490596e-23 -9.1590049751 1.25 9.3376898357e-26 
-9.1590049751 1.2 2.3152331955e-24 -9.1590049751 1.15 8.3566254361e-27 -9.1590049751 1.1 0 
-9.1590049751 1.05 1.1005378767e-24 -9.1590049751 1 0 -9.1590049751 0.95 3.0905366386e-25 
-9.1590049751 0.9 2.9177499694e-25 -9.1590049751 0.85 0 -9.1590049751 0.8 0 
-9.1590049751 0.75 -9.8841658322e-26 -9.1590049751 0.7 1.6866733622e-25 -9.1590049751 0.65 -8.5787637367e-26 
-9.1590049751 0.6 7.5771076023e-26 -9.1590049751 0.55 0 -9.1590049751 0.5 0 
-9.1590049751 0.45 0 -9.1590049751 0.4 0 -9.1590049751 0.35 1.2386708725e-25 
-9.1590049751 0.3 -3.9703455641e-25 -9.1590049751 0.25 -2.8348707636e-25 -9.1590049751 0.2 0 
-9.1590049751 0.15 -2.22003003e-23 -9.1590049751 0.1 -1.4161074035e-23 -9.1590049751 0.05 0 
-9.1590049751 0 0 -9.1089552239 1.5 1.4889558997e-22 -9.1089552239 1.45 1.5191107326e-21 
-9.1089552239 1.4 1.0242264704e-23 -9.1089552239 1.35 0 -9.1089552239 1.3 0 
-9.1089552239 1.25 -1.9059081616e-25 -9.1089552239 1.2 2.6101506199e-24 -9.1089552239 1.15 5.0217302574e-25 
-9.1089552239 1.1 0 -9.1089552239 1.05 7.2087490026e-25 -9.1089552239 1 8.0973219262e-25 
-9.1089552239 0.95 -6.1484395807e-25 -9.1089552239 0.9 -7.1086228322e-27 -9.1089552239 0.85 0 
-9.1089552239 0.8 7.1732108188e-26 -9.1089552239 0.75 -3.941232899e-26 -9.1089552239 0.7 3.4848226311e-25 
-9.1089552239 0.65 -4.4735611682e-25 -9.1089552239 0.6 -4.2102196765e-25 -9.1089552239 0.55 8.6126946164e-25 
-9.1089552239 0.5 0 -9.1089552239 0.45 -1.3579007888e-25 -9.1089552239 0.4 0 
-9.1089552239 0.35 1.873273479e-25 -9.1089552239 0.3 3.0922336757e-26 -9.1089552239 0.25 0 
-9.1089552239 0.2 0 -9.1089552239 0.15 3.6536017095e-23 -9.1089552239 0.1 1.3787065613e-23 
-9.1089552239 0.05 2.6336066101e-23 -9.1089552239 0 0 -9.0589054726 1.5 -7.4786462439e-23 
-9.0589054726 1.45 1.9564635551e-23 -9.0589054726 1.4 4.066035735e-22 -9.0589054726 1.35 0 
-9.0589054726 1.3 0 -9.0589054726 1.25 9.256910479e-26 -9.0589054726 1.2 -2.8809391557e-24 
-9.0589054726 1.15 -1.538845759e-27 -9.0589054726 1.1 -2.3619876009e-25 -9.0589054726 1.05 0 
-9.0589054726 1 0 -9.0589054726 0.95 3.9568952392e-25 -9.0589054726 0.9 3.3216467529e-25 
-9.0589054726 0.85 0 -9.0589054726 0.8 0 -9.0589054726 0.75 -1.8829666073e-26 
-9.0589054726 0.7 1.1212178654e-25 -9.0589054726 0.65 3.5381397675e-26 -9.0589054726 0.6 0 
-9.0589054726 0.55 0 -9.0589054726 0.5 -3.9274919281e-25 -9.0589054726 0.45 0 
-9.0589054726 0.4 0 -9.0589054726 0.35 -6.7895039441e-27 -9.0589054726 0.3 -3.3547665849e-26 
-9.0589054726 0.25 -2.4976169494e-25 -9.0589054726 0.2 0 -9.0589054726 0.15 3.3982102002e-23 
-9.0589054726 0.1 -1.3431636444e-23 -9.0589054726 0.05 -1.0273872625e-22 -9.0589054726 0 -1.2842340781e-23 
-9.0088557214 1.5 -7.5157845532e-23 -9.0088557214 1.45 1.9670052612e-23 -9.0088557214 1.4 -5.1710136049e-24 
-9.0088557214 1.35 0 -9.0088557214 1.3 0 -9.0088557214 1.25 9.0044749894e-26 
-9.0088557214 1.2 3.5835702671e-24 -9.0088557214 1.15 -3.053458697e-27 -9.0088557214 1.1 0 
-9.0088557214 1.05 -1.5962008771e-25 -9.0088557214 1 -2.1907357591e-25 -9.0088557214 0.95 -9.13614327e-27 
-9.0088557214 0.9 2.924208768e-26 -9.0088557214 0.85 -4.3814715183e-25 -9.0088557214 0.8 -5.9065861671e-25 
-9.0088557214 0.75 8.9172294384e-26 -9.0088557214 0.7 -4.1358991185e-26 -9.0088557214 0.65 -4.2909990332e-25 
-9.0088557214 0.6 -9.7904540871e-26 -9.0088557214 0.55 2.6350222209e-25 -9.0088557214 0.5 1.6713250872e-25 
-9.0088557214 0.45 2.1761960666e-25 -9.0088557214 0.4 0 -9.0088557214 0.35 -2.7828890207e-25 
-9.0088557214 0.3 7.8000544852e-25 -9.0088557214 0.25 1.0639489302e-24 -9.0088557214 0.2 0 
-9.0088557214 0.15 1.5550616232e-23 -9.0088557214 0.1 5.2539086076e-23 -9.0088557214 0.05 0 
-9.0088557214 0 0 -8.9588059701 1.5 -1.5111702228e-22 -8.9588059701 1.45 3.9525089951e-23 
-8.9588059701 1.4 -1.0400794192e-23 -8.9588059701 1.35 -1.0822623835e-22 -8.9588059701 1.3 0 
-8.9588059701 1.25 9.3376898357e-26 -8.9588059701 1.2 2.5465650783e-24 -8.9588059701 1.15 3.3079156427e-27 
-8.9588059701 1.1 1.3024862685e-24 -8.9588059701 1.05 8.2588806396e-25 -8.9588059701 1 1.5186558502e-26 
-8.9588059701 0.95 4.5963473681e-27 -8.9588059701 0.9 0 -8.9588059701 0.85 0 
-8.9588059701 0.8 -4.8968442084e-25 -8.9588059701 0.75 -1.3756723459e-26 -8.9588059701 0.7 5.5026893836e-25 
-8.9588059701 0.65 1.5186558502e-26 -8.9588059701 0.6 -4.2199128049e-25 -8.9588059701 0.55 9.0472485068e-27 
-8.9588059701 0.5 0 -8.9588059701 0.45 -4.1698299981e-25 -8.9588059701 0.4 0 
-8.9588059701 0.35 3.1331891152e-25 -8.9588059701 0.3 -2.6277523747e-26 -8.9588059701 0.25 -2.2330645562e-25 
-8.9588059701 0.2 0 -8.9588059701 0.15 -2.0217974886e-23 -8.9588059701 0.1 -1.2852245719e-23 
-8.9588059701 0.05 -9.8069275538e-23 -8.9588059701 0 1.2114114881e-23 -8.9087562189 1.5 1.5199731532e-22 
-8.9087562189 1.45 -3.9762581259e-23 -8.9087562189 1.4 1.0465417677e-23 -8.9087562189 1.35 0 
-8.9087562189 1.3 -2.9163285209e-23 -8.9087562189 1.25 -1.8392651923e-25 -8.9087562189 1.2 2.5604713155e-24 
-8.9087562189 1.15 -7.4236248524e-27 -8.9087562189 1.1 0 -8.9087562189 1.05 5.3702100553e-25 
-8.9087562189 1 0 -8.9087562189 0.95 -1.0076421096e-25 -8.9087562189 0.9 2.1503460808e-25 
-8.9087562189 0.85 -2.0501804673e-25 -8.9087562189 0.8 -9.6931283729e-28 -8.9087562189 0.75 2.0034084112e-25 
-8.9087562189 0.7 0 -8.9087562189 0.65 -2.3926841509e-25 -8.9087562189 0.6 1.9694011106e-25 
-8.9087562189 0.55 3.806322893e-25 -8.9087562189 0.5 8.0294700276e-26 -8.9087562189 0.45 -2.1858891949e-25 
-8.9087562189 0.4 -3.8822556855e-25 -8.9087562189 0.35 4.681973289e-26 -8.9087562189 0.3 -6.2385087607e-25 
-8.9087562189 0.25 0 -8.9087562189 0.2 0 -8.9087562189 0.15 -1.6360605987e-23 
-8.9087562189 0.1 1.2538821815e-23 -8.9087562189 0.05 2.3977207911e-23 -8.9087562189 0 0 
-8.8587064677 1.5 -1.5287720446e-22 -8.8587064677 1.45 3.9994619961e-23 -8.8587064677 1.4 -1.0521357382e-23 
-8.8587064677 1.35 0 -8.8587064677 1.3 0 -8.8587064677 1.25 9.6305150037e-26 
-8.8587064677 1.2 6.6183528793e-24 -8.8587064677 1.15 -3.053458697e-27 -8.8587064677 1.1 0 
-8.8587064677 1.05 -6.656211103e-26 -8.8587064677 1 0 -8.8587064677 0.95 -7.728645317e-25 
-8.8587064677 0.9 0 -8.8587064677 0.85 0 -8.8587064677 0.8 -3.7255435363e-25 
-8.8587064677 0.75 1.7815479377e-25 -8.8587064677 0.7 2.0825015777e-25 -8.8587064677 0.65 -4.61411646e-25 
-8.8587064677 0.6 0 -8.8587064677 0.55 3.7659332147e-25 -8.8587064677 0.5 1.1002144438e-25 
-8.8587064677 0.45 1.8926597357e-25 -8.8587064677 0.4 -5.1375675788e-27 -8.8587064677 0.35 1.5496713958e-25 
-8.8587064677 0.3 -2.1329788149e-26 -8.8587064677 0.25 -2.2633568149e-25 -8.8587064677 0.2 2.6903564994e-26 
-8.8587064677 0.15 -1.9254681058e-23 -8.8587064677 0.1 -1.231970781e-23 -8.8587064677 0.05 0 
-8.8587064677 0 5.8125231816e-24 -8.8086567164 1.5 1.5386230872e-22 -8.8086567164 1.45 -4.0250488574e-23 
-8.8086567164 1.4 4.3380993462e-22 -8.8086567164 1.35 0 -8.8086567164 1.3 2.9559104057e-23 
-8.8086567164 1.25 -1.7605053195e-25 -8.8086567164 1.2 2.0712270791e-24 -8.8086567164 1.15 2.4718463427e-27 
-8.8086567164 1.1 0 -8.8086567164 1.05 6.7240728624e-25 -8.8086567164 1 0 
-8.8086567164 0.95 -1.4365793103e-25 -8.8086567164 0.9 -2.4540772508e-25 -8.8086567164 0.85 0 
-8.8086567164 0.8 -9.7904540871e-26 -8.8086567164 0.75 3.5301382528e-25 -8.8086567164 0.7 -9.0472485068e-27 
-8.8086567164 0.65 8.5787637367e-26 -8.8086567164 0.6 -8.7338636514e-25 -8.8086567164 0.55 3.2408673962e-25 
-8.8086567164 0.5 0 -8.8086567164 0.45 -8.2314184193e-26 -8.8086567164 0.4 -3.5866054094e-26 
-8.8086567164 0.35 3.1544328928e-27 -8.8086567164 0.3 2.9811620602e-26 -8.8086567164 0.25 1.1013860994e-24 
-8.8086567164 0.2 0 -8.8086567164 0.15 -1.5728507521e-23 -8.8086567164 0.1 -2.4131313466e-23 
-8.8086567164 0.05 -9.1176373031e-23 -8.8086567164 0 1.150645217e-23 -8.7586069652 1.5 -1.5485831819e-22 
-8.7586069652 1.45 4.0513021483e-23 -8.7586069652 1.4 -4.3655057624e-22 -8.7586069652 1.35 0 
-8.7586069652 1.3 2.9607571671e-23 -8.7586069652 1.25 9.7617814584e-26 -8.7586069652 1.2 1.9881777751e-24 
-8.7586069652 1.15 7.3468834775e-27 -8.7586069652 1.1 0 -8.7586069652 1.05 6.9664109325e-25 
-8.7586069652 1 -6.4174142789e-27 -8.7586069652 0.95 -9.5004638879e-26 -8.7586069652 0.9 2.5283978088e-26 
-8.7586069652 0.85 -4.462250875e-25 -8.7586069652 0.8 -2.7359964168e-25 -8.7586069652 0.75 3.5454022182e-26 
-8.7586069652 0.7 3.3017649929e-25 -8.7586069652 0.65 2.2117391807e-25 -8.7586069652 0.6 6.0930802806e-25 
-8.7586069652 0.55 1.1066732424e-26 -8.7586069652 0.5 0 -8.7586069652 0.45 5.1981496311e-26 
-8.7586069652 0.4 0 -8.7586069652 0.35 -1.4291866976e-26 -8.7586069652 0.3 -3.3749614241e-26 
-8.7586069652 0.25 -2.1038175855e-25 -8.7586069652 0.2 0 -8.7586069652 0.15 -1.8394380909e-23 
-8.7586069652 0.1 -4.1402818719e-23 -8.7586069652 0.05 0 -8.7586069652 0 0 
-8.7085572139 1.5 -7.8228369854e-23 -8.7085572139 1.45 2.0471617333e-23 -8.7085572139 1.4 -5.3805855484e-24 
-8.7085572139 1.35 0 -8.7085572139 1.3 0 -8.7085572139 1.25 1.7362715125e-25 
-8.7085572139 1.2 1.7858012291e-24 -8.7085572139 1.15 4.620580189e-27 -8.7085572139 1.1 -7.8145941778e-25 
-8.7085572139 1.05 0 -8.7085572139 1 0 -8.7085572139 0.95 1.5108828092e-24 
-8.7085572139 0.9 3.6649590188e-25 -8.7085572139 0.85 0 -8.7085572139 0.8 9.2686225983e-25 
-8.7085572139 0.75 -2.0182759741e-26 -8.7085572139 0.7 -3.7053486972e-25 -8.7085572139 0.65 2.9783344869e-25 
-8.7085572139 0.6 -1.9734994896e-25 -8.7085572139 0.55 -1.7206042419e-26 -8.7085572139 0.5 0 
-8.7085572139 0.45 -2.3777401671e-25 -8.7085572139 0.4 0 -8.7085572139 0.35 7.9729432134e-27 
-8.7085572139 0.3 -2.7640675391e-26 -8.7085572139 0.25 -2.4363781703e-24 -8.7085572139 0.2 -3.9897326591e-24 
-8.7085572139 0.15 -3.0184740963e-24 -8.7085572139 0.1 -1.1580576696e-23 -8.7085572139 0.05 -8.8702303284e-23 
-8.7085572139 0 -1.0970152972e-23 -8.6585074627 1.5 1.5706086832e-22 -8.6585074627 1.45 -4.1082717896e-23 
-8.6585074627 1.4 1.0772480207e-23 -8.6585074627 1.35 1.3524922598e-24 -8.6585074627 1.3 0 
-8.6585074627 1.25 -1.9018691937e-25 -8.6585074627 1.2 -2.8687494798e-24 -8.6585074627 1.15 1.5699466001e-26 
-8.6585074627 1.1 0 -8.6585074627 1.05 0 -8.6585074627 1 0 
-8.6585074627 0.95 4.2510940113e-25 -8.6585074627 0.9 6.1893139155e-25 -8.6585074627 0.85 0 
-8.6585074627 0.8 -4.4323629074e-25 -8.6585074627 0.75 4.8024131207e-25 -8.6585074627 0.7 -2.8571654519e-25 
-8.6585074627 0.65 -3.9476867672e-25 -8.6585074627 0.6 -5.3411306702e-25 -8.6585074627 0.55 -3.5841796621e-25 
-8.6585074627 0.5 2.1503460808e-25 -8.6585074627 0.45 3.0740578274e-25 -8.6585074627 0.4 3.5684261715e-26 
-8.6585074627 0.35 3.9549590787e-26 -8.6585074627 0.3 -6.0567552081e-25 -8.6585074627 0.25 0 
-8.6585074627 0.2 -3.9181522464e-26 -8.6585074627 0.15 -1.505248528e-23 -8.6585074627 0.1 1.1410435176e-23 
-8.6585074627 0.05 2.1751534686e-23 -8.6585074627 0 -5.3890626477e-24 -8.6084577114 1.5 -7.9101998596e-23 
-8.6084577114 1.45 2.0692315371e-23 -8.6084577114 1.4 -5.4384942497e-24 -8.6084577114 1.35 0 
-8.6084577114 1.3 0 -8.6084577114 1.25 -7.5039257649e-24 -8.6084577114 1.2 1.8173051782e-24 
-8.6084577114 1.15 -1.130814161e-24 -8.6084577114 1.1 0 -8.6084577114 1.05 7.6934251427e-25 
-8.6084577114 1 0 -8.6084577114 0.95 -5.3090615023e-25 -8.6084577114 0.9 1.1066732424e-26 
-8.6084577114 0.85 0 -8.6084577114 0.8 0 -8.6084577114 0.75 7.1905706891e-26 
-8.6084577114 0.7 -4.3919732291e-25 -8.6084577114 0.65 3.1342429841e-26 -8.6084577114 0.6 -7.178861035e-25 
-8.6084577114 0.55 8.0472391195e-25 -8.6084577114 0.5 1.9887873674e-25 -8.6084577114 0.45 -2.6200782372e-25 
-8.6084577114 0.4 0 -8.6084577114 0.35 -2.638798646e-25 -8.6084577114 0.3 -3.5415688473e-26 
-8.6084577114 0.25 -1.9574050015e-25 -8.6084577114 0.2 3.9059240765e-24 -8.6084577114 0.15 -1.7408064964e-23 
-8.6084577114 0.1 -1.1218281281e-23 -8.6084577114 0.05 0 -8.6084577114 0 7.9546627424e-24 
-8.5584079602 1.5 -7.9695373458e-23 -8.5584079602 1.45 2.0860942278e-23 -8.5584079602 1.4 -5.4910513187e-24 
-8.5584079602 1.35 0 -8.5584079602 1.3 3.0370936592e-23 -8.5584079602 1.25 1.9250932588e-25 
-8.5584079602 1.2 3.1408487081e-24 -8.5584079602 1.15 -7.2943749234e-27 -8.5584079602 1.1 0 
-8.5584079602 1.05 -2.9678327761e-25 -8.5584079602 1 0 -8.5584079602 0.95 -1.0576036289e-26 
-8.5584079602 0.9 1.0598247654e-25 -8.5584079602 0.85 -4.1795231265e-25 -8.5584079602 0.8 0 
-8.5584079602 0.75 -1.0651569721e-25 -8.5584079602 0.7 9.3946431279e-26 -8.5584079602 0.65 5.1537269014e-26 
-8.5584079602 0.6 2.0808770173e-25 -8.5584079602 0.55 -1.545309488e-25 -8.5584079602 0.5 0 
-8.5584079602 0.45 1.5630785799e-26 -8.5584079602 0.4 0 -8.5584079602 0.35 1.2345106173e-26 
-8.5584079602 0.3 -7.4054879541e-25 -8.5584079602 0.25 -1.7302130608e-25 -8.5584079602 0.2 0 
-8.5584079602 0.15 -1.725781536e-23 -8.5584079602 0.1 -1.1006841315e-23 -8.5584079602 0.05 0 
-8.5584079602 0 -6.5119288379e-24 -8.508358209 1.5 1.6066564711e-22 -8.508358209 1.45 -4.2023292531e-23 
-8.508358209 1.4 1.1046120278e-23 -8.508358209 1.35 -1.146481972e-22 -8.508358209 1.3 0 
-8.508358209 1.25 -1.9382199043e-25 -8.508358209 1.2 4.2487799864e-24 -8.508358209 1.15 1.2670240125e-26 
-8.508358209 1.1 7.612645786e-25 -8.508358209 1.05 1.1005378767e-24 -8.508358209 1 0 
-8.508358209 0.95 5.332527649e-25 -8.508358209 0.9 7.4413939443e-25 -8.508358209 0.85 0 
-8.508358209 0.8 1.706059619e-25 -8.508358209 0.75 1.1340205848e-25 -8.508358209 0.7 -9.1846089119e-26 
-8.508358209 0.65 1.7472578797e-25 -8.508358209 0.6 1.9492062715e-25 -8.508358209 0.55 0 
-8.508358209 0.5 0 -8.508358209 0.45 -1.3611301882e-26 -8.508358209 0.4 0 
-8.508358209 0.35 -1.7312629853e-25 -8.508358209 0.3 -7.1745395564e-25 -8.508358209 0.25 -2.0402037435e-24 
-8.508358209 0.2 0 -8.508358209 0.15 -1.4071016096e-23 -8.508358209 0.1 1.0828583205e-23 
-8.508358209 0.05 -8.2731699083e-23 -8.508358209 0 1.9236651247e-24 -8.4583084577 1.5 -8.0990468495e-23 
-8.4583084577 1.45 2.1190370592e-23 -8.4583084577 1.4 -4.5103204298e-22 -8.4583084577 1.35 0 
-8.4583084577 1.3 -3.0217455814e-23 -8.4583084577 1.25 2.0523207456e-25 -8.4583084577 1.2 2.9991333963e-24 
-8.4583084577 1.15 -1.178772664e-26 -8.4583084577 1.1 -8.5819980664e-25 -8.4583084577 1.05 5.8484175361e-26 
-8.4583084577 1 0 -8.4583084577 0.95 -4.8122684586e-25 -8.4583084577 0.9 8.6732791339e-25 
-8.4583084577 0.85 6.9631766028e-26 -8.4583084577 0.8 -3.3717295596e-25 -8.4583084577 0.75 -5.4000980229e-27 
-8.4583084577 0.7 0 -8.4583084577 0.65 1.7472578797e-25 -8.4583084577 0.6 5.4025237702e-25 
-8.4583084577 0.55 -1.9088165931e-25 -8.4583084577 0.5 4.6343112991e-25 -8.4583084577 0.45 -2.2666685516e-25 
-8.4583084577 0.4 6.106917394e-26 -8.4583084577 0.35 -9.1119104491e-27 -8.4583084577 0.3 7.9717106182e-25 
-8.4583084577 0.25 -1.7266305476e-24 -8.4583084577 0.2 0 -8.4583084577 0.15 -1.6752540484e-23 
-8.4583084577 0.1 2.1572021498e-23 -8.4583084577 0.05 0 -8.4583084577 0 0 
-8.4082587065 1.5 1.6264686181e-22 -8.4082587065 1.45 -1.7453395814e-21 -8.4082587065 1.4 1.11751653e-23 
-8.4082587065 1.35 0 -8.4082587065 1.3 0 -8.4082587065 1.25 -1.7221351251e-25 
-8.4082587065 1.2 3.2145821564e-24 -8.4082587065 1.15 -5.5737953335e-28 -8.4082587065 1.1 0 
-8.4082587065 1.05 9.3897916333e-25 -8.4082587065 1 0 -8.4082587065 0.95 0 
-8.4082587065 0.9 1.1066732424e-26 -8.4082587065 0.85 0 -8.4082587065 0.8 -4.9170390476e-25 
-8.4082587065 0.75 -1.0957721708e-26 -8.4082587065 0.7 8.9568154647e-25 -8.4082587065 0.65 -2.5550514467e-25 
-8.4082587065 0.6 -8.5787637367e-26 -8.4082587065 0.55 2.41287899e-25 -8.4082587065 0.5 0 
-8.4082587065 0.45 3.1196983611e-25 -8.4082587065 0.4 2.0546227403e-25 -8.4082587065 0.35 4.7708286092e-25 
-8.4082587065 0.3 -4.4664116232e-25 -8.4082587065 0.25 0 -8.4082587065 0.2 0 
-8.4082587065 0.15 -1.2473982182e-23 -8.4082587065 0.1 1.0558414911e-23 -8.4082587065 0.05 2.0170228291e-23 
-8.4082587065 0 0 -8.3582089552 1.5 -8.2021818931e-23 -8.3582089552 1.45 2.145623565e-23 
-8.3582089552 1.4 -5.6398367963e-24 -8.3582089552 1.35 0 -8.3582089552 1.3 0 
-8.3582089552 1.25 1.9745706148e-25 -8.3582089552 1.2 2.3489343195e-24 -8.3582089552 1.15 -1.3282541634e-25 
-8.3582089552 1.1 0 -8.3582089552 1.05 4.7449786234e-25 -8.3582089552 1 0 
-8.3582089552 0.95 5.1243990251e-25 -8.3582089552 0.9 3.0793086828e-25 -8.3582089552 0.85 0 
-8.3582089552 0.8 -3.7457383755e-25 -8.3582089552 0.75 -4.6932786518e-27 -8.3582089552 0.7 -3.4226209487e-25 
-8.3582089552 0.65 -5.9873655238e-25 -8.3582089552 0.6 -6.0277552021e-25 -8.3582089552 0.55 5.008280672e-27 
-8.3582089552 0.5 0 -8.3582089552 0.45 2.4585195238e-25 -8.3582089552 0.4 0 
-8.3582089552 0.35 -1.4576027e-25 -8.3582089552 0.3 -1.5431219767e-24 -8.3582089552 0.25 -1.7998852559e-25 
-8.3582089552 0.2 0 -8.3582089552 0.15 -1.6396909366e-23 -8.3582089552 0.1 -1.0437649773e-23 
-8.3582089552 0.05 7.8938098544e-23 -8.3582089552 0 0 -8.308159204 1.5 -8.2720408905e-23 
-8.308159204 1.45 2.1636323128e-23 -8.308159204 1.4 0 -8.308159204 1.35 0 
-8.308159204 1.3 0 -8.308159204 1.25 2.0250577127e-25 -8.308159204 1.2 2.4513221541e-24 
-8.308159204 1.15 0 -8.308159204 1.1 -5.1234297123e-27 -8.308159204 1.05 -4.94854418e-25 
-8.308159204 1 0 -8.308159204 0.95 5.0244769725e-27 -8.308159204 0.9 -9.2597380523e-25 
-8.308159204 0.85 -1.706059619e-25 -8.308159204 0.8 -2.6350222209e-25 -8.308159204 0.75 -1.3460663961e-25 
-8.308159204 0.7 -6.4114571464e-25 -8.308159204 0.65 -2.5946325426e-25 -8.308159204 0.6 1.4645301313e-25 
-8.308159204 0.55 8.4608290313e-25 -8.308159204 0.5 0 -8.308159204 0.45 -1.4487775651e-25 
-8.308159204 0.4 0 -8.308159204 0.35 6.106917394e-26 -8.308159204 0.3 -6.1226107956e-25 
-8.308159204 0.25 -1.5413913145e-25 -8.308159204 0.2 0 -8.308159204 0.15 1.20195983e-23 
-8.308159204 0.1 -1.029679077e-23 -8.308159204 0.05 0 -8.308159204 0 0 
-8.2581094527 1.5 1.6693473104e-22 -8.2581094527 1.45 -4.3698656388e-23 -8.2581094527 1.4 1.1463749552e-23 
-8.2581094527 1.35 0 -8.2581094527 1.3 0 -8.2581094527 1.25 -1.8402749343e-25 
-8.2581094527 1.2 3.2021623303e-24 -8.2581094527 1.15 8.4293238989e-27 -8.2581094527 1.1 1.9123704115e-24 
-8.2581094527 1.05 7.1279696459e-25 -8.2581094527 1 0 -8.2581094527 0.95 6.7127625692e-27 
-8.2581094527 0.9 -1.7068682014e-25 -8.2581094527 0.85 -1.1616075437e-25 -8.2581094527 0.8 8.2588806396e-25 
-8.2581094527 0.75 2.5123183584e-25 -8.2581094527 0.7 0 -8.2581094527 0.65 -1.201997222e-25 
-8.2581094527 0.6 -2.1907357591e-25 -8.2581094527 0.55 2.1301512416e-25 -8.2581094527 0.5 -2.4136875725e-25 
-8.2581094527 0.45 -3.5647934054e-25 -8.2581094527 0.4 0 -8.2581094527 0.35 -2.7743671043e-26 
-8.2581094527 0.3 2.6450592434e-25 -8.2581094527 0.25 1.5726933152e-24 -8.2581094527 0.2 0 
-8.2581094527 0.15 -1.3155685011e-23 -8.2581094527 0.1 1.0101203753e-23 -8.2581094527 0.05 7.7242337898e-23 
-8.2581094527 0 0 -8.2080597015 1.5 -8.4237142301e-23 -8.2080597015 1.45 2.2031839053e-23 
-8.2080597015 1.4 -5.7839269738e-24 -8.2080597015 1.35 0 -8.2080597015 1.3 0 
-8.2080597015 1.25 7.8390630653e-24 -8.2080597015 1.2 2.8608734925e-24 -8.2080597015 1.15 -1.5776207376e-26 
-8.2080597015 1.1 0 -8.2080597015 1.05 5.1200055629e-26 -8.2080597015 1 0 
-8.2080597015 0.95 9.9924024788e-26 -8.2080597015 0.9 5.5160586038e-25 -8.2080597015 0.85 -7.2988586116e-25 
-8.2080597015 0.8 -3.6944838638e-25 -8.2080597015 0.75 8.2556512403e-27 -8.2080597015 0.7 1.4645301313e-25 
-8.2080597015 0.65 -1.9492062715e-25 -8.2080597015 0.6 -5.9162792955e-25 -8.2080597015 0.55 -2.0291770457e-25 
-8.2080597015 0.5 -1.7876475581e-25 -8.2080597015 0.45 1.4996689543e-25 -8.2080597015 0.4 0 
-8.2080597015 0.35 -1.2137500169e-25 -8.2080597015 0.3 -7.7659658334e-25 -8.2080597015 0.25 -1.6484239621e-25 
-8.2080597015 0.2 0 -8.2080597015 0.15 -1.5587500212e-23 -8.2080597015 0.1 -9.939544065e-24 
-8.2080597015 0.05 0 -8.2080597015 0 0 -8.1580099502 1.5 -8.5029234381e-23 
-8.1580099502 1.45 -1.7572230326e-21 -8.1580099502 1.4 -5.8521855302e-24 -8.1580099502 1.35 0 
-8.1580099502 1.3 0 -8.1580099502 1.25 9.0499133775e-26 -8.1580099502 1.2 2.9972634015e-24 
-8.1580099502 1.15 6.3876286167e-27 -8.1580099502 1.1 0 -8.1580099502 1.05 1.2499796866e-24 
-8.1580099502 1 0 -8.1580099502 0.95 -1.4433535547e-24 -8.1580099502 0.9 1.5041112272e-25 
-8.1580099502 0.85 -1.2742134936e-24 -8.1580099502 0.8 -1.3832656252e-24 -8.1580099502 0.75 -1.5473284789e-26 
-8.1580099502 0.7 -3.4630106271e-25 -8.1580099502 0.65 4.5042577182e-25 -8.1580099502 0.6 -1.6252802623e-25 
-8.1580099502 0.55 -7.9810043857e-26 -8.1580099502 0.5 -9.7419884452e-26 -8.1580099502 0.45 0 
-8.1580099502 0.4 0 -8.1580099502 0.35 1.3838111718e-25 -8.1580099502 0.3 2.0445253207e-25 
-8.1580099502 0.25 -1.7817099007e-25 -8.1580099502 0.2 0 -8.1580099502 0.15 -1.5548120276e-23 
-8.1580099502 0.1 -9.8227169204e-24 -8.1580099502 0.05 0 -8.1580099502 0 0 
-8.107960199 1.5 1.7166890621e-22 -8.107960199 1.45 -4.4934075675e-23 -8.107960199 1.4 1.1792723482e-23 
-8.107960199 1.35 0 -8.107960199 1.3 0 -8.107960199 1.25 -2.0109213253e-25 
-8.107960199 1.2 2.7095092286e-24 -8.107960199 1.15 -1.1260644295e-26 -8.107960199 1.1 0 
-8.107960199 1.05 1.3307590433e-24 -8.107960199 1 0 -8.107960199 0.95 4.2659576298e-26 
-8.107960199 0.9 7.522173301e-25 -8.107960199 0.85 0 -8.107960199 0.8 0 
-8.107960199 0.75 -3.2061328644e-26 -8.107960199 0.7 3.9686901888e-25 -8.107960199 0.65 3.6657676012e-25 
-8.107960199 0.6 0 -8.107960199 0.55 8.3768153449e-26 -8.107960199 0.5 0 
-8.107960199 0.45 0 -8.107960199 0.4 0 -8.107960199 0.35 -8.8711870787e-26 
-8.107960199 0.3 2.1986120422e-26 -8.107960199 0.25 0 -8.107960199 0.2 0 
-8.107960199 0.15 -1.2752293098e-23 -8.107960199 0.1 9.6799394074e-24 -8.107960199 0.05 1.850223555e-23 
-8.107960199 0 0 -8.0579104478 1.5 -8.6689048213e-23 -8.0579104478 1.45 2.2685646972e-23 
-8.0579104478 1.4 -4.8182154916e-22 -8.0579104478 1.35 0 -8.0579104478 1.3 0 
-8.0579104478 1.25 9.0953517656e-26 -8.0579104478 1.2 3.3921231917e-24 -8.0579104478 1.15 2.0962252923e-27 
-8.0579104478 1.1 0 -8.0579104478 1.05 2.4293582943e-24 -8.0579104478 1 0 
-8.0579104478 0.95 -1.08527046e-26 -8.0579104478 0.9 0 -8.0579104478 0.85 6.5673656436e-26 
-8.0579104478 0.8 -4.5397959019e-26 -8.0579104478 0.75 -2.6402730763e-26 -8.0579104478 0.7 1.6863499292e-24 
-8.0579104478 0.65 -5.7046377753e-25 -8.0579104478 0.6 -4.9469270151e-25 -8.0579104478 0.55 7.1182765175e-25 
-8.0579104478 0.5 0 -8.0579104478 0.45 -9.3380916617e-26 -8.0579104478 0.4 -1.0800196046e-25 
-8.0579104478 0.35 -8.3202638788e-28 -8.0579104478 0.3 -6.3240543164e-25 -8.0579104478 0.25 -1.9121201454e-24 
-8.0579104478 0.2 -3.214251032e-24 -8.0579104478 0.15 -1.5136751402e-23 -8.0579104478 0.1 -9.5217128425e-24 
-8.0579104478 0.05 -1.0946396742e-22 -8.0579104478 0 0 -8.0078606965 1.5 -1.7510101913e-22 
-8.0078606965 1.45 2.2917887622e-23 -8.0078606965 1.4 -5.9929435592e-24 -8.0078606965 1.35 0 
-8.0078606965 1.3 0 -8.0078606965 1.25 8.2572659399e-26 -8.0078606965 1.2 3.6274435552e-24 
-8.0078606965 1.15 5.4788608539e-27 -8.0078606965 1.1 0 -8.0078606965 1.05 3.3313398812e-25 
-8.0078606965 1 0 -8.0078606965 0.95 -6.4360942586e-27 -8.0078606965 0.9 1.6252802623e-25 
-8.0078606965 0.85 0 -8.0078606965 0.8 0 -8.0078606965 0.75 -5.6809502545e-25 
-8.0078606965 0.7 5.2005753784e-25 -8.0078606965 0.65 -2.3724893117e-25 -8.0078606965 0.6 9.1894604064e-25 
-8.0078606965 0.55 2.2715151158e-25 -8.0078606965 0.5 5.1391822785e-25 -8.0078606965 0.45 -4.4929474249e-25 
-8.0078606965 0.4 0 -8.0078606965 0.35 5.82738256e-25 -8.0078606965 0.3 -1.764423e-26 
-8.0078606965 0.25 7.7905023657e-25 -8.0078606965 0.2 0 -8.0078606965 0.15 -1.4989531024e-23 
-8.0078606965 0.1 -9.4073090786e-24 -8.0078606965 0.05 0 -8.0078606965 0 0 
-7.9578109453 1.5 0 -7.9578109453 1.45 0 -7.9578109453 1.4 0 
-7.9578109453 1.35 0 -7.9578109453 1.3 0 -7.9578109453 1.25 0 
-7.9578109453 1.2 -2.340501002e-24 -7.9578109453 1.15 0 -7.9578109453 1.1 0 
-7.9578109453 1.05 -5.8645891846e-26 -7.9578109453 1 -3.2461182516e-26 -7.9578109453 0.95 5.1537269014e-26 
-7.9578109453 0.9 -9.3380916617e-27 -7.9578109453 0.85 -4.2760550494e-26 -7.9578109453 0.8 -1.3884755584e-25 
-7.9578109453 0.75 3.3281055515e-26 -7.9578109453 0.7 -2.1730450603e-25 -7.9578109453 0.65 7.7439171711e-26 
-7.9578109453 0.6 2.1526894907e-25 -7.9578109453 0.55 5.7839227337e-25 -7.9578109453 0.5 -1.1155627187e-26 
-7.9578109453 0.45 1.371956811e-25 -7.9578109453 0.4 -2.8757431262e-27 -7.9578109453 0.35 2.4740297618e-25 
-7.9578109453 0.3 4.7910234483e-25 -7.9578109453 0.25 -1.5928881544e-25 -7.9578109453 0.2 -6.3244985436e-25 
-7.9578109453 0.15 -1.4599366731e-23 -7.9578109453 0.1 0 -7.9578109453 0.05 -3.5519847497e-23 
-7.9578109453 0 0 -7.907761194 1.5 -8.9837928511e-23 -7.907761194 1.45 2.3368434484e-23 
-7.907761194 1.4 -1.23115289e-23 -7.907761194 1.35 0 -7.907761194 1.3 0 
-7.907761194 1.25 9.6709046821e-26 -7.907761194 1.2 2.2554059845e-24 -7.907761194 1.15 -2.296152228e-27 
-7.907761194 1.1 0 -7.907761194 1.05 -1.0964989089e-24 -7.907761194 1 0 
-7.907761194 0.95 2.9972634015e-24 -7.907761194 0.9 4.7554803342e-25 -7.907761194 0.85 0 
-7.907761194 0.8 -2.8571654519e-25 -7.907761194 0.75 2.298173684e-27 -7.907761194 0.7 3.9388022213e-25 
-7.907761194 0.65 -2.8369706127e-25 -7.907761194 0.6 -1.9080080107e-25 -7.907761194 0.55 4.5397959019e-26 
-7.907761194 0.5 0 -7.907761194 0.45 0 -7.907761194 0.4 0 
-7.907761194 0.35 7.9729432134e-27 -7.907761194 0.3 -2.3955117242e-26 -7.907761194 0.25 -1.5089301813e-24 
-7.907761194 0.2 -3.1142865781e-24 -7.907761194 0.15 1.0597831135e-23 -7.907761194 0.1 -9.1935467059e-24 
-7.907761194 0.05 0 -7.907761194 0 0 -7.8577114428 1.5 0 
-7.8577114428 1.45 0 -7.8577114428 1.4 4.9667379315e-22 -7.8577114428 1.35 0 
-7.8577114428 1.3 0 -7.8577114428 1.25 0 -7.8577114428 1.2 1.9810328647e-24 
-7.8577114428 1.15 0 -7.8577114428 1.1 0 -7.8577114428 1.05 2.292033388e-24 
-7.8577114428 1 -1.1660498167e-26 -7.8577114428 0.95 0 -7.8577114428 0.9 7.6832473579e-25 
-7.8577114428 0.85 -3.170871275e-25 -7.8577114428 0.8 -1.3881930476e-26 -7.8577114428 0.75 -2.1511546632e-25 
-7.8577114428 0.7 3.2129185473e-25 -7.8577114428 0.65 -9.4996109321e-27 -7.8577114428 0.6 1.0924604341e-25 
-7.8577114428 0.55 -6.5520947756e-25 -7.8577114428 0.5 5.7070635226e-27 -7.8577114428 0.45 2.1127031175e-25 
-7.8577114428 0.4 -2.0041356424e-26 -7.8577114428 0.35 -1.1501362735e-25 -7.8577114428 0.3 6.4570976802e-25 
-7.8577114428 0.25 -1.4122978758e-24 -7.8577114428 0.2 -6.6758887453e-25 -7.8577114428 0.15 -1.4018967054e-23 
-7.8577114428 0.1 0 -7.8577114428 0.05 1.0368723367e-22 -7.8577114428 0 0 
-7.8076616915 1.5 0 -7.8076616915 1.45 0 -7.8076616915 1.4 0 
-7.8076616915 1.35 0 -7.8076616915 1.3 0 -7.8076616915 1.25 0 
-7.8076616915 1.2 2.5989949434e-24 -7.8076616915 1.15 0 -7.8076616915 1.1 0 
-7.8076616915 1.05 0 -7.8076616915 1 -2.5594937197e-26 -7.8076616915 0.95 0 
-7.8076616915 0.9 1.0643888188e-25 -7.8076616915 0.85 -2.130635898e-25 -7.8076616915 0.8 4.7671125813e-25 
-7.8076616915 0.75 -4.8063815841e-28 -7.8076616915 0.7 -5.5273264958e-27 -7.8076616915 0.65 2.0186802653e-26 
-7.8076616915 0.6 4.2307384417e-25 -7.8076616915 0.55 2.1771244572e-25 -7.8076616915 0.5 3.5584514567e-25 
-7.8076616915 0.45 -9.5723340468e-28 -7.8076616915 0.4 -1.2604404752e-25 -7.8076616915 0.35 -3.7764250647e-28 
-7.8076616915 0.3 5.7805705679e-25 -7.8076616915 0.25 6.7590509549e-25 -7.8076616915 0.2 -6.3144011241e-25 
-7.8076616915 0.15 1.0619641562e-23 -7.8076616915 0.1 -4.4801985649e-23 -7.8076616915 0.05 1.7056688962e-23 
-7.8076616915 0 0 -7.7576119403 1.5 -9.2306343703e-23 -7.7576119403 1.45 2.4142452182e-23 
-7.7576119403 1.4 -6.3362053381e-24 -7.7576119403 1.35 0 -7.7576119403 1.3 -3.6174936526e-23 
-7.7576119403 1.25 1.1528829886e-25 -7.7576119403 1.2 3.9843325117e-24 -7.7576119403 1.15 2.0322067647e-26 
-7.7576119403 1.1 0 -7.7576119403 1.05 -2.4195034495e-24 -7.7576119403 1 0 
-7.7576119403 0.95 5.2863620297e-25 -7.7576119403 0.9 4.1391334482e-25 -7.7576119403 0.85 3.7796791159e-27 
-7.7576119403 0.8 -5.261159896e-25 -7.7576119403 0.75 -2.4656690688e-25 -7.7576119403 0.7 5.7054463578e-25 
-7.7576119403 0.65 5.261159896e-25 -7.7576119403 0.6 1.9225526336e-26 -7.7576119403 0.55 4.5939216208e-25 
-7.7576119403 0.5 -4.3378475102e-26 -7.7576119403 0.45 0 -7.7576119403 0.4 0 
-7.7576119403 0.35 2.624279168e-25 -7.7576119403 0.3 -3.2941820674e-26 -7.7576119403 0.25 -1.4495047962e-25 
-7.7576119403 0.2 0 -7.7576119403 0.15 -1.3994127401e-23 -7.7576119403 0.1 -8.7989395485e-24 
-7.7576119403 0.05 0 -7.7576119403 0 0 -7.7075621891 1.5 0 
-7.7075621891 1.45 0 -7.7075621891 1.4 0 -7.7075621891 1.35 0 
-7.7075621891 1.3 0 -7.7075621891 1.25 0 -7.7075621891 1.2 3.1523335368e-24 
-7.7075621891 1.15 0 -7.7075621891 1.1 1.3873844652e-27 -7.7075621891 1.05 -3.0373117003e-26 
-7.7075621891 1 1.0553824924e-26 -7.7075621891 0.95 -3.6253779229e-25 -7.7075621891 0.9 6.3129086978e-27 
-7.7075621891 0.85 -2.2868633908e-26 -7.7075621891 0.8 1.3045062454e-25 -7.7075621891 0.75 7.1086228322e-27 
-7.7075621891 0.7 -4.7600039584e-25 -7.7075621891 0.65 -1.0650756208e-26 -7.7075621891 0.6 4.9873216238e-26 
-7.7075621891 0.55 -2.1863748374e-25 -7.7075621891 0.5 3.1713169814e-25 -7.7075621891 0.45 3.1624940652e-27 
-7.7075621891 0.4 -1.8526743486e-26 -7.7075621891 0.35 -3.3058941867e-27 -7.7075621891 0.3 -4.818529056e-25 
-7.7075621891 0.25 -1.8140216433e-25 -7.7075621891 0.2 -6.1124527323e-25 -7.7075621891 0.15 -1.3641525509e-23 
-7.7075621891 0.1 0 -7.7075621891 0.05 1.6638403355e-23 -7.7075621891 0 0 
-7.6575124378 1.5 1.88785648e-22 -7.6575124378 1.45 -2.0247319502e-21 -7.6575124378 1.4 1.3006332342e-23 
-7.6575124378 1.35 0 -7.6575124378 1.3 3.5056142435e-23 -7.6575124378 1.25 0 
-7.6575124378 1.2 1.0001291955e-25 -7.6575124378 1.15 -1.8126889614e-26 -7.6575124378 1.1 8.9455051715e-25 
-7.6575124378 1.05 4.7449786234e-25 -7.6575124378 1 0 -7.6575124378 0.95 -7.0584182451e-25 
-7.6575124378 0.9 -5.2657648715e-25 -7.6575124378 0.85 -5.5026893836e-25 -7.6575124378 0.8 -2.1907357591e-25 
-7.6575124378 0.75 -1.9469032907e-25 -7.6575124378 0.7 1.7472578797e-25 -7.6575124378 0.65 0 
-7.6575124378 0.6 0 -7.6575124378 0.55 -1.5138043556e-25 -7.6575124378 0.5 0 
-7.6575124378 0.45 0 -7.6575124378 0.4 0 -7.6575124378 0.35 0 
-7.6575124378 0.3 -3.9663268109e-25 -7.6575124378 0.25 0 -7.6575124378 0.2 0 
-7.6575124378 0.15 -1.1250301934e-23 -7.6575124378 0.1 8.6107236474e-24 -7.6575124378 0.05 1.6428881899e-23 
-7.6575124378 0 0 -7.6074626866 1.5 0 -7.6074626866 1.45 0 
-7.6074626866 1.4 5.2658638893e-22 -7.6074626866 1.35 0 -7.6074626866 1.3 3.7180639517e-23 
-7.6074626866 1.25 0 -7.6074626866 1.2 2.4778259084e-24 -7.6074626866 1.15 -6.6853003489e-25 
-7.6074626866 1.1 0 -7.6074626866 1.05 8.420439353e-25 -7.6074626866 1 1.5165520567e-25 
-7.6074626866 0.95 0 -7.6074626866 0.9 -1.7416027331e-26 -7.6074626866 0.85 3.5454022182e-26 
-7.6074626866 0.8 -2.5452355518e-25 -7.6074626866 0.75 -2.8078912276e-25 -7.6074626866 0.7 -1.9397946678e-25 
-7.6074626866 0.65 1.6015715408e-25 -7.6074626866 0.6 -5.2265047433e-25 -7.6074626866 0.55 -5.0940273872e-25 
-7.6074626866 0.5 4.4986025715e-26 -7.6074626866 0.45 1.0856747512e-26 -7.6074626866 0.4 -1.378095628e-26 
-7.6074626866 0.35 -2.3708721468e-26 -7.6074626866 0.3 4.7001466721e-25 -7.6074626866 0.25 5.2164078168e-25 
-7.6074626866 0.2 5.4003342867e-24 -7.6074626866 0.15 1.0062566923e-23 -7.6074626866 0.1 0 
-7.6074626866 0.05 1.6227892762e-23 -7.6074626866 0 8.0609096845e-24 -7.5574129353 1.5 0 
-7.5574129353 1.45 0 -7.5574129353 1.4 0 -7.5574129353 1.35 1.3772032133e-22 
-7.5574129353 1.3 3.6590319124e-23 -7.5574129353 1.25 0 -7.5574129353 1.2 3.2411908291e-24 
-7.5574129353 1.15 0 -7.5574129353 1.1 0 -7.5574129353 1.05 1.1383829856e-26 
-7.5574129353 1 0 -7.5574129353 0.95 -5.1456410771e-26 -7.5574129353 0.9 7.0980816783e-25 
-7.5574129353 0.85 -6.8759384474e-25 -7.5574129353 0.8 2.0135063239e-24 -7.5574129353 0.75 0 
-7.5574129353 0.7 -1.5243060664e-25 -7.5574129353 0.65 -3.8871022497e-25 -7.5574129353 0.6 -5.1488754069e-25 
-7.5574129353 0.55 -1.232693772e-25 -7.5574129353 0.5 0 -7.5574129353 0.45 -4.2934247805e-26 
-7.5574129353 0.4 1.0733561951e-27 -7.5574129353 0.35 0 -7.5574129353 0.3 -3.4725834542e-25 
-7.5574129353 0.25 -7.9391972229e-26 -7.5574129353 0.2 0 -7.5574129353 0.15 -1.209487693e-23 
-7.5574129353 0.1 -2.0946964404e-23 -7.5574129353 0.05 6.2319112211e-24 -7.5574129353 0 0 
-7.5073631841 1.5 0 -7.5073631841 1.45 0 -7.5073631841 1.4 0 
-7.5073631841 1.35 0 -7.5073631841 1.3 0 -7.5073631841 1.25 0 
-7.5073631841 1.2 1.9042924758e-24 -7.5073631841 1.15 0 -7.5073631841 1.1 0 
-7.5073631841 1.05 7.8549838561e-25 -7.5073631841 1 -3.2663130907e-26 -7.5073631841 0.95 0 
-7.5073631841 0.9 -1.6204336981e-26 -7.5073631841 0.85 -4.7607311896e-26 -7.5073631841 0.8 -6.8592574905e-25 
-7.5073631841 0.75 1.0157195522e-24 -7.5073631841 0.7 -1.0209581802e-24 -7.5073631841 0.65 -5.9262559207e-25 
-7.5073631841 0.6 4.1200711174e-25 -7.5073631841 0.55 8.2314184193e-27 -7.5073631841 0.5 1.1462592687e-26 
-7.5073631841 0.45 -1.2497376049e-25 -7.5073631841 0.4 2.1272437961e-25 -7.5073631841 0.35 2.2001875454e-25 
-7.5073631841 0.3 -1.299941699e-26 -7.5073631841 0.25 -1.1728354996e-25 -7.5073631841 0.2 -5.755004079e-25 
-7.5073631841 0.15 -1.3031438629e-23 -7.5073631841 0.1 1.6588944932e-23 -7.5073631841 0.05 9.4780400828e-23 
-7.5073631841 0 -7.8489648474e-24 -7.4573134328 1.5 0 -7.4573134328 1.45 -2.0844206247e-21 
-7.4573134328 1.4 0 -7.4573134328 1.35 -5.4837667089e-22 -7.4573134328 1.3 0 
-7.4573134328 1.25 0 -7.4573134328 1.2 3.1280997298e-24 -7.4573134328 1.15 0 
-7.4573134328 1.1 0 -7.4573134328 1.05 2.9274430978e-25 -7.4573134328 1 -4.959852008e-27 
-7.4573134328 0.95 -1.5848905839e-25 -7.4573134328 0.9 -1.2601559923e-27 -7.4573134328 0.85 -4.0874334766e-27 
-7.4573134328 0.8 -3.3874821258e-26 -7.4573134328 0.75 1.0016561344e-26 -7.4573134328 0.7 -1.324861815e-25 
-7.4573134328 0.65 5.8355048691e-26 -7.4573134328 0.6 4.7359215141e-25 -7.4573134328 0.55 -6.2835034146e-25 
-7.4573134328 0.5 -4.0874334766e-27 -7.4573134328 0.45 -2.1840723497e-27 -7.4573134328 0.4 4.0258406962e-27 
-7.4573134328 0.35 1.3102412642e-26 -7.4573134328 0.3 -1.9865662309e-26 -7.4573134328 0.25 0 
-7.4573134328 0.2 0 -7.4573134328 0.15 -1.2905422833e-23 -7.4573134328 0.1 0 
-7.4573134328 0.05 6.2433866229e-23 -7.4573134328 0 0 -7.4072636816 1.5 -1.0023145493e-22 
-7.4072636816 1.45 -2.0720417941e-21 -7.4072636816 1.4 -6.9012573326e-24 -7.4072636816 1.35 0 
-7.4072636816 1.3 0 -7.4072636816 1.25 1.2760715076e-25 -7.4072636816 1.2 1.5180176617e-24 
-7.4072636816 1.15 1.461702558e-26 -7.4072636816 1.1 0 -7.4072636816 1.05 -9.3057976684e-26 
-7.4072636816 1 -2.3320996333e-25 -7.4072636816 0.95 -5.815789756e-25 -7.4072636816 0.9 -1.8878131715e-25 
-7.4072636816 0.85 0 -7.4072636816 0.8 0 -7.4072636816 0.75 -4.5568446652e-25 
-7.4072636816 0.7 -5.1787633744e-25 -7.4072636816 0.65 -2.7359964168e-25 -7.4072636816 0.6 2.4136875725e-25 
-7.4072636816 0.55 0 -7.4072636816 0.5 0 -7.4072636816 0.45 4.4069172128e-25 
-7.4072636816 0.4 0 -7.4072636816 0.35 1.1133415823e-26 -7.4072636816 0.3 -1.9209330036e-26 
-7.4072636816 0.25 6.8090331819e-25 -7.4072636816 0.2 0 -7.4072636816 0.15 -1.2376519995e-23 
-7.4072636816 0.1 -2.8284251192e-23 -7.4072636816 0.05 -6.1527723795e-23 -7.4072636816 0 -7.6474960831e-24 
-7.3572139303 1.5 0 -7.3572139303 1.45 0 -7.3572139303 1.4 -5.5839331112e-22 
-7.3572139303 1.35 5.6239592824e-22 -7.3572139303 1.3 0 -7.3572139303 1.25 0 
-7.3572139303 1.2 3.2654246361e-24 -7.3572139303 1.15 0 -7.3572139303 1.1 4.1601319394e-28 
-7.3572139303 1.05 5.2312719284e-25 -7.3572139303 1 -5.5887195957e-26 -7.3572139303 0.95 -1.4233318705e-25 
-7.3572139303 0.9 3.7886726233e-25 -7.3572139303 0.85 -3.1754363145e-26 -7.3572139303 0.8 -2.6737947344e-27 
-7.3572139303 0.75 4.5939216208e-25 -7.3572139303 0.7 -3.084842049e-25 -7.3572139303 0.65 -2.5721354622e-25 
-7.3572139303 0.6 -1.1934333974e-25 -7.3572139303 0.55 -4.1347725265e-25 -7.3572139303 0.5 1.127599257e-25 
-7.3572139303 0.45 1.9036865321e-25 -7.3572139303 0.4 -1.8713343603e-25 -7.3572139303 0.35 -2.0437167383e-27 
-7.3572139303 0.3 -1.9613226819e-26 -7.3572139303 0.25 -1.308140922e-25 -7.3572139303 0.2 -5.5894063977e-25 
-7.3572139303 0.15 -2.0553822161e-24 -7.3572139303 0.1 5.0826670999e-24 -7.3572139303 0.05 1.517801356e-23 
-7.3572139303 0 0 -7.3071641791 1.5 0 -7.3071641791 1.45 0 
-7.3071641791 1.4 0 -7.3071641791 1.35 0 -7.3071641791 1.3 -3.9066837495e-23 
-7.3071641791 1.25 0 -7.3071641791 1.2 6.3773684946e-24 -7.3071641791 1.15 0 
-7.3071641791 1.1 0 -7.3071641791 1.05 0 -7.3071641791 1 -2.1555969362e-26 
-7.3071641791 0.95 0 -7.3071641791 0.9 -5.7990284339e-25 -7.3071641791 0.85 -2.6395458452e-25 
-7.3071641791 0.8 5.1136572048e-25 -7.3071641791 0.75 1.2137906926e-24 -7.3071641791 0.7 1.17049702e-26 
-7.3071641791 0.65 1.6861887058e-25 -7.3071641791 0.6 5.1213308492e-25 -7.3071641791 0.55 -7.8758664834e-25 
-7.3071641791 0.5 1.4895715347e-26 -7.3071641791 0.45 1.2493737428e-25 -7.3071641791 0.4 -2.8265502532e-25 
-7.3071641791 0.35 9.1644190031e-27 -7.3071641791 0.3 -1.2864102693e-27 -7.3071641791 0.25 1.3549667193e-24 
-7.3071641791 0.2 -5.3521170374e-25 -7.3071641791 0.15 -1.2365008936e-23 -7.3071641791 0.1 0 
-7.3071641791 0.05 -2.9927391659e-23 -7.3071641791 0 0 -7.2571144279 1.5 -2.082869964e-22 
-7.2571144279 1.45 5.4483505145e-23 -7.2571144279 1.4 -1.4333638935e-23 -7.2571144279 1.35 0 
-7.2571144279 1.3 0 -7.2571144279 1.25 1.2629448621e-25 -7.2571144279 1.2 2.6781849426e-24 
-7.2571144279 1.15 2.8601951708e-26 -7.2571144279 1.1 -4.049106423e-25 -7.2571144279 1.05 -3.7835645024e-25 
-7.2571144279 1 0 -7.2571144279 0.95 4.2166834055e-27 -7.2571144279 0.9 1.1010230262e-25 
-7.2571144279 0.85 6.2902881114e-25 -7.2571144279 0.8 4.4405019798e-25 -7.2571144279 0.75 1.5248311519e-25 
-7.2571144279 0.7 -9.0165913998e-25 -7.2571144279 0.65 -2.5542428643e-25 -7.2571144279 0.6 2.130959824e-25 
-7.2571144279 0.55 -7.5738732725e-25 -7.2571144279 0.5 0 -7.2571144279 0.45 9.0351690741e-26 
-7.2571144279 0.4 0 -7.2571144279 0.35 1.3910206209e-26 -7.2571144279 0.3 3.3168001887e-25 
-7.2571144279 0.25 1.2918315186e-24 -7.2571144279 0.2 0 -7.2571144279 0.15 -1.199786676e-23 
-7.2571144279 0.1 -6.5936964006e-23 -7.2571144279 0.05 -5.897812535e-23 -7.2571144279 0 -7.3155939013e-24 
-7.2070646766 1.5 -2.1103965395e-22 -7.2070646766 1.45 5.5237378492e-23 -7.2070646766 1.4 -1.4511151572e-23 
-7.2070646766 1.35 0 -7.2070646766 1.3 -4.0355268235e-23 -7.2070646766 1.25 1.2472938617e-25 
-7.2070646766 1.2 -3.0690540826e-24 -7.2070646766 1.15 3.2574285448e-27 -7.2070646766 1.1 0 
-7.2070646766 1.05 0 -7.2070646766 1 1.7472578797e-25 -7.2070646766 0.95 9.304328415e-25 
-7.2070646766 0.9 -1.7206042419e-26 -7.2070646766 0.85 -1.7464492973e-25 -7.2070646766 0.8 0 
-7.2070646766 0.75 -3.7510705822e-25 -7.2070646766 0.7 -3.0389190044e-25 -7.2070646766 0.65 -5.0180132434e-25 
-7.2070646766 0.6 -6.3201760789e-25 -7.2070646766 0.55 -4.9582373083e-25 -7.2070646766 0.5 -4.2918076156e-25 
-7.2070646766 0.45 1.6608233764e-25 -7.2070646766 0.4 0 -7.2070646766 0.35 1.2068437862e-25 
-7.2070646766 0.3 5.7401808895e-25 -7.2070646766 0.25 5.2732156627e-25 -7.2070646766 0.2 -2.5932597274e-24 
-7.2070646766 0.15 -1.9887392469e-24 -7.2070646766 0.1 -7.6065352695e-24 -7.2070646766 0.05 -5.8180227254e-23 
-7.2070646766 0 0 -7.1570149254 1.5 -2.1388056295e-22 -7.1570149254 1.45 -2.1818669841e-21 
-7.1570149254 1.4 -6.0324539259e-22 -7.1570149254 1.35 0 -7.1570149254 1.3 0 
-7.1570149254 1.25 1.3361511541e-25 -7.1570149254 1.2 -3.2941820674e-26 -7.1570149254 1.15 1.3102412642e-26 
-7.1570149254 1.1 0 -7.1570149254 1.05 1.2398014088e-24 -7.1570149254 1 0 
-7.1570149254 0.95 2.8673242547e-25 -7.1570149254 0.9 -3.1810914611e-25 -7.1570149254 0.85 0 
-7.1570149254 0.8 -6.7951590907e-25 -7.1570149254 0.75 8.8110093175e-27 -7.1570149254 0.7 -1.3021628355e-25 
-7.1570149254 0.65 -7.9260700844e-25 -7.1570149254 0.6 0 -7.1570149254 0.55 3.1600880395e-25 
-7.1570149254 0.5 -1.1607989613e-25 -7.1570149254 0.45 -1.7722992831e-25 -7.1570149254 0.4 0 
-7.1570149254 0.35 -1.1854360734e-27 -7.1570149254 0.3 -9.4835369051e-25 -7.1570149254 0.25 -8.6789342805e-26 
-7.1570149254 0.2 0 -7.1570149254 0.15 -1.1998472605e-23 -7.1570149254 0.1 -2.6203376541e-23 
-7.1570149254 0.05 0 -7.1570149254 0 -7.1139989192e-24 -7.1069651741 1.5 0 
-7.1069651741 1.45 2.268851811e-21 -7.1069651741 1.4 0 -7.1069651741 1.35 -1.5653229365e-22 
-7.1069651741 1.3 -4.0351229267e-23 -7.1069651741 1.25 0 -7.1069651741 1.2 2.6555404931e-24 
-7.1069651741 1.15 -6.8872487406e-25 -7.1069651741 1.1 0 -7.1069651741 1.05 9.47057099e-25 
-7.1069651741 1 -1.0145885229e-26 -7.1069651741 0.95 0 -7.1069651741 0.9 6.9891503411e-25 
-7.1069651741 0.85 -1.9242442472e-25 -7.1069651741 0.8 9.3622465827e-25 -7.1069651741 0.75 -9.9261677451e-25 
-7.1069651741 0.7 -3.1382365924e-27 -7.1069651741 0.65 1.3825428313e-26 -7.1069651741 0.6 1.701617346e-26 
-7.1069651741 0.55 -9.8429626411e-27 -7.1069651741 0.5 -6.813736765e-27 -7.1069651741 0.45 8.7677896007e-26 
-7.1069651741 0.4 2.1729666672e-27 -7.1069651741 0.35 2.5394608435e-25 -7.1069651741 0.3 -1.0828471779e-26 
-7.1069651741 0.25 -1.5494692502e-25 -7.1069651741 0.2 -4.947210512e-25 -7.1069651741 0.15 8.6212612514e-24 
-7.1069651741 0.1 -1.8500107203e-23 -7.1069651741 0.05 -5.6426305472e-23 -7.1069651741 0 -7.0075721168e-24 
-7.0569154229 1.5 0 -7.0569154229 1.45 0 -7.0569154229 1.4 0 
-7.0569154229 1.35 0 -7.0569154229 1.3 0 -7.0569154229 1.25 0 
-7.0569154229 1.2 2.4697479727e-24 -7.0569154229 1.15 0 -7.0569154229 1.1 0 
-7.0569154229 1.05 0 -7.0569154229 1 -2.9835853423e-26 -7.0569154229 0.95 0 
-7.0569154229 0.9 1.3704140949e-26 -7.0569154229 0.85 -2.4181298454e-26 -7.0569154229 0.8 7.2531865234e-26 
-7.0569154229 0.75 0 -7.0569154229 0.7 2.1526894907e-25 -7.0569154229 0.65 -9.2519421344e-25 
-7.0569154229 0.6 -4.5055489848e-25 -7.0569154229 0.55 7.7661236055e-26 -7.0569154229 0.5 -1.3881930476e-26 
-7.0569154229 0.45 7.0411308514e-26 -7.0569154229 0.4 -4.6932786518e-27 -7.0569154229 0.35 -7.4724923203e-26 
-7.0569154229 0.3 -5.4652687805e-25 -7.0569154229 0.25 5.8730023862e-25 -7.0569154229 0.2 2.0483544516e-24 
-7.0569154229 0.15 1.7050772505e-23 -7.0569154229 0.1 3.6345901617e-23 -7.0569154229 0.05 -2.7794008849e-23 
-7.0569154229 0 6.8951121061e-24 -7.0068656716 1.5 0 -7.0068656716 1.45 -2.3500350644e-21 
-7.0068656716 1.4 0 -7.0068656716 1.35 0 -7.0068656716 1.3 0 
-7.0068656716 1.25 0 -7.0068656716 1.2 2.2476047418e-24 -7.0068656716 1.15 0 
-7.0068656716 1.1 0 -7.0068656716 1.05 4.0987437698e-25 -7.0068656716 1 -7.9474728669e-26 
-7.0068656716 0.95 -4.5397959019e-26 -7.0068656716 0.9 -9.0863444532e-25 -7.0068656716 0.85 4.6711870952e-25 
-7.0068656716 0.8 -6.8093758433e-25 -7.0068656716 0.75 -1.3635559354e-25 -7.0068656716 0.7 -2.1518404792e-25 
-7.0068656716 0.65 6.8957339258e-26 -7.0068656716 0.6 8.1680087937e-26 -7.0068656716 0.55 -1.5014857995e-27 
-7.0068656716 0.5 4.2934247805e-27 -7.0068656716 0.45 6.8177796772e-27 -7.0068656716 0.4 1.6974970269e-25 
-7.0068656716 0.35 5.9924166988e-26 -7.0068656716 0.3 5.3564789452e-25 -7.0068656716 0.25 -1.0789294974e-25 
-7.0068656716 0.2 -5.3511072955e-25 -7.0068656716 0.15 -1.10824347e-23 -7.0068656716 0.1 0 
-7.0068656716 0.05 -2.7117279788e-23 -7.0068656716 0 -6.8399454853e-24 -6.9568159204 1.5 0 
-6.9568159204 1.45 0 -6.9568159204 1.4 0 -6.9568159204 1.35 0 
-6.9568159204 1.3 -4.4119586257e-23 -6.9568159204 1.25 0 -6.9568159204 1.2 2.6393846218e-24 
-6.9568159204 1.15 -1.5945837123e-25 -6.9568159204 1.1 0 -6.9568159204 1.05 7.612645786e-25 
-6.9568159204 1 1.1462592687e-26 -6.9568159204 0.95 -4.9889338583e-25 -6.9568159204 0.9 -3.1451440557e-26 
-6.9568159204 0.85 -8.3223740817e-25 -6.9568159204 0.8 1.11596701e-26 -6.9568159204 0.75 0 
-6.9568159204 0.7 -5.5657780415e-25 -6.9568159204 0.65 -8.3435786628e-25 -6.9568159204 0.6 -9.13614327e-27 
-6.9568159204 0.55 -5.3050634566e-25 -6.9568159204 0.5 -2.4342817725e-26 -6.9568159204 0.45 2.6548176993e-26 
-6.9568159204 0.4 -8.6805514453e-26 -6.9568159204 0.35 4.7922560435e-27 -6.9568159204 0.3 -4.5640740824e-25 
-6.9568159204 0.25 -9.7189684979e-26 -6.9568159204 0.2 -5.3561560053e-25 -6.9568159204 0.15 -1.1126661398e-23 
-6.9568159204 0.1 -3.5157810829e-23 -6.9568159204 0.05 8.0618769858e-23 -6.9568159204 0 -4.991975706e-24 
-6.9067661692 1.5 -1.1470984195e-22 -6.9067661692 1.45 3.0021471211e-23 -6.9067661692 1.4 -7.8868159714e-24 
-6.9067661692 1.35 0 -6.9067661692 1.3 -4.4091313482e-23 -6.9067661692 1.25 1.3285780894e-25 
-6.9067661692 1.2 3.1847219962e-24 -6.9067661692 1.15 -8.4555781759e-27 -6.9067661692 1.1 0 
-6.9067661692 1.05 4.019581578e-25 -6.9067661692 1 0 -6.9067661692 0.95 -8.4293238989e-27 
-6.9067661692 0.9 -5.9615204684e-26 -6.9067661692 0.85 0 -6.9067661692 0.8 0 
-6.9067661692 0.75 -6.5118249055e-27 -6.9067661692 0.7 -4.906941628e-25 -6.9067661692 0.65 1.9225526336e-26 
-6.9067661692 0.6 -4.1395278786e-25 -6.9067661692 0.55 8.8816863243e-26 -6.9067661692 0.5 0 
-6.9067661692 0.45 -3.6247714861e-25 -6.9067661692 0.4 -5.2912999292e-27 -6.9067661692 0.35 -2.9987314717e-25 
-6.9067661692 0.3 -4.6648057035e-25 -6.9067661692 0.25 -1.3439867616e-25 -6.9067661692 0.2 -1.2102933764e-24 
-6.9067661692 0.15 -1.078382166e-23 -6.9067661692 0.1 -6.9334917669e-24 -6.9067661692 0.05 0 
-6.9067661692 0 6.5368805083e-24 -6.8567164179 1.5 0 -6.8567164179 1.45 0 
-6.8567164179 1.4 -6.3941500588e-22 -6.8567164179 1.35 0 -6.8567164179 1.3 0 
-6.8567164179 1.25 -1.1444495824e-23 -6.8567164179 1.2 2.4010855195e-24 -6.8567164179 1.15 4.9889338583e-25 
-6.8567164179 1.1 0 -6.8567164179 1.05 3.5736779513e-25 -6.8567164179 1 -3.0776915179e-27 
-6.8567164179 0.95 -1.0137000683e-24 -6.8567164179 0.9 1.2178695965e-25 -6.8567164179 0.85 3.9905021929e-27 
-6.8567164179 0.8 3.7006239134e-25 -6.8567164179 0.75 3.4290797474e-26 -6.8567164179 0.7 -2.6150295274e-26 
-6.8567164179 0.65 -1.6135656778e-27 -6.8567164179 0.6 -9.2726418446e-25 -6.8567164179 0.55 4.0250296486e-26 
-6.8567164179 0.5 6.161447404e-27 -6.8567164179 0.45 3.6351918456e-25 -6.8567164179 0.4 -9.943936837e-27 
-6.8567164179 0.35 1.3481065876e-26 -6.8567164179 0.3 5.1444331339e-25 -6.8567164179 0.25 1.1189900235e-24 
-6.8567164179 0.2 -4.8903824515e-25 -6.8567164179 0.15 -1.7712913161e-24 -6.8567164179 0.1 0 
-6.8567164179 0.05 5.1804309475e-23 -6.8567164179 0 -2.4067201557e-24 -6.8066666667 1.5 0 
-6.8066666667 1.45 -9.5273863238e-21 -6.8066666667 1.4 0 -6.8066666667 1.35 0 
-6.8066666667 1.3 9.0892774381e-23 -6.8066666667 1.25 0 -6.8066666667 1.2 6.098679714e-24 
-6.8066666667 1.15 0 -6.8066666667 1.1 -4.0308820105e-26 -6.8066666667 1.05 0 
-6.8066666667 1 -1.4432439524e-25 -6.8066666667 0.95 -8.8897721485e-26 -6.8066666667 0.9 5.3413540165e-25 
-6.8066666667 0.85 -2.8270753387e-26 -6.8066666667 0.8 -2.4003375808e-25 -6.8066666667 0.75 0 
-6.8066666667 0.7 -3.010626015e-25 -6.8066666667 0.65 -2.4593069056e-25 -6.8066666667 0.6 2.7395255833e-25 
-6.8066666667 0.55 1.3998778525e-24 -6.8066666667 0.5 2.4254021569e-27 -6.8066666667 0.45 -7.4772065346e-27 
-6.8066666667 0.4 -8.6817593886e-27 -6.8066666667 0.35 1.0359962357e-27 -6.8066666667 0.3 -9.3138588408e-27 
-6.8066666667 0.25 5.0882632792e-25 -6.8066666667 0.2 -6.4077677426e-25 -6.8066666667 0.15 -1.0619568987e-23 
-6.8066666667 0.1 -3.3199040802e-23 -6.8066666667 0.05 -5.083364453e-23 -6.8066666667 0 -7.8562978026e-25 
-6.7566169154 1.5 0 -6.7566169154 1.45 2.5105537436e-21 -6.7566169154 1.4 0 
-6.7566169154 1.35 0 -6.7566169154 1.3 4.6225907982e-23 -6.7566169154 1.25 0 
-6.7566169154 1.2 2.9301903059e-24 -6.7566169154 1.15 0 -6.7566169154 1.1 0 
-6.7566169154 1.05 1.9378959782e-25 -6.7566169154 1 -6.7127625692e-27 -6.7566169154 0.95 4.1205557739e-25 
-6.7566169154 0.9 -4.5055489848e-25 -6.7566169154 0.85 1.3152109893e-24 -6.7566169154 0.8 -1.6082846485e-24 
-6.7566169154 0.75 2.4330738292e-25 -6.7566169154 0.7 -1.1177015179e-24 -6.7566169154 0.65 -2.840989366e-25 
-6.7566169154 0.6 -4.8978337358e-25 -6.7566169154 0.55 7.4913963858e-25 -6.7566169154 0.5 -5.2586947056e-27 
-6.7566169154 0.45 -7.0576727715e-25 -6.7566169154 0.4 2.7416515634e-26 -6.7566169154 0.35 2.2903070152e-25 
-6.7566169154 0.3 -2.4118088509e-25 -6.7566169154 0.25 -1.2541197272e-25 -6.7566169154 0.2 -4.8327039003e-24 
-6.7566169154 0.15 -1.040691733e-23 -6.7566169154 0.1 0 -6.7566169154 0.05 -5.0280305936e-23 
-6.7566169154 0 0 -6.7065671642 1.5 0 -6.7065671642 1.45 2.5301851468e-21 
-6.7065671642 1.4 0 -6.7065671642 1.35 1.7446531084e-22 -6.7065671642 1.3 0 
-6.7065671642 1.25 0 -6.7065671642 1.2 4.1580365276e-24 -6.7065671642 1.15 0 
-6.7065671642 1.1 0 -6.7065671642 1.05 -1.4380342657e-24 -6.7065671642 1 -1.7668462821e-26 
-6.7065671642 0.95 0 -6.7065671642 0.9 -3.0424328867e-25 -6.7065671642 0.85 1.1026796341e-27 
-6.7065671642 0.8 8.9091633357e-26 -6.7065671642 0.75 4.0179644131e-25 -6.7065671642 0.7 -1.7383511471e-25 
-6.7065671642 0.65 -1.3740527159e-26 -6.7065671642 0.6 7.2250276404e-25 -6.7065671642 0.55 1.4576833117e-25 
-6.7065671642 0.5 5.2508554004e-29 -6.7065671642 0.45 -2.6826842108e-26 -6.7065671642 0.4 -5.83265363e-25 
-6.7065671642 0.35 5.7996649461e-25 -6.7065671642 0.3 6.1137854142e-25 -6.7065671642 0.25 8.2018213442e-25 
-6.7065671642 0.2 -4.4478931134e-25 -6.7065671642 0.15 -1.0142162989e-23 -6.7065671642 0.1 1.2888140468e-23 
-6.7065671642 0.05 -2.4670824906e-23 -6.7065671642 0 0 -6.6565174129 1.5 0 
-6.6565174129 1.45 0 -6.6565174129 1.4 0 -6.6565174129 1.35 0 
-6.6565174129 1.3 0 -6.6565174129 1.25 0 -6.6565174129 1.2 0 
-6.6565174129 1.15 0 -6.6565174129 1.1 0 -6.6565174129 1.05 -4.8257579801e-25 
-6.6565174129 1 -8.0577211088e-28 -6.6565174129 0.95 0 -6.6565174129 0.9 1.6173358413e-24 
-6.6565174129 0.85 4.7862976785e-25 -6.6565174129 0.8 -5.5657780415e-25 -6.6565174129 0.75 0 
-6.6565174129 0.7 7.9559629824e-26 -6.6565174129 0.65 -1.4800756215e-26 -6.6565174129 0.6 4.8562735851e-25 
-6.6565174129 0.55 -4.6427915539e-27 -6.6565174129 0.5 -6.1794186415e-26 -6.6565174129 0.45 -2.9161722476e-27 
-6.6565174129 0.4 6.8177796772e-27 -6.6565174129 0.35 -8.5060652739e-27 -6.6565174129 0.3 -3.668180283e-25 
-6.6565174129 0.25 -1.3530744392e-25 -6.6565174129 0.2 -4.3029951424e-25 -6.6565174129 0.15 -9.8716531178e-24 
-6.6565174129 0.1 0 -6.6565174129 0.05 1.2046298087e-23 -6.6565174129 0 0 
-6.6064676617 1.5 0 -6.6064676617 1.45 -2.6109483476e-21 -6.6064676617 1.4 0 
-6.6064676617 1.35 0 -6.6064676617 1.3 0 -6.6064676617 1.25 0 
-6.6064676617 1.2 0 -6.6064676617 1.15 7.4527042375e-25 -6.6064676617 1.1 0 
-6.6064676617 1.05 -4.9283493408e-25 -6.6064676617 1 -3.5320753993e-27 -6.6064676617 0.95 0 
-6.6064676617 0.9 9.3968568688e-26 -6.6064676617 0.85 4.6375638713e-25 -6.6064676617 0.8 -1.1022137131e-25 
-6.6064676617 0.75 6.0778380088e-25 -6.6064676617 0.7 2.6403948568e-25 -6.6064676617 0.65 -1.2824526527e-25 
-6.6064676617 0.6 3.1827086259e-27 -6.6064676617 0.55 -4.3554011445e-25 -6.6064676617 0.5 -5.7354146905e-25 
-6.6064676617 0.45 -9.8831501738e-26 -6.6064676617 0.4 2.166098647e-26 -6.6064676617 0.35 1.8437898026e-27 
-6.6064676617 0.3 3.4177743845e-25 -6.6064676617 0.25 -9.5826533335e-26 -6.6064676617 0.2 -4.1222513318e-25 
-6.6064676617 0.15 -9.6417348738e-24 -6.6064676617 0.1 0 -6.6064676617 0.05 4.6503871011e-23 
-6.6064676617 0 0 -6.5564179104 1.5 -2.5344184899e-22 -6.5564179104 1.45 2.7189980073e-21 
-6.5564179104 1.4 -7.1404266115e-22 -6.5564179104 1.35 0 -6.5564179104 1.3 0 
-6.5564179104 1.25 3.2165532239e-25 -6.5564179104 1.2 2.9041914226e-24 -6.5564179104 1.15 2.1580128227e-26 
-6.5564179104 1.1 0 -6.5564179104 1.05 1.8094497014e-26 -6.5564179104 1 0 
-6.5564179104 0.95 8.9119835134e-27 -6.5564179104 0.9 -7.3751592105e-26 -6.5564179104 0.85 0 
-6.5564179104 0.8 -2.7052998668e-25 -6.5564179104 0.75 1.9540528357e-26 -6.5564179104 0.7 2.5283978088e-26 
-6.5564179104 0.65 -7.4680475821e-26 -6.5564179104 0.6 7.779055994e-26 -6.5564179104 0.55 -2.595441125e-25 
-6.5564179104 0.5 0 -6.5564179104 0.45 0 -6.5564179104 0.4 1.7185827858e-26 
-6.5564179104 0.35 -1.6558757394e-26 -6.5564179104 0.3 -2.1355031698e-26 -6.5564179104 0.25 5.5117672005e-25 
-6.5564179104 0.2 0 -6.5564179104 0.15 -9.632041351e-24 -6.5564179104 0.1 -6.0247748856e-24 
-6.5564179104 0.05 2.2930332692e-23 -6.5564179104 0 0 -6.5063681592 1.5 0 
-6.5063681592 1.45 2.6956818538e-21 -6.5063681592 1.4 0 -6.5063681592 1.35 0 
-6.5063681592 1.3 -4.8507924809e-23 -6.5063681592 1.25 0 -6.5063681592 1.2 3.2129180543e-24 
-6.5063681592 1.15 0 -6.5063681592 1.1 0 -6.5063681592 1.05 0 
-6.5063681592 1 -6.5431081707e-28 -6.5063681592 0.95 0 -6.5063681592 0.9 1.0739813674e-25 
-6.5063681592 0.85 8.1809313214e-27 -6.5063681592 0.8 6.3656193974e-26 -6.5063681592 0.75 0 
-6.5063681592 0.7 -3.4665245094e-25 -6.5063681592 0.65 -3.084842049e-25 -6.5063681592 0.6 -5.1908773197e-26 
-6.5063681592 0.55 -4.0168304256e-27 -6.5063681592 0.5 -2.0174624613e-27 -6.5063681592 0.45 -1.1660296021e-25 
-6.5063681592 0.4 -1.7366353746e-25 -6.5063681592 0.35 1.267327231e-26 -6.5063681592 0.3 -9.2128846449e-27 
-6.5063681592 0.25 9.4344638403e-25 -6.5063681592 0.2 -4.6594321802e-24 -6.5063681592 0.15 -1.6849586153e-23 
-6.5063681592 0.1 0 -6.5063681592 0.05 1.116317777e-23 -6.5063681592 0 0 
-6.456318408 1.5 -2.6184936444e-22 -6.456318408 1.45 6.8528914816e-23 -6.456318408 1.4 -1.800379852e-23 
-6.456318408 1.35 1.8850678251e-22 -6.456318408 1.3 -5.025073943e-23 -6.456318408 1.25 3.0418678651e-25 
-6.456318408 1.2 3.3728126656e-24 -6.456318408 1.15 2.7315541438e-26 -6.456318408 1.1 0 
-6.456318408 1.05 -6.6723827516e-26 -6.456318408 1 0 -6.456318408 0.95 1.4493941092e-25 
-6.456318408 0.9 -2.2109305983e-25 -6.456318408 0.85 -7.1176700807e-27 -6.456318408 0.8 -1.5339991948e-25 
-6.456318408 0.75 1.0561489201e-25 -6.456318408 0.7 -7.0641507986e-26 -6.456318408 0.65 9.293668932e-26 
-6.456318408 0.6 4.4469075303e-26 -6.456318408 0.55 0 -6.456318408 0.5 0 
-6.456318408 0.45 -6.5148570896e-26 -6.456318408 0.4 8.7827335845e-26 -6.456318408 0.35 -9.8995141072e-26 
-6.456318408 0.3 -1.8982138095e-26 -6.456318408 0.25 3.8055559723e-25 -6.456318408 0.2 3.9889654918e-24 
-6.456318408 0.15 -1.6632441144e-23 -6.456318408 0.1 -5.6801499551e-24 -6.456318408 0.05 0 
-6.456318408 0 0 -6.4062686567 1.5 0 -6.4062686567 1.45 -2.7865828639e-21 
-6.4062686567 1.4 0 -6.4062686567 1.35 0 -6.4062686567 1.3 -5.0882837896e-23 
-6.4062686567 1.25 0 -6.4062686567 1.2 4.2307379486e-24 -6.4062686567 1.15 0 
-6.4062686567 1.1 0 -6.4062686567 1.05 -2.8482809059e-25 -6.4062686567 1 -8.5625920881e-28 
-6.4062686567 0.95 0 -6.4062686567 0.9 -3.4665245094e-25 -6.4062686567 0.85 7.2531865234e-26 
-6.4062686567 0.8 -1.645677247e-26 -6.4062686567 0.75 -8.9826605201e-26 -6.4062686567 0.7 -3.3923084754e-25 
-6.4062686567 0.65 -4.0415434656e-25 -6.4062686567 0.6 -5.9050513396e-25 -6.4062686567 0.55 4.0159651438e-25 
-6.4062686567 0.5 2.5555765322e-25 -6.4062686567 0.45 3.9028548159e-26 -6.4062686567 0.4 5.7070635226e-27 
-6.4062686567 0.35 3.3079156427e-27 -6.4062686567 0.3 8.3283497031e-26 -6.4062686567 0.25 -9.0929284835e-26 
-6.4062686567 0.2 -2.3212835615e-24 -6.4062686567 0.15 -8.6572364641e-24 -6.4062686567 0.1 -2.7515963779e-23 
-6.4062686567 0.05 -2.1011721996e-23 -6.4062686567 0 0 -6.3562189055 1.5 0 
-6.3562189055 1.45 -2.8344951198e-21 -6.3562189055 1.4 0 -6.3562189055 1.35 0 
-6.3562189055 1.3 5.1304910035e-23 -6.3562189055 1.25 0 -6.3562189055 1.2 4.1539975598e-24 
-6.3562189055 1.15 1.1734010142e-24 -6.3562189055 1.1 0 -6.3562189055 1.05 0 
-6.3562189055 1 -8.3546039801e-27 -6.3562189055 0.95 0 -6.3562189055 0.9 6.4038249172e-27 
-6.3562189055 0.85 1.9205311776e-27 -6.3562189055 0.8 8.698123322e-26 -6.3562189055 0.75 2.0493718849e-25 
-6.3562189055 0.7 -1.8231694716e-25 -6.3562189055 0.65 -4.9932543509e-25 -6.3562189055 0.6 -1.6959419848e-25 
-6.3562189055 0.55 -1.7517001527e-26 -6.3562189055 0.5 -1.499264663e-26 -6.3562189055 0.45 1.7218323997e-25 
-6.3562189055 0.4 -2.1184366572e-27 -6.3562189055 0.35 9.2906367479e-27 -6.3562189055 0.3 -6.3129086978e-26 
-6.3562189055 0.25 -1.0818598199e-24 -6.3562189055 0.2 -3.9283808757e-25 -6.3562189055 0.15 -8.3658249348e-24 
-6.3562189055 0.1 0 -6.3562189055 0.05 1.0169389734e-23 -6.3562189055 0 0 
-6.3061691542 1.5 -1.3899562543e-22 -6.3061691542 1.45 -5.7844069767e-21 -6.3061691542 1.4 -9.5568786839e-24 
-6.3061691542 1.35 0 -6.3061691542 1.3 0 -6.3061691542 1.25 1.6817353395e-25 
-6.3061691542 1.2 4.1200209262e-24 -6.3061691542 1.15 7.9022415547e-27 -6.3061691542 1.1 1.0379338753e-24 
-6.3061691542 1.05 6.7038780232e-25 -6.3061691542 1 0 -6.3061691542 0.95 -3.725533429e-25 
-6.3061691542 0.9 0 -6.3061691542 0.85 0 -6.3061691542 0.8 -3.3313398812e-25 
-6.3061691542 0.75 -2.428227265e-26 -6.3061691542 0.7 -2.4532686684e-25 -6.3061691542 0.65 1.5186558502e-26 
-6.3061691542 0.6 0 -6.3061691542 0.55 6.656211103e-26 -6.3061691542 0.5 0 
-6.3061691542 0.45 1.9532442532e-25 -6.3061691542 0.4 0 -6.3061691542 0.35 -1.538845759e-27 
-6.3061691542 0.3 -2.6980706962e-25 -6.3061691542 0.25 -5.2003732328e-26 -6.3061691542 0.2 0 
-6.3061691542 0.15 6.0605808877e-24 -6.3061691542 0.1 -5.1235297004e-24 -6.3061691542 0.05 0 
-6.3061691542 0 0 -6.256119403 1.5 -1.4022690477e-22 -6.256119403 1.45 2.9728190649e-21 
-6.256119403 1.4 -9.6389202181e-24 -6.256119403 1.35 0 -6.256119403 1.3 5.3885813636e-23 
-6.256119403 1.25 1.7150568241e-25 -6.256119403 1.2 3.8029367076e-24 -6.256119403 1.15 6.3623850677e-27 
-6.256119403 1.1 0 -6.256119403 1.05 2.0112442652e-24 -6.256119403 1 7.3797962335e-26 
-6.256119403 0.95 -1.4083878868e-26 -6.256119403 0.9 0 -6.256119403 0.85 2.5045643487e-25 
-6.256119403 0.8 2.17054092e-25 -6.256119403 0.75 -7.5710432341e-27 -6.256119403 0.7 -6.4013597268e-25 
-6.256119403 0.65 -5.2502538939e-25 -6.256119403 0.6 -1.1097054265e-27 -6.256119403 0.55 0 
-6.256119403 0.5 -2.8478766147e-25 -6.256119403 0.45 -4.6932786518e-26 -6.256119403 0.4 0 
-6.256119403 0.35 7.0692044388e-27 -6.256119403 0.3 -6.306240358e-26 -6.256119403 0.25 -1.0688320778e-25 
-6.256119403 0.2 1.6261793665e-24 -6.256119403 0.15 -7.828743187e-24 -6.256119403 0.1 -4.9424324801e-24 
-6.256119403 0.05 0 -6.256119403 0 0 -6.2060696517 1.5 -1.4276196293e-22 
-6.2060696517 1.45 -2.9509632002e-21 -6.2060696517 1.4 -9.8092131994e-24 -6.2060696517 1.35 0 
-6.2060696517 1.3 5.4281632484e-23 -6.2060696517 1.25 1.7607476477e-25 -6.2060696517 1.2 4.4849669136e-24 
-6.2060696517 1.15 1.045184e-26 -6.2060696517 1.1 2.8668585802e-25 -6.2060696517 1.05 -3.1915931719e-25 
-6.2060696517 1 0 -6.2060696517 0.95 -1.3478033692e-26 -6.2060696517 0.9 0 
-6.2060696517 0.85 5.6553635511e-25 -6.2060696517 0.8 -2.5639359926e-25 -6.2060696517 0.75 4.6066641896e-25 
-6.2060696517 0.7 8.6878237568e-26 -6.2060696517 0.65 3.2416759786e-25 -6.2060696517 0.6 3.4371655717e-26 
-6.2060696517 0.55 -1.6159914251e-25 -6.2060696517 0.5 0 -6.2060696517 0.45 5.7514862524e-26 
-6.2060696517 0.4 5.8544819043e-26 -6.2060696517 0.35 -1.2879660509e-25 -6.2060696517 0.3 -5.8554926323e-27 
-6.2060696517 0.25 -9.7997478546e-26 -6.2060696517 0.2 0 -6.2060696517 0.15 -7.3873849768e-24 
-6.2060696517 0.1 1.8852884222e-23 -6.2060696517 0.05 -5.3940068334e-23 -6.2060696517 0 0 
-6.1560199005 1.5 0 -6.1560199005 1.45 -3.0433077374e-21 -6.1560199005 1.4 0 
-6.1560199005 1.35 0 -6.1560199005 1.3 2.1228620564e-22 -6.1560199005 1.25 0 
-6.1560199005 1.2 0 -6.1560199005 1.15 0 -6.1560199005 1.1 0 
-6.1560199005 1.05 0 -6.1560199005 1 1.2169412058e-26 -6.1560199005 0.95 -3.0251829639e-26 
-6.1560199005 0.9 -2.892708566e-26 -6.1560199005 0.85 -1.277089286e-24 -6.1560199005 0.8 2.981587059e-25 
-6.1560199005 0.75 0 -6.1560199005 0.7 -4.4313329509e-25 -6.1560199005 0.65 5.5136156002e-25 
-6.1560199005 0.6 3.0022867692e-25 -6.1560199005 0.55 -5.3818038455e-25 -6.1560199005 0.5 2.4488263954e-26 
-6.1560199005 0.45 3.4969365764e-26 -6.1560199005 0.4 2.1257089686e-26 -6.1560199005 0.35 6.6653076553e-27 
-6.1560199005 0.3 -1.9930183736e-25 -6.1560199005 0.25 -1.0929669814e-24 -6.1560199005 0.2 -2.9464068209e-25 
-6.1560199005 0.15 -7.1471673649e-24 -6.1560199005 0.1 2.2378901564e-23 -6.1560199005 0.05 8.549485953e-24 
-6.1560199005 0 0 -6.1059701493 1.5 0 -6.1059701493 1.45 -3.1006348274e-21 
-6.1059701493 1.4 0 -6.1059701493 1.35 0 -6.1059701493 1.3 5.6406129565e-23 
-6.1059701493 1.25 0 -6.1059701493 1.2 6.1915759742e-24 -6.1059701493 1.15 6.0188706562e-25 
-6.1059701493 1.1 0 -6.1059701493 1.05 -2.2222408915e-25 -6.1059701493 1 -7.5528501294e-28 
-6.1059701493 0.95 0 -6.1059701493 0.9 2.5800114988e-25 -6.1059701493 0.85 -8.0577211088e-28 
-6.1059701493 0.8 2.776992532e-26 -6.1059701493 0.75 1.3425525138e-25 -6.1059701493 0.7 -6.2973360905e-25 
-6.1059701493 0.65 1.9406436794e-25 -6.1059701493 0.6 2.5237696605e-25 -6.1059701493 0.55 -4.4225489847e-25 
-6.1059701493 0.5 1.5753996012e-26 -6.1059701493 0.45 -1.3104227022e-25 -6.1059701493 0.4 -1.1086946985e-27 
-6.1059701493 0.35 7.725536712e-27 -6.1059701493 0.3 -9.7682427222e-27 -6.1059701493 0.25 -9.1232207423e-26 
-6.1059701493 0.2 -3.0589930493e-25 -6.1059701493 0.15 -6.4825552077e-24 -6.1059701493 0.1 0 
-6.1059701493 0.05 8.0801326471e-24 -6.1059701493 0 0 -6.055920398 1.5 -1.5090240163e-22 
-6.055920398 1.45 6.3587267963e-21 -6.055920398 1.4 -1.036452079e-23 -6.055920398 1.35 0 
-6.055920398 1.3 0 -6.055920398 1.25 1.9828908786e-25 -6.055920398 1.2 3.767040381e-24 
-6.055920398 1.15 3.5351075834e-27 -6.055920398 1.1 0 -6.055920398 1.05 -9.6298479232e-25 
-6.055920398 1 0 -6.055920398 0.95 9.6955442594e-27 -6.055920398 0.9 5.1456410771e-26 
-6.055920398 0.85 1.1502972505e-25 -6.055920398 0.8 4.2013351305e-25 -6.055920398 0.75 2.4496349778e-27 
-6.055920398 0.7 -5.6339558382e-25 -6.055920398 0.65 -2.0291770457e-25 -6.055920398 0.6 -1.2213834788e-25 
-6.055920398 0.55 0 -6.055920398 0.5 -2.1410572436e-25 -6.055920398 0.45 8.0577211088e-27 
-6.055920398 0.4 -2.7788118424e-26 -6.055920398 0.35 -4.0322994949e-26 -6.055920398 0.3 -2.0774430072e-26 
-6.055920398 0.25 -9.4715817181e-26 -6.055920398 0.2 0 -6.055920398 0.15 -6.2205271694e-24 
-6.055920398 0.1 -3.9542485122e-24 -6.055920398 0.05 -3.0361934111e-23 -6.055920398 0 0 
-6.0058706468 1.5 0 -6.0058706468 1.45 3.2207941205e-21 -6.0058706468 1.4 -8.4529331332e-22 
-6.0058706468 1.35 0 -6.0058706468 1.3 -5.8298385996e-23 -6.0058706468 1.25 0 
-6.0058706468 1.2 4.1136078814e-24 -6.0058706468 1.15 0 -6.0058706468 1.1 6.3403709181e-25 
-6.0058706468 1.05 0 -6.0058706468 1 4.1924505846e-27 -6.0058706468 0.95 4.6238095883e-25 
-6.0058706468 0.9 -7.7124465513e-27 -6.0058706468 0.85 1.4953474756e-25 -6.0058706468 0.8 -6.0382371914e-28 
-6.0058706468 0.75 0 -6.0058706468 0.7 -4.9788315084e-26 -6.0058706468 0.65 -2.9894214339e-25 
-6.0058706468 0.6 4.5382048681e-25 -6.0058706468 0.55 -4.3362160472e-25 -6.0058706468 0.5 1.0452850728e-26 
-6.0058706468 0.45 1.5919789922e-25 -6.0058706468 0.4 -5.8039948064e-27 -6.0058706468 0.35 4.7201418308e-26 
-6.0058706468 0.3 -9.1119104491e-27 -6.0058706468 0.25 -6.9017884332e-26 -6.0058706468 0.2 9.9761696935e-25 
-6.0058706468 0.15 -5.8518703803e-24 -6.0058706468 0.1 0 -6.0058706468 0.05 7.0616311769e-24 
-6.0058706468 0 0 -5.9558208955 1.5 -3.1366331379e-22 -5.9558208955 1.45 -3.2425889967e-21 
-5.9558208955 1.4 -1.0776899406e-23 -5.9558208955 1.35 0 -5.9558208955 1.3 0 
-5.9558208955 1.25 1.9874347175e-25 -5.9558208955 1.2 3.8348445535e-24 -5.9558208955 1.15 9.7450206293e-27 
-5.9558208955 1.1 0 -5.9558208955 1.05 1.6955579082e-25 -5.9558208955 1 0 
-5.9558208955 0.95 -4.6143999569e-25 -5.9558208955 0.9 1.5949880035e-25 -5.9558208955 0.85 0 
-5.9558208955 0.8 5.0567956177e-26 -5.9558208955 0.75 1.9295784261e-27 -5.9558208955 0.7 3.2820656569e-25 
-5.9558208955 0.65 -4.0385635435e-25 -5.9558208955 0.6 -2.7158015776e-25 -5.9558208955 0.55 3.1297957807e-25 
-5.9558208955 0.5 0 -5.9558208955 0.45 -4.3439118784e-26 -5.9558208955 0.4 1.0056990465e-26 
-5.9558208955 0.35 5.7565398925e-27 -5.9558208955 0.3 -2.4489168679e-25 -5.9558208955 0.25 -5.0108247484e-25 
-5.9558208955 0.2 0 -5.9558208955 0.15 3.8529567999e-24 -5.9558208955 0.1 -3.4099471094e-24 
-5.9558208955 0.05 0 -5.9558208955 0 0 -5.9057711443 1.5 0 
-5.9057711443 1.45 -3.348867771e-21 -5.9057711443 1.4 8.8021619822e-22 -5.9057711443 1.35 0 
-5.9057711443 1.3 -6.0645026308e-23 -5.9057711443 1.25 0 -5.9057711443 1.2 4.3599849193e-24 
-5.9057711443 1.15 9.5731623507e-25 -5.9057711443 1.1 0 -5.9057711443 1.05 1.1317195762e-25 
-5.9057711443 1 1.7521044439e-26 -5.9057711443 0.95 0 -5.9057711443 0.9 3.0657747879e-26 
-5.9057711443 0.85 1.4037434682e-26 -5.9057711443 0.8 6.4177389444e-25 -5.9057711443 0.75 4.2804973224e-25 
-5.9057711443 0.7 2.1629086907e-27 -5.9057711443 0.65 -2.4911137773e-25 -5.9057711443 0.6 0 
-5.9057711443 0.55 4.1144149847e-25 -5.9057711443 0.5 6.3633957958e-27 -5.9057711443 0.45 3.8820747406e-25 
-5.9057711443 0.4 -7.2883352071e-27 -5.9057711443 0.35 -1.5795290415e-25 -5.9057711443 0.3 -8.6575265677e-27 
-5.9057711443 0.25 -8.6890317001e-26 -5.9057711443 0.2 -2.0967089626e-25 -5.9057711443 0.15 3.6037276353e-24 
-5.9057711443 0.1 0 -5.9057711443 0.05 2.3597775282e-23 -5.9057711443 0 2.7805775104e-24 
-5.855721393 1.5 0 -5.855721393 1.45 6.8363448402e-21 -5.855721393 1.4 0 
-5.855721393 1.35 0 -5.855721393 1.3 -6.2383801961e-23 -5.855721393 1.25 0 
-5.855721393 1.2 4.2835502141e-24 -5.855721393 1.15 0 -5.855721393 1.1 -4.6438022819e-27 
-5.855721393 1.05 2.9274430978e-25 -5.855721393 1 1.0818581435e-25 -5.855721393 0.95 0 
-5.855721393 0.9 2.1675319086e-25 -5.855721393 0.85 -2.269897951e-27 -5.855721393 0.8 -1.5630785799e-27 
-5.855721393 0.75 0 -5.855721393 0.7 -4.8728086027e-26 -5.855721393 0.65 -2.130635898e-25 
-5.855721393 0.6 -5.0356635132e-25 -5.855721393 0.55 -7.3690948423e-27 -5.855721393 0.5 4.7578666384e-27 
-5.855721393 0.45 1.1901026787e-25 -5.855721393 0.4 -2.1689237551e-27 -5.855721393 0.35 1.1717653604e-25 
-5.855721393 0.3 1.2771214321e-25 -5.855721393 0.25 -5.7860235689e-26 -5.855721393 0.2 -1.7362310834e-25 
-5.855721393 0.15 -4.2933340615e-24 -5.855721393 0.1 0 -5.855721393 0.05 1.0465018513e-23 
-5.855721393 0 -2.443727593e-24 -5.8056716418 1.5 -3.3328472051e-22 -5.8056716418 1.45 -3.4022572712e-21 
-5.8056716418 1.4 -1.1454991618e-23 -5.8056716418 1.35 -2.412355076e-22 -5.8056716418 1.3 -6.3215829335e-23 
-5.8056716418 1.25 2.0298438797e-25 -5.8056716418 1.2 4.9595961213e-24 -5.8056716418 1.15 4.5401134184e-25 
-5.8056716418 1.1 0 -5.8056716418 1.05 -4.6860112707e-25 -5.8056716418 1 0 
-5.8056716418 0.95 -3.4953635384e-25 -5.8056716418 0.9 -2.2622262787e-25 -5.8056716418 0.85 0 
-5.8056716418 0.8 -3.0284172936e-25 -5.8056716418 0.75 -8.4452835411e-26 -5.8056716418 0.7 5.3556752932e-26 
-5.8056716418 0.65 -8.6878237568e-26 -5.8056716418 0.6 -2.9379448086e-25 -5.8056716418 0.55 3.4832054662e-25 
-5.8056716418 0.5 0 -5.8056716418 0.45 -7.0722366229e-26 -5.8056716418 0.4 0 
-5.8056716418 0.35 7.9779722016e-27 -5.8056716418 0.3 -3.9737364334e-26 -5.8056716418 0.25 -5.0706416057e-25 
-5.8056716418 0.2 0 -5.8056716418 0.15 -3.5993384133e-24 -5.8056716418 0.1 -2.4050519121e-24 
-5.8056716418 0.05 0 -5.8056716418 0 0 -5.7556218905 1.5 -1.7200600856e-22 
-5.7556218905 1.45 3.6461067231e-21 -5.7556218905 1.4 -1.170381728e-23 -5.7556218905 1.35 0 
-5.7556218905 1.3 -6.4643604464e-23 -5.7556218905 1.25 2.1542945761e-25 -5.7556218905 1.2 4.0841245995e-24 
-5.7556218905 1.15 1.4919948168e-26 -5.7556218905 1.1 0 -5.7556218905 1.05 2.8870534194e-25 
-5.7556218905 1 0 -5.7556218905 0.95 2.8535317613e-27 -5.7556218905 0.9 -5.0446668813e-26 
-5.7556218905 0.85 0 -5.7556218905 0.8 -5.0882908893e-25 -5.7556218905 0.75 -5.4505851208e-27 
-5.7556218905 0.7 -2.8975551302e-25 -5.7556218905 0.65 -1.6050854231e-25 -5.7556218905 0.6 -9.4875314995e-26 
-5.7556218905 0.55 1.8676183323e-25 -5.7556218905 0.5 0 -5.7556218905 0.45 -1.0149928141e-25 
-5.7556218905 0.4 0 -5.7556218905 0.35 -2.4754225943e-25 -5.7556218905 0.3 -4.0339593075e-25 
-5.7556218905 0.25 -2.605336399e-26 -5.7556218905 0.2 0 -5.7556218905 0.15 -3.1531334417e-24 
-5.7556218905 0.1 -1.9766183991e-24 -5.7556218905 0.05 0 -5.7556218905 0 0 
-5.7055721393 1.5 -1.7386567557e-22 -5.7055721393 1.45 -3.5952266336e-21 -5.7055721393 1.4 -9.6787371519e-22 
-5.7055721393 1.35 0 -5.7055721393 1.3 -6.6138022563e-23 -5.7055721393 1.25 2.1411679307e-25 
-5.7055721393 1.2 4.4171627411e-24 -5.7055721393 1.15 1.9766709569e-26 -5.7055721393 1.1 3.533288273e-25 
-5.7055721393 1.05 -6.2684859681e-26 -5.7055721393 1 0 -5.7055721393 0.95 -6.3603636117e-27 
-5.7055721393 0.9 -3.7400881593e-26 -5.7055721393 0.85 -6.0988808735e-27 -5.7055721393 0.8 0 
-5.7055721393 0.75 1.7550523185e-25 -5.7055721393 0.7 -2.9985293261e-25 -5.7055721393 0.65 -3.5336925642e-25 
-5.7055721393 0.6 0 -5.7055721393 0.55 3.3822312704e-25 -5.7055721393 0.5 0 
-5.7055721393 0.45 2.5493963001e-25 -5.7055721393 0.4 0 -5.7055721393 0.35 -4.0975730509e-25 
-5.7055721393 0.3 -1.9890905858e-26 -5.7055721393 0.25 9.0431488952e-26 -5.7055721393 0.2 0 
-5.7055721393 0.15 -2.4373273672e-24 -5.7055721393 0.1 -1.5650475767e-24 -5.7055721393 0.05 0 
-5.7055721393 0 1.4909476039e-24 -5.6555223881 1.5 0 -5.6555223881 1.45 7.4414549232e-21 
-5.6555223881 1.4 0 -5.6555223881 1.35 0 -5.6555223881 1.3 0 
-5.6555223881 1.25 0 -5.6555223881 1.2 4.1459196241e-24 -5.6555223881 1.15 0 
-5.6555223881 1.1 1.2932782895e-25 -5.6555223881 1.05 0 -5.6555223881 1 -2.7561710414e-25 
-5.6555223881 0.95 0 -5.6555223881 0.9 -4.2115129153e-25 -5.6555223881 0.85 -8.2273755072e-27 
-5.6555223881 0.8 -6.3953816403e-25 -5.6555223881 0.75 -8.4899182772e-26 -5.6555223881 0.7 1.5695635096e-25 
-5.6555223881 0.65 1.558961219e-25 -5.6555223881 0.6 1.0772137249e-25 -5.6555223881 0.55 -1.2666004928e-25 
-5.6555223881 0.5 3.6370925073e-27 -5.6555223881 0.45 -5.0454803941e-26 -5.6555223881 0.4 -5.0909187822e-26 
-5.6555223881 0.35 0 -5.6555223881 0.3 -1.9284049955e-25 -5.6555223881 0.25 -2.6734939812e-26 
-5.6555223881 0.2 -7.0629428554e-26 -5.6555223881 0.15 -1.7130394602e-24 -5.6555223881 0.1 0 
-5.6555223881 0.05 2.1234378381e-24 -5.6555223881 0 0 -5.6054726368 1.5 0 
-5.6054726368 1.45 -3.8045340247e-21 -5.6054726368 1.4 -3.8482190969e-21 -5.6054726368 1.35 0 
-5.6054726368 1.3 0 -5.6054726368 1.25 0 -5.6054726368 1.2 4.7133946049e-24 
-5.6054726368 1.15 0 -5.6054726368 1.1 0 -5.6054726368 1.05 -3.3127622069e-25 
-5.6054726368 1 1.0149928141e-26 -5.6054726368 0.95 -1.9383002695e-25 -5.6054726368 0.9 -2.3956931622e-25 
-5.6054726368 0.85 -1.1458549775e-26 -5.6054726368 0.8 -3.02720442e-27 -5.6054726368 0.75 -1.0307453803e-25 
-5.6054726368 0.7 2.1049791832e-25 -5.6054726368 0.65 4.6601312096e-25 -5.6054726368 0.6 -8.8764403993e-25 
-5.6054726368 0.55 1.0787776417e-25 -5.6054726368 0.5 -6.7672925792e-26 -5.6054726368 0.45 2.0015126799e-26 
-5.6054726368 0.4 -7.4700690382e-27 -5.6054726368 0.35 -2.1909379047e-26 -5.6054726368 0.3 3.3622385768e-25 
-5.6054726368 0.25 2.4213592448e-27 -5.6054726368 0.2 -5.9295075068e-26 -5.6054726368 0.15 -8.8727238783e-25 
-5.6054726368 0.1 1.2609617151e-24 -5.6054726368 0.05 1.1592478635e-24 -5.6054726368 0 0 
-5.5554228856 1.5 -3.7186524419e-22 -5.5554228856 1.45 3.9901031902e-21 -5.5554228856 1.4 -2.5566159945e-23 
-5.5554228856 1.35 0 -5.5554228856 1.3 7.0084094138e-23 -5.5554228856 1.25 2.2916194825e-25 
-5.5554228856 1.2 4.8357773024e-24 -5.5554228856 1.15 1.4793730423e-26 -5.5554228856 1.1 -1.2916611247e-25 
-5.5554228856 1.05 -6.0895525933e-25 -5.5554228856 1 0 -5.5554228856 0.95 1.0048953945e-26 
-5.5554228856 0.9 4.7922313916e-26 -5.5554228856 0.85 0 -5.5554228856 0.8 0 
-5.5554228856 0.75 -6.9309072614e-27 -5.5554228856 0.7 0 -5.5554228856 0.65 -2.2765638256e-25 
-5.5554228856 0.6 -2.8117270637e-25 -5.5554228856 0.55 1.8120825246e-25 -5.5554228856 0.5 0 
-5.5554228856 0.45 8.6817593886e-26 -5.5554228856 0.4 -2.2035596792e-25 -5.5554228856 0.35 -1.5839316249e-26 
-5.5554228856 0.3 -1.9553643169e-27 -5.5554228856 0.25 3.9359721828e-27 -5.5554228856 0.2 0 
-5.5554228856 0.15 -2.2993037273e-25 -5.5554228856 0.1 -4.7279145759e-26 -5.5554228856 0.05 0 
-5.5554228856 0 0 -5.5053731343 1.5 0 -5.5053731343 1.45 0 
-5.5053731343 1.4 0 -5.5053731343 1.35 0 -5.5053731343 1.3 7.2471124128e-23 
-5.5053731343 1.25 0 -5.5053731343 1.2 4.759842735e-24 -5.5053731343 1.15 -3.1004883655e-26 
-5.5053731343 1.1 0 -5.5053731343 1.05 -1.4927840474e-25 -5.5053731343 1 -2.3961156958e-27 
-5.5053731343 0.95 0 -5.5053731343 0.9 1.5153391831e-25 -5.5053731343 0.85 6.6663183834e-27 
-5.5053731343 0.8 -1.9449439574e-25 -5.5053731343 0.75 6.9591336906e-26 -5.5053731343 0.7 -1.0279976791e-25 
-5.5053731343 0.65 -2.277372408e-25 -5.5053731343 0.6 9.2193693281e-26 -5.5053731343 0.55 -3.9847484386e-26 
-5.5053731343 0.5 2.0752218707e-26 -5.5053731343 0.45 5.0715507679e-25 -5.5053731343 0.4 -1.5169351473e-26 
-5.5053731343 0.35 -2.3076032836e-25 -5.5053731343 0.3 -1.2346116901e-25 -5.5053731343 0.25 1.2269252267e-28 
-5.5053731343 0.2 -2.0064381301e-25 -5.5053731343 0.15 -2.5080476627e-25 -5.5053731343 0.1 0 
-5.5053731343 0.05 -9.8924321085e-25 -5.5053731343 0 0 -5.4553233831 1.5 -3.8986485386e-22 
-5.4553233831 1.45 8.2635391662e-21 -5.4553233831 1.4 -2.6800971809e-23 -5.4553233831 1.35 0 
-5.4553233831 1.3 7.4021078035e-23 -5.4553233831 1.25 2.4324784857e-25 -5.4553233831 1.2 5.0494134573e-24 
-5.4553233831 1.15 2.0561881362e-26 -5.4553233831 1.1 0 -5.4553233831 1.05 -6.8165668035e-25 
-5.4553233831 1 2.5647840181e-27 -5.4553233831 0.95 3.4576803925e-25 -5.4553233831 0.9 0 
-5.4553233831 0.85 1.2062373494e-25 -5.4553233831 0.8 0 -5.4553233831 0.75 1.2193644879e-26 
-5.4553233831 0.7 2.8731201637e-25 -5.4553233831 0.65 -8.7807121284e-26 -5.4553233831 0.6 0 
-5.4553233831 0.55 1.4536241293e-25 -5.4553233831 0.5 0 -5.4553233831 0.45 1.5274368581e-25 
-5.4553233831 0.4 0 -5.4553233831 0.35 -1.966058066e-25 -5.4553233831 0.3 3.9768696903e-27 
-5.4553233831 0.25 1.915783221e-26 -5.4553233831 0.2 0 -5.4553233831 0.15 1.7080167829e-24 
-5.4553233831 0.1 1.1720851942e-24 -5.4553233831 0.05 8.8068565565e-24 -5.4553233831 0 1.4241017002e-24 
-5.4052736318 1.5 0 -5.4052736318 1.45 -4.1825927231e-21 -5.4052736318 1.4 0 
-5.4052736318 1.35 0 -5.4052736318 1.3 0 -5.4052736318 1.25 4.7433841383e-25 
-5.4052736318 1.2 2.0138249448e-23 -5.4052736318 1.15 1.2541803709e-24 -5.4052736318 1.1 0 
-5.4052736318 1.05 2.1095521112e-25 -5.4052736318 1 1.5095592979e-28 -5.4052736318 0.95 2.6047299622e-25 
-5.4052736318 0.9 8.1498255498e-26 -5.4052736318 0.85 8.5242830304e-27 -5.4052736318 0.8 -5.2701381191e-26 
-5.4052736318 0.75 4.4347787939e-26 -5.4052736318 0.7 9.2282378503e-26 -5.4052736318 0.65 -6.2511063763e-26 
-5.4052736318 0.6 -5.5333662121e-28 -5.4052736318 0.55 0 -5.4052736318 0.5 1.2109029686e-25 
-5.4052736318 0.45 -1.8926907971e-25 -5.4052736318 0.4 1.8429812202e-26 -5.4052736318 0.35 1.1929699416e-25 
-5.4052736318 0.3 1.6115688737e-27 -5.4052736318 0.25 5.3110405571e-26 -5.4052736318 0.2 1.7264265284e-25 
-5.4052736318 0.15 -2.1934155196e-24 -5.4052736318 0.1 0 -5.4052736318 0.05 -1.4134009795e-23 
-5.4052736318 0 -1.0639805833e-24 -5.3552238806 1.5 0 -5.3552238806 1.45 4.288419335e-21 
-5.3552238806 1.4 0 -5.3552238806 1.35 0 -5.3552238806 1.3 7.7708655668e-23 
-5.3552238806 1.25 0 -5.3552238806 1.2 -5.5555193984e-24 -5.3552238806 1.15 0 
-5.3552238806 1.1 -8.5214135489e-25 -5.3552238806 1.05 -2.112372289e-26 -5.3552238806 1 -5.7282641595e-27 
-5.3552238806 0.95 0 -5.3552238806 0.9 2.7676223435e-25 -5.3552238806 0.85 2.4254021569e-27 
-5.3552238806 0.8 -7.3690948423e-27 -5.3552238806 0.75 0 -5.3552238806 0.7 1.8336623077e-25 
-5.3552238806 0.65 1.7975127567e-25 -5.3552238806 0.6 1.2137118065e-27 -5.3552238806 0.55 -1.1131197151e-25 
-5.3552238806 0.5 -7.8992093706e-27 -5.3552238806 0.45 -8.2726117497e-26 -5.3552238806 0.4 -2.4213592448e-27 
-5.3552238806 0.35 -1.9553643169e-27 -5.3552238806 0.3 -9.6127631682e-27 -5.3552238806 0.25 -2.5717218032e-25 
-5.3552238806 0.2 2.0114261963e-25 -5.3552238806 0.15 4.012971318e-24 -5.3552238806 0.1 0 
-5.3552238806 0.05 -4.9945233323e-24 -5.3552238806 0 -1.4445018404e-24 -5.3051741294 1.5 0 
-5.3051741294 1.45 -4.4587708813e-21 -5.3051741294 1.4 1.1712743178e-21 -5.3051741294 1.35 0 
-5.3051741294 1.3 0 -5.3051741294 1.25 0 -5.3051741294 1.2 5.3051033927e-24 
-5.3051741294 1.15 1.6679422298e-26 -5.3051741294 1.1 0 -5.3051741294 1.05 -5.3120512851e-25 
-5.3051741294 1 4.0591823954e-28 -5.3051741294 0.95 0 -5.3051741294 0.9 -2.1970777078e-25 
-5.3051741294 0.85 3.3202415944e-26 -5.3051741294 0.8 -2.1942496414e-25 -5.3051741294 0.75 -2.0202924998e-25 
-5.3051741294 0.7 3.843754836e-25 -5.3051741294 0.65 -2.8833985282e-25 -5.3051741294 0.6 1.1178652065e-27 
-5.3051741294 0.55 -1.6023396941e-25 -5.3051741294 0.5 -2.4963848472e-26 -5.3051741294 0.45 -1.081009132e-25 
-5.3051741294 0.4 1.0637330782e-25 -5.3051741294 0.35 3.9894914648e-27 -5.3051741294 0.3 1.7949174044e-26 
-5.3051741294 0.25 5.6240605643e-26 -5.3051741294 0.2 2.5819545618e-25 -5.3051741294 0.15 5.4528976666e-24 
-5.3051741294 0.1 0 -5.3051741294 0.05 -6.6131775574e-24 -5.3051741294 0 -1.8681391778e-24 
-5.2551243781 1.5 -2.1582997077e-22 -5.2551243781 1.45 5.6486202103e-23 -5.2551243781 1.4 -1.2016545251e-21 
-5.2551243781 1.35 6.2342902363e-22 -5.2551243781 1.3 0 -5.2551243781 1.25 2.7359059443e-25 
-5.2551243781 1.2 5.49405254e-24 -5.2551243781 1.15 2.0776451528e-26 -5.2551243781 1.1 0 
-5.2551243781 1.05 5.5527721903e-25 -5.2551243781 1 -2.8218244833e-25 -5.2551243781 0.95 4.9677751297e-26 
-5.2551243781 0.9 -3.6896010613e-26 -5.2551243781 0.85 7.856601021e-25 -5.2551243781 0.8 4.5345499769e-25 
-5.2551243781 0.75 2.2486973141e-27 -5.2551243781 0.7 -1.1002144438e-25 -5.2551243781 0.65 -2.6249248014e-25 
-5.2551243781 0.6 0 -5.2551243781 0.55 -3.7772435079e-25 -5.2551243781 0.5 0 
-5.2551243781 0.45 -8.2314184193e-26 -5.2551243781 0.4 -2.7727474742e-26 -5.2551243781 0.35 2.1258642756e-26 
-5.2551243781 0.3 1.6888944987e-26 -5.2551243781 0.25 9.0437183542e-26 -5.2551243781 0.2 0 
-5.2551243781 0.15 6.9091980065e-24 -5.2551243781 0.1 4.3790761421e-24 -5.2551243781 0.05 0 
-5.2551243781 0 0 -5.2050746269 1.5 -2.2177926942e-22 -5.2050746269 1.45 -4.5854098905e-21 
-5.2050746269 1.4 -1.5245625251e-23 -5.2050746269 1.35 0 -5.2050746269 1.3 -1.6726764296e-22 
-5.2050746269 1.25 2.7684701225e-25 -5.2050746269 1.2 2.2995943831e-23 -5.2050746269 1.15 1.6485048204e-26 
-5.2050746269 1.1 0 -5.2050746269 1.05 4.4347787939e-26 -5.2050746269 1 0 
-5.2050746269 0.95 4.2419269545e-27 -5.2050746269 0.9 -5.4061623911e-26 -5.2050746269 0.85 0 
-5.2050746269 0.8 0 -5.2050746269 0.75 3.9770669056e-26 -5.2050746269 0.7 1.7523065895e-25 
-5.2050746269 0.65 -2.5138531859e-25 -5.2050746269 0.6 0 -5.2050746269 0.55 -6.0988808735e-27 
-5.2050746269 0.5 4.7982957598e-26 -5.2050746269 0.45 -1.6814225068e-25 -5.2050746269 0.4 0 
-5.2050746269 0.35 -3.1113477754e-25 -5.2050746269 0.3 1.7401527082e-25 -5.2050746269 0.25 1.0344604221e-25 
-5.2050746269 0.2 0 -5.2050746269 0.15 -6.4088487778e-24 -5.2050746269 0.1 1.8893729862e-23 
-5.2050746269 0.05 -2.0654295431e-23 -5.2050746269 0 4.2712222903e-24 -5.1550248756 1.5 0 
-5.1550248756 1.45 1.4326905534e-20 -5.1550248756 1.4 0 -5.1550248756 1.35 -3.2969498687e-22 
-5.1550248756 1.3 -8.572095811e-23 -5.1550248756 1.25 0 -5.1550248756 1.2 6.4249072249e-24 
-5.1550248756 1.15 0 -5.1550248756 1.1 0 -5.1550248756 1.05 -3.3127622069e-25 
-5.1550248756 1 7.2469200096e-27 -5.1550248756 0.95 8.270595224e-25 -5.1550248756 0.9 2.8789463945e-25 
-5.1550248756 0.85 1.5059497662e-25 -5.1550248756 0.8 1.2428114062e-25 -5.1550248756 0.75 -6.8743311433e-26 
-5.1550248756 0.7 2.1367860549e-25 -5.1550248756 0.65 4.6601312096e-25 -5.1550248756 0.6 9.2812493031e-26 
-5.1550248756 0.55 1.2706286138e-25 -5.1550248756 0.5 -5.6525335126e-27 -5.1550248756 0.45 -9.2696086744e-28 
-5.1550248756 0.4 -4.3146254173e-27 -5.1550248756 0.35 -7.7814225767e-27 -5.1550248756 0.3 3.430053251e-25 
-5.1550248756 0.25 -6.358748912e-25 -5.1550248756 0.2 2.9803161055e-24 -5.1550248756 0.15 1.1286277936e-23 
-5.1550248756 0.1 1.6304686793e-23 -5.1550248756 0.05 -1.2489131467e-23 -5.1550248756 0 5.118856094e-24 
-5.1049751244 1.5 0 -5.1049751244 1.45 4.9157800918e-21 -5.1049751244 1.4 0 
-5.1049751244 1.35 0 -5.1049751244 1.3 -8.869565792e-23 -5.1049751244 1.25 0 
-5.1049751244 1.2 2.3739535164e-23 -5.1049751244 1.15 0 -5.1049751244 1.1 0 
-5.1049751244 1.05 3.3717295596e-25 -5.1049751244 1 -1.5648978904e-26 -5.1049751244 0.95 0 
-5.1049751244 0.9 5.7037256549e-26 -5.1049751244 0.85 -1.6135656778e-27 -5.1049751244 0.8 -4.7437657497e-27 
-5.1049751244 0.75 -3.5421826797e-26 -5.1049751244 0.7 3.8119479643e-25 -5.1049751244 0.65 1.4529383133e-25 
-5.1049751244 0.6 3.9751731464e-25 -5.1049751244 0.55 -2.2738180966e-25 -5.1049751244 0.5 -1.0524538463e-26 
-5.1049751244 0.45 -3.2466211504e-26 -5.1049751244 0.4 -1.0547267518e-26 -5.1049751244 0.35 -4.9519915021e-25 
-5.1049751244 0.3 2.1584245095e-26 -5.1049751244 0.25 1.3701996234e-25 -5.1049751244 0.2 3.235225463e-24 
-5.1049751244 0.15 1.233681347e-23 -5.1049751244 0.1 -1.5534026487e-23 -5.1049751244 0.05 2.9783951503e-23 
-5.1049751244 0 5.0553003318e-24 -5.0549253731 1.5 0 -5.0549253731 1.45 0 
-5.0549253731 1.4 0 -5.0549253731 1.35 0 -5.0549253731 1.3 0 
-5.0549253731 1.25 0 -5.0549253731 1.2 6.6450313663e-24 -5.0549253731 1.15 0 
-5.0549253731 1.1 0 -5.0549253731 1.05 4.4347787939e-26 -5.0549253731 1 -1.3553764339e-26 
-5.0549253731 0.95 0 -5.0549253731 0.9 4.1209551347e-26 -5.0549253731 0.85 9.2282378503e-26 
-5.0549253731 0.8 -2.9538995204e-25 -5.0549253731 0.75 -1.8229885266e-25 -5.0549253731 0.7 3.5044815379e-25 
-5.0549253731 0.65 1.8611265001e-25 -5.0549253731 0.6 3.914771546e-27 -5.0549253731 0.55 3.4252660979e-25 
-5.0549253731 0.5 -1.4487775651e-26 -5.0549253731 0.45 -1.596432112e-25 -5.0549253731 0.4 0 
-5.0549253731 0.35 -1.8631403141e-25 -5.0549253731 0.3 4.1616110536e-25 -5.0549253731 0.25 0 
-5.0549253731 0.2 3.5982781842e-24 -5.0549253731 0.15 1.3356147188e-23 -5.0549253731 0.1 -1.6918534173e-23 
-5.0549253731 0.05 -1.6176960746e-23 -5.0549253731 0 0 -5.0048756219 1.5 0 
-5.0048756219 1.45 0 -5.0048756219 1.4 0 -5.0048756219 1.35 0 
-5.0048756219 1.3 0 -5.0048756219 1.25 0 -5.0048756219 1.2 6.2633485115e-24 
-5.0048756219 1.15 0 -5.0048756219 1.1 0 -5.0048756219 1.05 5.2425723609e-26 
-5.0048756219 1 7.2216764607e-27 -5.0048756219 0.95 0 -5.0048756219 0.9 -1.5386485437e-26 
-5.0048756219 0.85 -2.1011522217e-25 -5.0048756219 0.8 5.4241528571e-25 -5.0048756219 0.75 -6.4530596984e-25 
-5.0048756219 0.7 3.0909922058e-25 -5.0048756219 0.65 3.6794193322e-25 -5.0048756219 0.6 3.8384536907e-25 
-5.0048756219 0.55 3.0657747879e-26 -5.0048756219 0.5 1.4608141034e-25 -5.0048756219 0.45 9.2767034922e-26 
-5.0048756219 0.4 9.8722491022e-27 -5.0048756219 0.35 -4.7424024995e-26 -5.0048756219 0.3 1.6472426429e-26 
-5.0048756219 0.25 1.954587782e-25 -5.0048756219 0.2 6.7155615463e-25 -5.0048756219 0.15 1.5691680339e-23 
-5.0048756219 0.1 0 -5.0048756219 0.05 -2.051978518e-23 -5.0048756219 0 0 
-4.9548258706 1.5 0 -4.9548258706 1.45 5.3071694036e-21 -4.9548258706 1.4 1.3939193905e-21 
-4.9548258706 1.35 0 -4.9548258706 1.3 -9.6408067e-23 -4.9548258706 1.25 0 
-4.9548258706 1.2 6.3885565143e-24 -4.9548258706 1.15 0 -4.9548258706 1.1 0 
-4.9548258706 1.05 -1.4217245664e-26 -4.9548258706 1 0 -4.9548258706 0.95 2.9887967547e-27 
-4.9548258706 0.9 2.6663444362e-25 -4.9548258706 0.85 -2.0931931082e-27 -4.9548258706 0.8 9.9227362001e-27 
-4.9548258706 0.75 0 -4.9548258706 0.7 -1.6784938607e-26 -4.9548258706 0.65 -2.8727962377e-25 
-4.9548258706 0.6 -2.7108332331e-25 -4.9548258706 0.55 -1.2618042185e-25 -4.9548258706 0.5 9.0896990842e-27 
-4.9548258706 0.45 1.0831706109e-25 -4.9548258706 0.4 2.2771702624e-26 -4.9548258706 0.35 -4.5586970092e-25 
-4.9548258706 0.3 -4.2739349857e-25 -4.9548258706 0.25 -8.9137850745e-25 -4.9548258706 0.2 0 
-4.9548258706 0.15 1.8320745477e-23 -4.9548258706 0.1 0 -4.9548258706 0.05 -8.8547244785e-23 
-4.9548258706 0 0 -4.9047761194 1.5 0 -4.9047761194 1.45 -5.4839820868e-21 
-4.9047761194 1.4 0 -4.9047761194 1.35 0 -4.9047761194 1.3 9.9424166231e-23 
-4.9047761194 1.25 0 -4.9047761194 1.2 6.7136938195e-24 -4.9047761194 1.15 0 
-4.9047761194 1.1 0 -4.9047761194 1.05 -1.0239592043e-24 -4.9047761194 1 1.4719010504e-26 
-4.9047761194 0.95 0 -4.9047761194 0.9 -1.0555644235e-25 -4.9047761194 0.85 -2.167743915e-25 
-4.9047761194 0.8 3.1678844504e-25 -4.9047761194 0.75 0 -4.9047761194 0.7 3.7342357974e-26 
-4.9047761194 0.65 -2.6081220641e-27 -4.9047761194 0.6 -1.9297411286e-26 -4.9047761194 0.55 -1.2417804636e-26 
-4.9047761194 0.5 -2.8252560282e-27 -4.9047761194 0.45 6.666520529e-26 -4.9047761194 0.4 5.2526796412e-27 
-4.9047761194 0.35 -1.201491858e-26 -4.9047761194 0.3 7.9492793584e-25 -4.9047761194 0.25 2.3069877255e-25 
-4.9047761194 0.2 4.9356285548e-25 -4.9047761194 0.15 2.2928652418e-23 -4.9047761194 0.1 3.3601817403e-23 
-4.9047761194 0.05 -2.5673912034e-23 -4.9047761194 0 0 -4.8547263682 1.5 -5.4188276791e-22 
-4.8547263682 1.45 5.8150393166e-21 -4.8547263682 1.4 -3.7251472915e-23 -4.8547263682 1.35 0 
-4.8547263682 1.3 0 -4.8547263682 1.25 6.7733692734e-25 -4.8547263682 1.2 6.7264930877e-24 
-4.8547263682 1.15 1.8567640993e-26 -4.8547263682 1.1 0 -4.8547263682 1.05 -5.8068248449e-25 
-4.8547263682 1 0 -4.8547263682 0.95 -5.2233931801e-27 -4.8547263682 0.9 -2.4843695096e-25 
-4.8547263682 0.85 0 -4.8547263682 0.8 -5.8657921975e-25 -4.8547263682 0.75 -2.6884690264e-25 
-4.8547263682 0.7 -7.569021778e-26 -4.8547263682 0.65 -7.0641507986e-26 -4.8547263682 0.6 1.1595929902e-25 
-4.8547263682 0.55 -5.4606924012e-26 -4.8547263682 0.5 8.2566619683e-26 -4.8547263682 0.45 0 
-4.8547263682 0.4 0 -4.8547263682 0.35 -2.7855395934e-25 -4.8547263682 0.3 6.7591722423e-25 
-4.8547263682 0.25 3.0370311617e-25 -4.8547263682 0.2 0 -4.8547263682 0.15 2.4449323808e-23 
-4.8547263682 0.1 1.5520492789e-23 -4.8547263682 0.05 0 -4.8547263682 0 0 
-4.8046766169 1.5 -5.6139244668e-22 -4.8046766169 1.45 6.024458991e-21 -4.8046766169 1.4 -3.8595515193e-23 
-4.8046766169 1.35 0 -4.8046766169 1.3 0 -4.8046766169 1.25 3.6247313035e-25 
-4.8046766169 1.2 7.1492720458e-24 -4.8046766169 1.15 2.3881408051e-26 -4.8046766169 1.1 0 
-4.8046766169 1.05 2.089357272e-25 -4.8046766169 1 0 -4.8046766169 0.95 -5.5515593167e-27 
-4.8046766169 0.9 2.8232345722e-26 -4.8046766169 0.85 0 -4.8046766169 0.8 0 
-4.8046766169 0.75 1.726860895e-26 -4.8046766169 0.7 -6.6602540152e-26 -4.8046766169 0.65 -3.8366151518e-25 
-4.8046766169 0.6 -4.0308820105e-26 -4.8046766169 0.55 0 -4.8046766169 0.5 2.1459038078e-25 
-4.8046766169 0.45 3.1455483469e-25 -4.8046766169 0.4 1.3784999192e-25 -4.8046766169 0.35 -1.3761163267e-25 
-4.8046766169 0.3 -9.4135215554e-25 -4.8046766169 0.25 3.3068847001e-25 -4.8046766169 0.2 6.1511054376e-24 
-4.8046766169 0.15 2.8254031508e-23 -4.8046766169 0.1 1.7876195535e-23 -4.8046766169 0.05 0 
-4.8046766169 0 0 -4.7546268657 1.5 0 -4.7546268657 1.45 0 
-4.7546268657 1.4 0 -4.7546268657 1.35 0 -4.7546268657 1.3 0 
-4.7546268657 1.25 0 -4.7546268657 1.2 7.9647641063e-24 -4.7546268657 1.15 0 
-4.7546268657 1.1 0 -4.7546268657 1.05 -3.5421826797e-26 -4.7546268657 1 1.7690698838e-27 
-4.7546268657 0.95 3.2352171799e-26 -4.7546268657 0.9 1.2178695965e-25 -4.7546268657 0.85 -6.5747365627e-26 
-4.7546268657 0.8 4.3167183639e-25 -4.7546268657 0.75 1.3421482226e-25 -4.7546268657 0.7 1.8081150473e-25 
-4.7546268657 0.65 1.7763081756e-25 -4.7546268657 0.6 3.4237401451e-26 -4.7546268657 0.55 -1.8811803304e-25 
-4.7546268657 0.5 7.751790989e-27 -4.7546268657 0.45 -1.497243207e-26 -4.7546268657 0.4 6.1389303556e-26 
-4.7546268657 0.35 -9.8187298202e-27 -4.7546268657 0.3 -1.2006034034e-24 -4.7546268657 0.25 -1.6374200427e-24 
-4.7546268657 0.2 1.4279538066e-24 -4.7546268657 0.15 3.2520468962e-23 -4.7546268657 0.1 0 
-4.7546268657 0.05 -3.9261771336e-23 -4.7546268657 0 0 -4.7045771144 1.5 0 
-4.7045771144 1.45 6.3402739639e-21 -4.7045771144 1.4 0 -4.7045771144 1.35 -4.3796658788e-22 
-4.7045771144 1.3 1.1490250072e-22 -4.7045771144 1.25 0 -4.7045771144 1.2 7.4962438374e-24 
-4.7045771144 1.15 0 -4.7045771144 1.1 0 -4.7045771144 1.05 -6.634813251e-25 
-4.7045771144 1 -8.4393818755e-27 -4.7045771144 0.95 0 -4.7045771144 0.9 -1.4776365622e-25 
-4.7045771144 0.85 5.2508554004e-29 -4.7045771144 0.8 7.0197280689e-27 -4.7045771144 0.75 -1.2903496434e-25 
-4.7045771144 0.7 4.2833668039e-27 -4.7045771144 0.65 -3.680050914e-26 -4.7045771144 0.6 2.5137545783e-27 
-4.7045771144 0.55 4.9623788281e-27 -4.7045771144 0.5 -1.3692603859e-26 -4.7045771144 0.45 8.222528943e-26 
-4.7045771144 0.4 -2.3302803229e-26 -4.7045771144 0.35 -2.192301155e-26 -4.7045771144 0.3 6.2497727083e-26 
-4.7045771144 0.25 4.5978397943e-25 -4.7045771144 0.2 -6.5533850562e-24 -4.7045771144 0.15 3.7299905819e-23 
-4.7045771144 0.1 0 -4.7045771144 0.05 -4.5071157612e-23 -4.7045771144 0 0 
-4.6545273632 1.5 0 -4.6545273632 1.45 0 -4.6545273632 1.4 0 
-4.6545273632 1.35 0 -4.6545273632 1.3 1.1986942141e-22 -4.6545273632 1.25 0 
-4.6545273632 1.2 8.0354460434e-24 -4.6545273632 1.15 0 -4.6545273632 1.1 0 
-4.6545273632 1.05 -2.8129399374e-25 -4.6545273632 1 7.7194969957e-28 -4.6545273632 0.95 0 
-4.6545273632 0.9 9.2084719543e-28 -4.6545273632 0.85 6.6789401579e-27 -4.6545273632 0.8 1.6050563338e-25 
-4.6545273632 0.75 2.4002572156e-25 -4.6545273632 0.7 -3.1972764216e-25 -4.6545273632 0.65 2.8683441039e-25 
-4.6545273632 0.6 -7.9244529196e-27 -4.6545273632 0.55 -5.9640990575e-26 -4.6545273632 0.5 -2.927290256e-26 
-4.6545273632 0.45 -1.7471543417e-26 -4.6545273632 0.4 -1.7461519954e-25 -4.6545273632 0.35 -2.1355031698e-26 
-4.6545273632 0.3 6.4233221075e-26 -4.6545273632 0.25 5.0967785396e-25 -4.6545273632 0.2 1.8633671609e-24 
-4.6545273632 0.15 4.2812945452e-23 -4.6545273632 0.1 6.7805220133e-23 -4.6545273632 0.05 -1.1088636567e-22 
-4.6545273632 0 0 -4.6044776119 1.5 -3.3664223874e-22 -4.6044776119 1.45 -6.9619825892e-21 
-4.6044776119 1.4 1.8290043767e-21 -4.6044776119 1.35 4.8702187171e-22 -4.6044776119 1.3 0 
-4.6044776119 1.25 8.2732142422e-25 -4.6044776119 1.2 8.5266618405e-24 -4.6044776119 1.15 6.1331223672e-26 
-4.6044776119 1.1 0 -4.6044776119 1.05 -3.529856728e-25 -4.6044776119 1 0 
-4.6044776119 0.95 8.3357773215e-26 -4.6044776119 0.9 0 -4.6044776119 0.85 0 
-4.6044776119 0.8 0 -4.6044776119 0.75 1.0445529113e-26 -4.6044776119 0.7 0 
-4.6044776119 0.65 3.9337535115e-25 -4.6044776119 0.6 3.5381397675e-26 -4.6044776119 0.55 1.483916388e-25 
-4.6044776119 0.5 0 -4.6044776119 0.45 7.4069601658e-26 -4.6044776119 0.4 0 
-4.6044776119 0.35 -6.8667146913e-25 -4.6044776119 0.3 -1.4587186916e-24 -4.6044776119 0.25 5.6829337467e-25 
-4.6044776119 0.2 0 -4.6044776119 0.15 4.9113583813e-23 -4.6044776119 0.1 1.0909652232e-22 
-4.6044776119 0.05 0 -4.6044776119 0 0 -4.5544278607 1.5 0 
-4.5544278607 1.45 0 -4.5544278607 1.4 0 -4.5544278607 1.35 0 
-4.5544278607 1.3 1.3080846092e-22 -4.5544278607 1.25 0 -4.5544278607 1.2 8.8235496421e-24 
-4.5544278607 1.15 0 -4.5544278607 1.1 0 -4.5544278607 1.05 -2.3787508951e-25 
-4.5544278607 1 1.1253593851e-27 -4.5544278607 0.95 2.9917648438e-25 -4.5544278607 0.9 -3.400942558e-25 
-4.5544278607 0.85 3.3594134687e-27 -4.5544278607 0.8 2.4183517126e-28 -4.5544278607 0.75 0 
-4.5544278607 0.7 4.4307013691e-26 -4.5544278607 0.65 2.8625637256e-25 -4.5544278607 0.6 1.8690782181e-25 
-4.5544278607 0.55 -8.9412453226e-28 -4.5544278607 0.5 -1.2727777668e-27 -4.5544278607 0.45 7.3251207772e-26 
-4.5544278607 0.4 3.9400150949e-27 -4.5544278607 0.35 -8.5330413586e-25 -4.5544278607 0.3 9.2057922924e-26 
-4.5544278607 0.25 -2.8860669488e-24 -4.5544278607 0.2 2.5006657982e-24 -4.5544278607 0.15 5.6560102592e-23 
-4.5544278607 0.1 0 -4.5544278607 0.05 -6.8312053798e-23 -4.5544278607 0 0 
-4.5043781095 1.5 -3.615420463e-22 -4.5043781095 1.45 9.4649733908e-23 -4.5043781095 1.4 1.965167676e-21 
-4.5043781095 1.35 0 -4.5043781095 1.3 -1.373031212e-22 -4.5043781095 1.25 9.0172678481e-25 
-4.5043781095 1.2 9.1592020687e-24 -4.5043781095 1.15 6.5067268919e-26 -4.5043781095 1.1 0 
-4.5043781095 1.05 -3.0451805879e-25 -4.5043781095 1 0 -4.5043781095 0.95 1.9326919615e-25 
-4.5043781095 0.9 0 -4.5043781095 0.85 0 -4.5043781095 0.8 3.529856728e-25 
-4.5043781095 0.75 -1.9942946026e-26 -4.5043781095 0.7 -1.2844923512e-25 -4.5043781095 0.65 -2.3295752784e-25 
-4.5043781095 0.6 -1.509159937e-25 -4.5043781095 0.55 -6.996505976e-26 -4.5043781095 0.5 0 
-4.5043781095 0.45 0 -4.5043781095 0.4 0 -4.5043781095 0.35 -1.2217589766e-24 
-4.5043781095 0.3 2.0650824443e-24 -4.5043781095 0.25 7.4853231429e-25 -4.5043781095 0.2 0 
-4.5043781095 0.15 6.5097369879e-23 -4.5043781095 0.1 4.1239543444e-23 -4.5043781095 0.05 0 
-4.5043781095 0 0 -4.4543283582 1.5 0 -4.4543283582 1.45 7.9737868449e-21 
-4.4543283582 1.4 0 -4.4543283582 1.35 0 -4.4543283582 1.3 0 
-4.4543283582 1.25 0 -4.4543283582 1.2 9.7136371787e-24 -4.4543283582 1.15 0 
-4.4543283582 1.1 0 -4.4543283582 1.05 -4.4386244908e-25 -4.4543283582 1 8.9256160159e-27 
-4.4543283582 0.95 0 -4.4543283582 0.9 1.3330615311e-26 -4.4543283582 0.85 1.6476000955e-26 
-4.4543283582 0.8 -3.2519163792e-26 -4.4543283582 0.75 0 -4.4543283582 0.7 -6.3189237622e-27 
-4.4543283582 0.65 -9.2462534612e-26 -4.4543283582 0.6 1.1078488917e-25 -4.4543283582 0.55 1.9585426868e-25 
-4.4543283582 0.5 -1.1243979609e-26 -4.4543283582 0.45 -3.8981610935e-26 -4.4543283582 0.4 2.7959251937e-26 
-4.4543283582 0.35 -7.4121143857e-25 -4.4543283582 0.3 1.1166584958e-25 -4.4543283582 0.25 8.7167039546e-25 
-4.4543283582 0.2 -1.4227928419e-23 -4.4543283582 0.15 8.7690737479e-23 -4.4543283582 0.1 -2.5611349053e-23 
-4.4543283582 0.05 -1.9543443277e-22 -4.4543283582 0 0 -4.404278607 1.5 0 
-4.404278607 1.45 -3.3143036575e-20 -4.404278607 1.4 -2.2150517497e-21 -4.404278607 1.35 0 
-4.404278607 1.3 0 -4.404278607 1.25 0 -4.404278607 1.2 1.0568383747e-23 
-4.404278607 1.15 0 -4.404278607 1.1 0 -4.404278607 1.05 -4.7213522393e-25 
-4.404278607 1 1.1677162853e-26 -4.404278607 0.95 -7.9557608368e-26 -4.404278607 0.9 0 
-4.404278607 0.85 -2.9640955476e-27 -4.404278607 0.8 4.6427471804e-26 -4.404278607 0.75 -3.9186073821e-25 
-4.404278607 0.7 -8.1869956896e-26 -4.404278607 0.65 -1.6508822499e-25 -4.404278607 0.6 1.3972762879e-25 
-4.404278607 0.55 -9.9321285753e-26 -4.404278607 0.5 0 -4.404278607 0.45 1.5663065001e-25 
-4.404278607 0.4 -1.981295654e-25 -4.404278607 0.35 -3.4412257401e-26 -4.404278607 0.3 1.2761346164e-25 
-4.404278607 0.25 1.0018386571e-24 -4.404278607 0.2 3.8258763883e-24 -4.404278607 0.15 8.7230711665e-23 
-4.404278607 0.1 1.379235319e-22 -4.404278607 0.05 -4.2080905251e-22 -4.404278607 0 0 
-4.3542288557 1.5 0 -4.3542288557 1.45 0 -4.3542288557 1.4 0 
-4.3542288557 1.35 0 -4.3542288557 1.3 -1.6266682946e-22 -4.3542288557 1.25 -5.5319442903e-25 
-4.3542288557 1.2 1.1856781354e-23 -4.3542288557 1.15 0 -4.3542288557 1.1 0 
-4.3542288557 1.05 -3.1865444621e-25 -4.3542288557 1 6.4517482172e-27 -4.3542288557 0.95 0 
-4.3542288557 0.9 -9.9766252607e-28 -4.3542288557 0.85 1.2636417714e-26 -4.3542288557 0.8 1.237136045e-26 
-4.3542288557 0.75 -4.1710428718e-25 -4.3542288557 0.7 9.7053409258e-26 -4.3542288557 0.65 4.9078044446e-26 
-4.3542288557 0.6 8.9631805862e-26 -4.3542288557 0.55 1.0763795045e-25 -4.3542288557 0.5 -7.4266323846e-28 
-4.3542288557 0.45 3.9513204578e-26 -4.3542288557 0.4 4.4304449893e-26 -4.3542288557 0.35 -3.2664141635e-26 
-4.3542288557 0.3 3.2852735598e-24 -4.3542288557 0.25 1.160658544e-24 -4.3542288557 0.2 2.6660078096e-23 
-4.3542288557 0.15 1.014789785e-22 -4.3542288557 0.1 1.6036648582e-22 -4.3542288557 0.05 -1.2230941237e-22 
-4.3542288557 0 0 -4.3041791045 1.5 -9.1131413009e-22 -4.3041791045 1.45 3.7733229815e-20 
-4.3041791045 1.4 -2.541728113e-21 -4.3041791045 1.35 0 -4.3041791045 1.3 -1.7936796145e-22 
-4.3041791045 1.25 5.9276369203e-25 -4.3041791045 1.2 1.1188253291e-23 -4.3041791045 1.15 0 
-4.3041791045 1.1 0 -4.3041791045 1.05 -2.2474844405e-25 -4.3041791045 1 -4.3630910592e-26 
-4.3041791045 0.95 2.6768269185e-27 -4.3041791045 0.9 -7.3246721126e-26 -4.3041791045 0.85 0 
-4.3041791045 0.8 0 -4.3041791045 0.75 -2.0843652616e-25 -4.3041791045 0.7 -2.668647417e-25 
-4.3041791045 0.65 2.1414615348e-25 -4.3041791045 0.6 2.1107649849e-25 -4.3041791045 0.55 9.0795918039e-26 
-4.3041791045 0.5 0 -4.3041791045 0.45 1.7845167664e-25 -4.3041791045 0.4 0 
-4.3041791045 0.35 -6.2204147567e-25 -4.3041791045 0.3 3.8446769158e-24 -4.3041791045 0.25 1.3711139132e-24 
-4.3041791045 0.2 0 -4.3041791045 0.15 1.1850065308e-22 -4.3041791045 0.1 2.6244604621e-22 
-4.3041791045 0.05 0 -4.3041791045 0 0 -4.2541293532 1.5 0 
-4.2541293532 1.45 -1.0249321936e-20 -4.2541293532 1.4 2.6956909415e-21 -4.2541293532 1.35 0 
-4.2541293532 1.3 -1.8607618216e-22 -4.2541293532 1.25 0 -4.2541293532 1.2 1.2277372012e-23 
-4.2541293532 1.15 0 -4.2541293532 1.1 0 -4.2541293532 1.05 -1.7173699122e-25 
-4.2541293532 1 5.0507312495e-27 -4.2541293532 0.95 -2.0375586929e-25 -4.2541293532 0.9 -1.6982651802e-25 
-4.2541293532 0.85 9.6450571615e-27 -4.2541293532 0.8 1.7292545948e-25 -4.2541293532 0.75 0 
-4.2541293532 0.7 4.1391383786e-26 -4.2541293532 0.65 2.3897604351e-26 -4.2541293532 0.6 -3.3939236681e-25 
-4.2541293532 0.55 -6.5507551911e-26 -4.2541293532 0.5 1.3595672575e-26 -4.2541293532 0.45 1.414516843e-25 
-4.2541293532 0.4 3.5645912598e-26 -4.2541293532 0.35 -2.5804362018e-24 -4.2541293532 0.3 -4.2748889158e-24 
-4.2541293532 0.25 1.6067625414e-24 -4.2541293532 0.2 6.121878141e-24 -4.2541293532 0.15 1.3942889308e-22 
-4.2541293532 0.1 0 -4.2541293532 0.05 -1.6784453379e-22 -4.2541293532 0 0 
-4.204079602 1.5 0 -4.204079602 1.45 -1.1080916333e-20 -4.204079602 1.4 0 
-4.204079602 1.35 0 -4.204079602 1.3 2.0127532299e-22 -4.204079602 1.25 0 
-4.204079602 1.2 1.3707671496e-23 -4.204079602 1.15 9.1475805205e-26 -4.204079602 1.1 0 
-4.204079602 1.05 -1.9344644333e-25 -4.204079602 1 1.6049868155e-27 -4.204079602 0.95 2.427423613e-26 
-4.204079602 0.9 1.805766214e-25 -4.204079602 0.85 -1.0398970296e-25 -4.204079602 0.8 -1.153180044e-25 
-4.204079602 0.75 0 -4.204079602 0.7 -1.7421117949e-26 -4.204079602 0.65 2.4469030539e-25 
-4.204079602 0.6 4.0447314497e-26 -4.204079602 0.55 -2.5855759264e-25 -4.204079602 0.5 1.8448744864e-26 
-4.204079602 0.45 -7.4423553685e-26 -4.204079602 0.4 4.6071498321e-26 -4.204079602 0.35 -1.330698794e-24 
-4.204079602 0.3 -5.1185283223e-24 -4.204079602 0.25 -1.3768986548e-25 -4.204079602 0.2 7.275357262e-24 
-4.204079602 0.15 1.6500945605e-22 -4.204079602 0.1 0 -4.204079602 0.05 -1.9854173694e-22 
-4.204079602 0 0 -4.1540298507 1.5 0 -4.1540298507 1.45 1.2660746484e-20 
-4.1540298507 1.4 0 -4.1540298507 1.35 0 -4.1540298507 1.3 2.3076382715e-22 
-4.1540298507 1.25 0 -4.1540298507 1.2 1.5794808125e-23 -4.1540298507 1.15 0 
-4.1540298507 1.1 0 -4.1540298507 1.05 -4.1256044836e-25 -4.1540298507 1 1.2169412058e-26 
-4.1540298507 0.95 0 -4.1540298507 0.9 -3.5794400872e-25 -4.1540298507 0.85 1.3557807251e-26 
-4.1540298507 0.8 -4.3719849728e-25 -4.1540298507 0.75 0 -4.1540298507 0.7 5.3055456478e-25 
-4.1540298507 0.65 2.0413654398e-25 -4.1540298507 0.6 2.0151944862e-27 -4.1540298507 0.55 -2.3393177106e-27 
-4.1540298507 0.5 -3.6646040314e-27 -4.1540298507 0.45 -3.0874926216e-25 -4.1540298507 0.4 -2.8758639205e-25 
-4.1540298507 0.35 -3.1068557056e-24 -4.1540298507 0.3 3.0355468706e-25 -4.1540298507 0.25 2.3037179957e-24 
-4.1540298507 0.2 8.6659865092e-24 -4.1540298507 0.15 1.970555861e-22 -4.1540298507 0.1 3.1098254987e-22 
-4.1540298507 0.05 -2.3674533657e-22 -4.1540298507 0 0 -4.1039800995 1.5 -6.3417363732e-22 
-4.1039800995 1.45 1.3472121808e-20 -4.1039800995 1.4 -4.3792603411e-23 -4.1039800995 1.35 0 
-4.1039800995 1.3 9.7353624712e-22 -4.1039800995 1.25 8.0104821456e-25 -4.1039800995 1.2 6.7982972583e-23 
-4.1039800995 1.15 5.7859224961e-26 -4.1039800995 1.1 0 -4.1039800995 1.05 -3.1562522033e-25 
-4.1039800995 1 1.0858768968e-25 -4.1039800995 0.95 -1.1719472915e-25 -4.1039800995 0.9 -1.9218426588e-25 
-4.1039800995 0.85 0 -4.1039800995 0.8 -1.1099075721e-25 -4.1039800995 0.75 -1.7806580039e-25 
-4.1039800995 0.7 0 -4.1039800995 0.65 2.793455073e-26 -4.1039800995 0.6 1.477556197e-25 
-4.1039800995 0.55 -5.720227639e-27 -4.1039800995 0.5 0 -4.1039800995 0.45 1.4260139976e-26 
-4.1039800995 0.4 -5.6339311863e-25 -4.1039800995 0.35 -2.059411619e-25 -4.1039800995 0.3 3.6160538335e-25 
-4.1039800995 0.25 2.7580009029e-24 -4.1039800995 0.2 0 -4.1039800995 0.15 2.3750935782e-22 
-4.1039800995 0.1 1.4987762714e-22 -4.1039800995 0.05 0 -4.1039800995 0 0 
-4.0539303483 1.5 0 -4.0539303483 1.45 1.4837083717e-20 -4.0539303483 1.4 0 
-4.0539303483 1.35 -4.1531135086e-21 -4.0539303483 1.3 2.7132362178e-22 -4.0539303483 1.25 -7.1854323252e-23 
-4.0539303483 1.2 1.861198819e-23 -4.0539303483 1.15 0 -4.0539303483 1.1 0 
-4.0539303483 1.05 -5.2741859616e-25 -4.0539303483 1 1.7185827858e-27 -4.0539303483 0.95 -1.9824764801e-25 
-4.0539303483 0.9 -3.9897340396e-25 -4.0539303483 0.85 3.149772204e-25 -4.0539303483 0.8 -1.9205928073e-27 
-4.0539303483 0.75 -7.0361856796e-25 -4.0539303483 0.7 1.7392001586e-25 -4.0539303483 0.65 1.0580029898e-25 
-4.0539303483 0.6 -1.4746191692e-25 -4.0539303483 0.55 1.7502560442e-25 -4.0539303483 0.5 -3.3806141055e-27 
-4.0539303483 0.45 -1.8831357194e-25 -4.0539303483 0.4 0 -4.0539303483 0.35 -2.3908614877e-24 
-4.0539303483 0.3 4.5286394366e-25 -4.0539303483 0.25 3.3751173227e-24 -4.0539303483 0.2 1.2750411665e-23 
-4.0539303483 0.15 6.7390506489e-23 -4.0539303483 0.1 0 -4.0539303483 0.05 -5.0683379149e-23 
-4.0539303483 0 1.925068248e-22 -4.003880597 1.5 -7.9942002932e-22 -4.003880597 1.45 0 
-4.003880597 1.4 -5.5380862824e-23 -4.003880597 1.35 0 -4.003880597 1.3 3.0783462882e-22 
-4.003880597 1.25 -8.0444494707e-23 -4.003880597 1.2 2.1219135616e-23 -4.003880597 1.15 7.4583076151e-26 
-4.003880597 1.1 0 -4.003880597 1.05 -5.3549653183e-25 -4.003880597 1 0 
-4.003880597 0.95 1.0107526867e-27 -4.003880597 0.9 -1.0997242407e-25 -4.003880597 0.85 0 
-4.003880597 0.8 9.9762554822e-28 -4.003880597 0.75 -1.2881837272e-25 -4.003880597 0.7 2.4957291066e-25 
-4.003880597 0.65 2.0918323231e-25 -4.003880597 0.6 0 -4.003880597 0.55 -1.9466819166e-25 
-4.003880597 0.5 0 -4.003880597 0.45 -2.6371176327e-25 -4.003880597 0.4 0 
-4.003880597 0.35 -5.8049335508e-24 -4.003880597 0.3 5.6296999337e-25 -4.003880597 0.25 4.1770038992e-24 
-4.003880597 0.2 0 -4.003880597 0.15 4.0161681137e-22 -4.003880597 0.1 2.2586640195e-22 
-4.003880597 0.05 0 -4.003880597 0 -2.143409548e-22 -3.9538308458 1.5 0 
-3.9538308458 1.45 0 -3.9538308458 1.4 -5.1187410528e-21 -3.9538308458 1.35 1.3524146541e-21 
-3.9538308458 1.3 3.5692500119e-22 -3.9538308458 1.25 0 -3.9538308458 1.2 2.4665896103e-23 
-3.9538308458 1.15 0 -3.9538308458 1.1 0 -3.9538308458 1.05 -2.674100418e-25 
-3.9538308458 1 5.6818199737e-27 -3.9538308458 0.95 0 -3.9538308458 0.9 -1.3265401166e-25 
-3.9538308458 0.85 3.7696211394e-27 -3.9538308458 0.8 1.3644222033e-25 -3.9538308458 0.75 0 
-3.9538308458 0.7 6.2440756535e-26 -3.9538308458 0.65 3.0564908811e-27 -3.9538308458 0.6 2.9690658643e-25 
-3.9538308458 0.55 -8.2654232547e-26 -3.9538308458 0.5 1.7906008561e-26 -3.9538308458 0.45 -2.46041279e-26 
-3.9538308458 0.4 0 -3.9538308458 0.35 -3.563674702e-25 -3.9538308458 0.3 -1.6085145226e-23 
-3.9538308458 0.25 5.3058007457e-24 -3.9538308458 0.2 1.501834476e-24 -3.9538308458 0.15 4.520388062e-22 
-3.9538308458 0.1 0 -3.9538308458 0.05 -5.3854370272e-22 -3.9538308458 0 3.0413985678e-22 
-3.9037810945 1.5 0 -3.9037810945 1.45 0 -3.9037810945 1.4 0 
-3.9037810945 1.35 0 -3.9037810945 1.3 -4.2437929813e-22 -3.9037810945 1.25 0 
-3.9037810945 1.2 2.9562638154e-23 -3.9037810945 1.15 -1.1682815535e-25 -3.9037810945 1.1 0 
-3.9037810945 1.05 -7.0891971324e-25 -3.9037810945 1 1.2411247229e-25 -3.9037810945 0.95 0 
-3.9037810945 0.9 -3.0578023623e-25 -3.9037810945 0.85 2.3109976041e-25 -3.9037810945 0.8 2.8172195078e-27 
-3.9037810945 0.75 0 -3.9037810945 0.7 1.3105444826e-25 -3.9037810945 0.65 9.2431818341e-26 
-3.9037810945 0.6 0 -3.9037810945 0.55 2.8820766932e-25 -3.9037810945 0.5 0 
-3.9037810945 0.45 0 -3.9037810945 0.4 0 -3.9037810945 0.35 -1.1188784195e-23 
-3.9037810945 0.3 2.1122085214e-23 -3.9037810945 0.25 0 -3.9037810945 0.2 -1.2908510908e-22 
-3.9037810945 0.15 4.8553871224e-22 -3.9037810945 0.1 0 -3.9037810945 0.05 1.0469842713e-22 
-3.9037810945 0 0 -3.8537313433 1.5 0 -3.8537313433 1.45 2.7935876458e-20 
-3.8537313433 1.4 0 -3.8537313433 1.35 -8.3298331686e-21 -3.8537313433 1.3 0 
-3.8537313433 1.25 1.3943761472e-22 -3.8537313433 1.2 3.6714896038e-23 -3.8537313433 1.15 0 
-3.8537313433 1.1 0 -3.8537313433 1.05 -6.7686040605e-25 -3.8537313433 1 0 
-3.8537313433 0.95 -2.8172195078e-27 -3.8537313433 0.9 3.626985227e-26 -3.8537313433 0.85 -2.4477663636e-25 
-3.8537313433 0.8 3.6333552788e-25 -3.8537313433 0.75 0 -3.8537313433 0.7 1.0505359282e-25 
-3.8537313433 0.65 1.556669085e-25 -3.8537313433 0.6 -2.7289154041e-25 -3.8537313433 0.55 -8.2131550568e-26 
-3.8537313433 0.5 0 -3.8537313433 0.45 0 -3.8537313433 0.4 0 
-3.8537313433 0.35 -4.1777844771e-24 -3.8537313433 0.3 2.4467107888e-23 -3.8537313433 0.25 0 
-3.8537313433 0.2 1.721067177e-22 -3.8537313433 0.15 6.4490219612e-22 -3.8537313433 0.1 1.2093253328e-21 
-3.8537313433 0.05 0 -3.8537313433 0 0 -3.803681592 1.5 0 
-3.803681592 1.45 0 -3.803681592 1.4 0 -3.803681592 1.35 0 
-3.803681592 1.3 0 -3.803681592 1.25 1.8161504121e-22 -3.803681592 1.2 4.8491768938e-23 
-3.803681592 1.15 0 -3.803681592 1.1 0 -3.803681592 1.05 -1.0895924317e-24 
-3.803681592 1 0 -3.803681592 0.95 0 -3.803681592 0.9 0 
-3.803681592 0.85 0 -3.803681592 0.8 0 -3.803681592 0.75 -3.2584885766e-25 
-3.803681592 0.7 2.3505787e-25 -3.803681592 0.65 5.449628627e-25 -3.803681592 0.6 -2.1722029513e-25 
-3.803681592 0.55 0 -3.803681592 0.5 2.0818483023e-25 -3.803681592 0.45 5.5378957528e-25 
-3.803681592 0.4 0 -3.803681592 0.35 0 -3.803681592 0.3 3.4714063948e-23 
-3.803681592 0.25 0 -3.803681592 0.2 2.3955878059e-22 -3.803681592 0.15 8.9201321547e-22 
-3.803681592 0.1 1.6634136627e-21 -3.803681592 0.05 -2.4955120216e-21 -3.803681592 0 -7.4310449885e-22 
-3.7536318408 1.5 0 -3.7536318408 1.45 -4.8019143184e-20 -3.7536318408 1.4 1.2941915191e-20 
-3.7536318408 1.35 1.5595060655e-20 -3.7536318408 1.3 0 -3.7536318408 1.25 -7.4157697699e-24 
-3.7536318408 1.2 7.038954108e-23 -3.7536318408 1.15 -5.8075417222e-25 -3.7536318408 1.1 0 
-3.7536318408 1.05 -2.1033733582e-24 -3.7536318408 1 0 -3.7536318408 0.95 0 
-3.7536318408 0.9 -6.7662017325e-27 -3.7536318408 0.85 2.8724890749e-25 -3.7536318408 0.8 1.2140487487e-24 
-3.7536318408 0.75 -3.4196429988e-25 -3.7536318408 0.7 0 -3.7536318408 0.65 2.584081528e-25 
-3.7536318408 0.6 3.639666166e-25 -3.7536318408 0.55 0 -3.7536318408 0.5 3.7693795508e-25 
-3.7536318408 0.45 2.9730297917e-24 -3.7536318408 0.4 4.2084668276e-24 -3.7536318408 0.35 0 
-3.7536318408 0.3 -5.6452382058e-23 -3.7536318408 0.25 -9.7653066214e-23 -3.7536318408 0.2 0 
-3.7536318408 0.15 4.5430148646e-22 -3.7536318408 0.1 2.4188627114e-21 -3.7536318408 0.05 1.3529504232e-21 
-3.7536318408 0 -5.5433288626e-22 -3.7035820896 1.5 0 -3.7035820896 1.45 0 
-3.7035820896 1.4 0 -3.7035820896 1.35 1.6498932432e-22 -3.7035820896 1.3 -2.1763271358e-21 
-3.7035820896 1.25 -6.8010222994e-24 -3.7035820896 1.2 2.1709330943e-22 -3.7035820896 1.15 -6.784165821e-25 
-3.7035820896 1.1 0 -3.7035820896 1.05 5.2464977327e-23 -3.7035820896 1 2.6232488664e-23 
-3.7035820896 0.95 0 -3.7035820896 0.9 4.0398010691e-26 -3.7035820896 0.85 3.3105780483e-26 
-3.7035820896 0.8 1.5872331064e-24 -3.7035820896 0.75 -1.5297137079e-24 -3.7035820896 0.7 5.5403575707e-23 
-3.7035820896 0.65 7.7699155613e-25 -3.7035820896 0.6 -5.7140495959e-23 -3.7035820896 0.55 -6.1280603453e-25 
-3.7035820896 0.5 9.699204574e-25 -3.7035820896 0.45 3.1319286634e-24 -3.7035820896 0.4 7.7938870721e-25 
-3.7035820896 0.35 -1.3185539846e-24 -3.7035820896 0.3 1.0129860072e-22 -3.7035820896 0.25 0 
-3.7035820896 0.2 1.2102570217e-22 -3.7035820896 0.15 8.8587075319e-22 -3.7035820896 0.1 3.8505382722e-21 
-3.7035820896 0.05 3.0895870386e-21 -3.7035820896 0 -1.8338840557e-21 -3.6535323383 1.5 0 
-3.6535323383 1.45 -1.3021362173e-19 -3.6535323383 1.4 0 -3.6535323383 1.35 0 
-3.6535323383 1.3 -1.6578436232e-21 -3.6535323383 1.25 0 -3.6535323383 1.2 -1.105658761e-21 
-3.6535323383 1.15 0 -3.6535323383 1.1 0 -3.6535323383 1.05 -1.3282914138e-21 
-3.6535323383 1 0 -3.6535323383 0.95 6.6347877234e-22 -3.6535323383 0.9 2.448318298e-22 
-3.6535323383 0.85 -6.6354026563e-22 -3.6535323383 0.8 0 -3.6535323383 0.75 -1.3272023061e-21 
-3.6535323383 0.7 0 -3.6535323383 0.65 6.6336956875e-22 -3.6535323383 0.6 -2.4314412185e-22 
-3.6535323383 0.55 -6.6220387215e-22 -3.6535323383 0.5 0 -3.6535323383 0.45 6.5453720438e-22 
-3.6535323383 0.4 -3.4357527849e-22 -3.6535323383 0.35 2.7981700946e-23 -3.6535323383 0.3 2.5958222237e-23 
-3.6535323383 0.25 0 -3.6535323383 0.2 0 -3.6535323383 0.15 4.1967751548e-21 
-3.6535323383 0.1 7.4814608996e-21 -3.6535323383 0.05 1.1666538396e-21 -3.6535323383 0 -1.8880664053e-21 
-3.6034825871 1.5 0 -3.6034825871 1.45 -3.047020599e-19 -3.6034825871 1.4 -9.6448109126e-20 
-3.6034825871 1.35 0 -3.6034825871 1.3 -1.966667789e-20 -3.6034825871 1.25 0 
-3.6034825871 1.2 1.5050504393e-20 -3.6034825871 1.15 2.1704926448e-21 -3.6034825871 1.1 0 
-3.6034825871 1.05 1.4838915793e-20 -3.6034825871 1 0 -3.6034825871 0.95 7.4320554373e-21 
-3.6034825871 0.9 -7.4320554373e-21 -3.6034825871 0.85 -3.4877320896e-19 -3.6034825871 0.8 -1.4873066074e-20 
-3.6034825871 0.75 7.4363351276e-21 -3.6034825871 0.7 -7.4359990855e-21 -3.6034825871 0.65 -7.4347284262e-21 
-3.6034825871 0.6 6.9956484201e-19 -3.6034825871 0.55 1.485749343e-20 -3.6034825871 0.5 -3.7097204665e-21 
-3.6034825871 0.45 -3.7100136955e-21 -3.6034825871 0.4 3.6803555547e-21 -3.6034825871 0.35 3.4746641869e-19 
-3.6034825871 0.3 -1.6874372162e-22 -3.6034825871 0.25 0 -3.6034825871 0.2 0 
-3.6034825871 0.15 -8.3041682745e-20 -3.6034825871 0.1 0 -3.6034825871 0.05 -2.6084264969e-20 
-3.6034825871 0 1.724474314e-20 -3.5534328358 1.5 0.0003205401008 -3.5534328358 1.45 0.00021516739798 
-3.5534328358 1.4 0.00019987483392 -3.5534328358 1.35 0.00019266425807 -3.5534328358 1.3 0.00019018392777 
-3.5534328358 1.25 0.00018918733986 -3.5534328358 1.2 0.00018894670939 -3.5534328358 1.15 0.00018901193107 
-3.5534328358 1.1 0.00018919064314 -3.5534328358 1.05 0.00018938459107 -3.5534328358 1 0.00018955270934 
-3.5534328358 0.95 0.00018968203221 -3.5534328358 0.9 0.00018977318541 -3.5534328358 0.85 0.00018983181508 
-3.5534328358 0.8 0.00018986406212 -3.5534328358 0.75 0.00018987427757 -3.5534328358 0.7 0.00018986413488 
-3.5534328358 0.65 0.0001898323826 -3.5534328358 0.6 0.00018977522268 -3.5534328358 0.55 0.00018968746008 
-3.5534328358 0.5 0.00018956487474 -3.5534328358 0.45 0.00018940916925 -3.5534328358 0.4 0.0001892367145 
-3.5534328358 0.35 0.00018909326172 -3.5534328358 0.3 0.00018908265338 -3.5534328358 0.25 0.00018940292648 
-3.5534328358 0.2 0.00019050521951 -3.5534328358 0.15 0.00019311354845 -3.5534328358 0.1 0.00020041990501 
-3.5534328358 0.05 0.00021574365383 -3.5534328358 0 0.00031968546682 -3.5033830846 1.5 0.0091360779479 
-3.5033830846 1.45 0.0071209683083 -3.5033830846 1.4 0.0065420987085 -3.5033830846 1.35 0.0063107889146 
-3.5033830846 1.3 0.0062165055424 -3.5033830846 1.25 0.0061780796386 -3.5033830846 1.2 0.0061657405458 
-3.5033830846 1.15 0.0061650183052 -3.5033830846 1.1 0.006168927066 -3.5033830846 1.05 0.006174004171 
-3.5033830846 1 0.0061786910519 -3.5033830846 0.95 0.0061824177392 -3.5033830846 0.9 0.0061851004139 
-3.5033830846 0.85 0.0061868513003 -3.5033830846 0.8 0.0061878240667 -3.5033830846 0.75 0.0061881351285 
-3.5033830846 0.7 0.0061878301203 -3.5033830846 0.65 0.0061868769117 -3.5033830846 0.6 0.006185177248 
-3.5033830846 0.55 0.0061826054007 -3.5033830846 0.5 0.0061790933833 -3.5033830846 0.45 0.0061747939326 
-3.5033830846 0.4 0.0061703752726 -3.5033830846 0.35 0.0061675282195 -3.5033830846 0.3 0.0061698667705 
-3.5033830846 0.25 0.0061845034361 -3.5033830846 0.2 0.006225889083 -3.5033830846 0.15 0.0063234209083 
-3.5033830846 0.1 0.006556768436 -3.5033830846 0.05 0.0071324957535 -3.5033830846 0 0.0091179404408 
-3.4533333333 1.5 0.024835301563 -3.4533333333 1.45 0.021930629387 -3.4533333333 1.4 0.020538209006 
-3.4533333333 1.35 0.019888870418 -3.4533333333 1.3 0.019586402923 -3.4533333333 1.25 0.019451217726 
-3.4533333333 1.2 0.019398353994 -3.4533333333 1.15 0.019385036081 -3.4533333333 1.1 0.01938909106 
-3.4533333333 1.05 0.01939919591 -3.4533333333 1 0.019409911707 -3.4533333333 0.95 0.019418986514 
-3.4533333333 0.9 0.019425759092 -3.4533333333 0.85 0.01943028532 -3.4533333333 0.8 0.019432839006 
-3.4533333333 0.75 0.019433666021 -3.4533333333 0.7 0.019432870671 -3.4533333333 0.65 0.019430387765 
-3.4533333333 0.6 0.019426021725 -3.4533333333 0.55 0.019419573247 -3.4533333333 0.5 0.0194111038 
-3.4533333333 0.45 0.019401447847 -3.4533333333 0.4 0.01939310506 -3.4533333333 0.35 0.019391819835 
-3.4533333333 0.3 0.019409246743 -3.4533333333 0.25 0.019467735663 -3.4533333333 0.2 0.019609767944 
-3.4533333333 0.15 0.019918771461 -3.4533333333 0.1 0.020570039749 -3.4533333333 0.05 0.021949443966 
-3.4533333333 0 0.024803882465 -3.4032835821 1.5 0.045409537852 -3.4032835821 1.45 0.042378295213 
-3.4032835821 1.4 0.040573339909 -3.4032835821 1.35 0.039583083242 -3.4032835821 1.3 0.039068609476 
-3.4032835821 1.25 0.038818255067 -3.4032835821 1.2 0.038709662855 -3.4032835821 1.15 0.038673568517 
-3.4032835821 1.1 0.038671500981 -3.4032835821 1.05 0.038682896644 -3.4032835821 1 0.038697488606 
-3.4032835821 0.95 0.038710683584 -3.4032835821 0.9 0.038720883429 -3.4032835821 0.85 0.038727838546 
-3.4032835821 0.8 0.038731817156 -3.4032835821 0.75 0.038733117282 -3.4032835821 0.7 0.038731887937 
-3.4032835821 0.65 0.038728039712 -3.4032835821 0.6 0.038721363991 -3.4032835821 0.55 0.038711711764 
-3.4032835821 0.5 0.038699503988 -3.4032835821 0.45 0.038686610758 -3.4032835821 0.4 0.038677975535 
-3.4032835821 0.35 0.038684312254 -3.4032835821 0.3 0.0387266092 -3.4032835821 0.25 0.038843464106 
-3.4032835821 0.2 0.039103463292 -3.4032835821 0.15 0.039626274258 -3.4032835821 0.1 0.040616970509 
-3.4032835821 0.05 0.04240142554 -3.4032835821 0 0.045370478183 -3.3532338308 1.5 0.069637611508 
-3.3532338308 1.45 0.066914625466 -3.3532338308 1.4 0.065091595054 -3.3532338308 1.35 0.06397767365 
-3.3532338308 1.3 0.063349381089 -3.3532338308 1.25 0.063023649156 -3.3532338308 1.2 0.06287305057 
-3.3532338308 1.15 0.062816694379 -3.3532338308 1.1 0.062806561589 -3.3532338308 1.05 0.062815971673 
-3.3532338308 1 0.062831178308 -3.3532338308 0.95 0.062845826149 -3.3532338308 0.9 0.062857463956 
-3.3532338308 0.85 0.062865532935 -3.3532338308 0.8 0.062870196998 -3.3532338308 0.75 0.062871731818 
-3.3532338308 0.7 0.062870293856 -3.3532338308 0.65 0.062865816057 -3.3532338308 0.6 0.062858089805 
-3.3532338308 0.55 0.062847115099 -3.3532338308 0.5 0.062833666801 -3.3532338308 0.45 0.062820479274 
-3.3532338308 0.4 0.062814287841 -3.3532338308 0.35 0.062829330564 -3.3532338308 0.3 0.062892727554 
-3.3532338308 0.25 0.06305257231 -3.3532338308 0.2 0.063388943672 -3.3532338308 0.15 0.064026154578 
-3.3532338308 0.1 0.065139904618 -3.3532338308 0.05 0.066939748824 -3.3532338308 0 0.069595716894 
-3.3031840796 1.5 0.096462912858 -3.3031840796 1.45 0.094302542508 -3.3031840796 1.4 0.09273467958 
-3.3031840796 1.35 0.091709420085 -3.3031840796 1.3 0.091101534665 -3.3031840796 1.25 0.090774543583 
-3.3031840796 1.2 0.090618111193 -3.3031840796 1.15 0.090556263924 -3.3031840796 1.1 0.090541921556 
-3.3031840796 1.05 0.090548291802 -3.3031840796 1 0.090561382473 -3.3031840796 0.95 0.090574599802 
-3.3031840796 0.9 0.090585313737 -3.3031840796 0.85 0.090592831373 -3.3031840796 0.8 0.090597197413 
-3.3031840796 0.75 0.090598642826 -3.3031840796 0.7 0.090597301722 -3.3031840796 0.65 0.090593114495 
-3.3031840796 0.6 0.090585947037 -3.3031840796 0.55 0.090575866401 -3.3031840796 0.5 0.09056378901 
-3.3031840796 0.45 0.090552575886 -3.3031840796 0.4 0.090549170971 -3.3031840796 0.35 0.090567968786 
-3.3031840796 0.3 0.090636149049 -3.3031840796 0.25 0.090800888836 -3.3031840796 0.2 0.091137520969 
-3.3031840796 0.15 0.091753840446 -3.3031840796 0.1 0.092779867351 -3.3031840796 0.05 0.094327218831 
-3.3031840796 0 0.096422769129 -3.2531343284 1.5 0.12491715699 -3.2531343284 1.45 0.12345091999 
-3.2531343284 1.4 0.12230220437 -3.2531343284 1.35 0.12152734399 -3.2531343284 1.3 0.12106152624 
-3.2531343284 1.25 0.12080893666 -3.2531343284 1.2 0.12068711966 -3.2531343284 1.15 0.12063810974 
-3.2531343284 1.1 0.12062577158 -3.2531343284 1.05 0.12062955648 -3.2531343284 1 0.12063873559 
-3.2531343284 0.95 0.12064823508 -3.2531343284 0.9 0.12065602839 -3.2531343284 0.85 0.12066152692 
-3.2531343284 0.8 0.12066473067 -3.2531343284 0.75 0.120665811 -3.2531343284 0.7 0.12066482008 
-3.2531343284 0.65 0.12066175789 -3.2531343284 0.6 0.12065652013 -3.2531343284 0.55 0.12064920366 
-3.2531343284 0.5 0.12064052373 -3.2531343284 0.45 0.12063270807 -3.2531343284 0.4 0.12063102424 
-3.2531343284 0.35 0.12064647675 -3.2531343284 0.3 0.12069984525 -3.2531343284 0.25 0.12082734704 
-3.2531343284 0.2 0.12108664215 -3.2531343284 0.15 0.12155885249 -3.2531343284 0.1 0.1223359704 
-3.2531343284 0.05 0.12347208709 -3.2531343284 0 0.12488391995 -3.2030845771 1.5 0.15408447385 
-3.2030845771 1.45 0.15333847702 -3.2030845771 1.4 0.15269939601 -3.2030845771 1.35 0.1522847712 
-3.2030845771 1.3 0.15204189718 -3.2030845771 1.25 0.15191288292 -3.2030845771 1.2 0.15185141563 
-3.2030845771 1.15 0.15182676911 -3.2030845771 1.1 0.15182042122 -3.2030845771 1.05 0.15182210505 
-3.2030845771 1 0.15182650089 -3.2030845771 0.95 0.15183112025 -3.2030845771 0.9 0.15183492005 
-3.2030845771 0.85 0.15183761716 -3.2030845771 0.8 0.15183921158 -3.2030845771 0.75 0.15183973312 
-3.2030845771 0.7 0.15183925629 -3.2030845771 0.65 0.15183775127 -3.2030845771 0.6 0.15183518827 
-3.2030845771 0.55 0.15183161199 -3.2030845771 0.5 0.15182740986 -3.2030845771 0.45 0.15182366967 
-3.2030845771 0.4 0.15182298422 -3.2030845771 0.35 0.15183074772 -3.2030845771 0.3 0.15185728669 
-3.2030845771 0.25 0.15192112327 -3.2030845771 0.2 0.15205283463 -3.2030845771 0.15 0.15229836106 
-3.2030845771 0.1 0.152714625 -3.2030845771 0.05 0.15335160494 -3.2030845771 0 0.15406486392 
-3.1530348259 1.5 0.18302989006 -3.1530348259 1.45 0.18298070133 -3.1530348259 1.4 0.18293789029 
-3.1530348259 1.35 0.18291218579 -3.1530348259 1.3 0.18289755285 -3.1530348259 1.25 0.18288995326 
-3.1530348259 1.2 0.18288637698 -3.1530348259 1.15 0.18288494647 -3.1530348259 1.1 0.18288457394 
-3.1530348259 1.05 0.18288464844 -3.1530348259 1 0.18288490176 -3.1530348259 0.95 0.18288515508 
-3.1530348259 0.9 0.1828853786 -3.1530348259 0.85 0.18288554251 -3.1530348259 0.8 0.18288563192 
-3.1530348259 0.75 0.18288566172 -3.1530348259 0.7 0.18288563192 -3.1530348259 0.65 0.18288554251 
-3.1530348259 0.6 0.1828853935 -3.1530348259 0.55 0.18288518488 -3.1530348259 0.5 0.18288496137 
-3.1530348259 0.45 0.18288475275 -3.1530348259 0.4 0.18288472295 -3.1530348259 0.35 0.18288516998 
-3.1530348259 0.3 0.1828867048 -3.1530348259 0.25 0.18289038539 -3.1530348259 0.2 0.18289808929 
-3.1530348259 0.15 0.18291281164 -3.1530348259 0.1 0.18293853104 -3.1530348259 0.05 0.18298150599 
-3.1530348259 0 0.18302872777 -3.1029850746 1.5 0.21054698527 -3.1029850746 1.45 0.21154856682 
-3.1029850746 1.4 0.21204164624 -3.1029850746 1.35 0.21229381859 -3.1029850746 1.3 0.21241535246 
-3.1029850746 1.25 0.21247290075 -3.1029850746 1.2 0.21249940991 -3.1029850746 1.15 0.2125107348 
-3.1029850746 1.1 0.21251453459 -3.1029850746 1.05 0.21251475811 -3.1029850746 1 0.21251344681 
-3.1029850746 0.95 0.21251174808 -3.1029850746 0.9 0.21251016855 -3.1029850746 0.85 0.21250899136 
-3.1029850746 0.8 0.2125082612 -3.1029850746 0.75 0.21250800788 -3.1029850746 0.7 0.2125082165 
-3.1029850746 0.65 0.21250890195 -3.1029850746 0.6 0.21250998974 -3.1029850746 0.55 0.21251142025 
-3.1029850746 0.5 0.21251291037 -3.1029850746 0.45 0.21251387894 -3.1029850746 0.4 0.21251325309 
-3.1029850746 0.35 0.21250899136 -3.1029850746 0.3 0.21249739826 -3.1029850746 0.25 0.21247118711 
-3.1029850746 0.2 0.21241514385 -3.1029850746 0.15 0.21229703724 -3.1029850746 0.1 0.21204994619 
-3.1029850746 0.05 0.21156109869 -3.1029850746 0 0.2105346173 -3.0529353234 1.5 0.23574972153 
-3.0529353234 1.45 0.23760160804 -3.0529353234 1.4 0.23849102855 -3.0529353234 1.35 0.23887374997 
-3.0529353234 1.3 0.23903052509 -3.0529353234 1.25 0.2390948385 -3.0529353234 1.2 0.23912186921 
-3.0529353234 1.15 0.23913304508 -3.0529353234 1.1 0.23913682997 -3.0529353234 1.05 0.23913699389 
-3.0529353234 1 0.23913553357 -3.0529353234 0.95 0.23913355172 -3.0529353234 0.9 0.23913168907 
-3.0529353234 0.85 0.23913022876 -3.0529353234 0.8 0.23912933469 -3.0529353234 0.75 0.23912900686 
-3.0529353234 0.7 0.23912927508 -3.0529353234 0.65 0.23913010955 -3.0529353234 0.6 0.23913145065 
-3.0529353234 0.55 0.23913310468 -3.0529353234 0.5 0.23913478851 -3.0529353234 0.45 0.23913583159 
-3.0529353234 0.4 0.23913516104 -3.0529353234 0.35 0.23913100362 -3.0529353234 0.3 0.23911997676 
-3.0529353234 0.25 0.23909443617 -3.0529353234 0.2 0.23903417587 -3.0529353234 0.15 0.23888500035 
-3.0529353234 0.1 0.23851183057 -3.0529353234 0.05 0.2376229167 -3.0529353234 0 0.23572807014 
-3.0028855721 1.5 0.25745421648 -3.0028855721 1.45 0.25968518853 -3.0028855721 1.4 0.26059916615 
-3.0028855721 1.35 0.26092666388 -3.0028855721 1.3 0.26103678346 -3.0028855721 1.25 0.26107338071 
-3.0028855721 1.2 0.2610861659 -3.0028855721 1.15 0.26109090447 -3.0028855721 1.1 0.26109224558 
-3.0028855721 1.05 0.26109191775 -3.0028855721 1 0.26109072566 -3.0028855721 0.95 0.26108926535 
-3.0028855721 0.9 0.26108789444 -3.0028855721 0.85 0.26108682156 -3.0028855721 0.8 0.2610861361 
-3.0028855721 0.75 0.26108589768 -3.0028855721 0.7 0.2610861063 -3.0028855721 0.65 0.26108673215 
-3.0028855721 0.6 0.26108768582 -3.0028855721 0.55 0.26108890772 -3.0028855721 0.5 0.26109012961 
-3.0028855721 0.45 0.26109102368 -3.0028855721 0.4 0.26109099388 -3.0028855721 0.35 0.26108947396 
-3.0028855721 0.3 0.26108518243 -3.0028855721 0.25 0.26107424498 -3.0028855721 0.2 0.26104217768 
-3.0028855721 0.15 0.26094025373 -3.0028855721 0.1 0.26062259078 -3.0028855721 0.05 0.2597078979 
-3.0028855721 0 0.25743114948 -2.9528358209 1.5 0.27425262332 -2.9528358209 1.45 0.27606895566 
-2.9528358209 1.4 0.27653646469 -2.9528358209 1.35 0.27667406201 -2.9528358209 1.3 0.2767085731 
-2.9528358209 1.25 0.27671647072 -2.9528358209 1.2 0.27671787143 -2.9528358209 1.15 0.27671810985 
-2.9528358209 1.1 0.27671793103 -2.9528358209 1.05 0.2767175138 -2.9528358209 1 0.27671691775 
-2.9528358209 0.95 0.2767162323 -2.9528358209 0.9 0.27671563625 -2.9528358209 0.85 0.27671515942 
-2.9528358209 0.8 0.27671486139 -2.9528358209 0.75 0.27671477199 -2.9528358209 0.7 0.27671483159 
-2.9528358209 0.65 0.27671512961 -2.9528358209 0.6 0.27671554685 -2.9528358209 0.55 0.27671608329 
-2.9528358209 0.5 0.27671664953 -2.9528358209 0.45 0.27671709657 -2.9528358209 0.4 0.27671736479 
-2.9528358209 0.35 0.2767174542 -2.9528358209 0.3 0.2767175138 -2.9528358209 0.25 0.27671715617 
-2.9528358209 0.2 0.27671179175 -2.9528358209 0.15 0.27668198943 -2.9528358209 0.1 0.2765506506 
-2.9528358209 0.05 0.27608537674 -2.9528358209 0 0.27423596382 -2.9027860697 1.5 0.28408262134 
-2.9027860697 1.45 0.28434795141 -2.9027860697 1.4 0.28437697887 -2.9027860697 1.35 0.28438726068 
-2.9027860697 1.3 0.28438851237 -2.9027860697 1.25 0.28438860178 -2.9027860697 1.2 0.28438842297 
-2.9027860697 1.15 0.28438833356 -2.9027860697 1.1 0.28438827395 -2.9027860697 1.05 0.28438824415 
-2.9027860697 1 0.28438818455 -2.9027860697 0.95 0.28438812494 -2.9027860697 0.9 0.28438806534 
-2.9027860697 0.85 0.28438803554 -2.9027860697 0.8 0.28438800573 -2.9027860697 0.75 0.28438800573 
-2.9027860697 0.7 0.28438800573 -2.9027860697 0.65 0.28438803554 -2.9027860697 0.6 0.28438806534 
-2.9027860697 0.55 0.28438809514 -2.9027860697 0.5 0.28438815475 -2.9027860697 0.45 0.28438821435 
-2.9027860697 0.4 0.28438824415 -2.9027860697 0.35 0.28438827395 -2.9027860697 0.3 0.28438839316 
-2.9027860697 0.25 0.28438866138 -2.9027860697 0.2 0.2843888104 -2.9027860697 0.15 0.28438803554 
-2.9027860697 0.1 0.28437840939 -2.9027860697 0.05 0.28435018659 -2.9027860697 0 0.28408035636 
-2.8527363184 1.5 0.28499999642 -2.8527363184 1.45 0.28499999642 -2.8527363184 1.4 0.28499999642 
-2.8527363184 1.35 0.28499999642 -2.8527363184 1.3 0.28499999642 -2.8527363184 1.25 0.28499999642 
-2.8527363184 1.2 0.28499999642 -2.8527363184 1.15 0.28499999642 -2.8527363184 1.1 0.28499999642 
-2.8527363184 1.05 0.28499999642 -2.8527363184 1 0.28499999642 -2.8527363184 0.95 0.28499999642 
-2.8527363184 0.9 0.28499999642 -2.8527363184 0.85 0.28499999642 -2.8527363184 0.8 0.28499999642 
-2.8527363184 0.75 0.28499999642 -2.8527363184 0.7 0.28499999642 -2.8527363184 0.65 0.28499999642 
-2.8527363184 0.6 0.28499999642 -2.8527363184 0.55 0.28499999642 -2.8527363184 0.5 0.28499999642 
-2.8527363184 0.45 0.28499999642 -2.8527363184 0.4 0.28499999642 -2.8527363184 0.35 0.28499999642 
-2.8527363184 0.3 0.28499999642 -2.8527363184 0.25 0.28499999642 -2.8527363184 0.2 0.28499999642 
-2.8527363184 0.15 0.28499999642 -2.8527363184 0.1 0.28499999642 -2.8527363184 0.05 0.28499999642 
-2.8527363184 0 0.28499999642 -2.8026865672 1.5 0.28499999642 -2.8026865672 1.45 0.28499999642 
-2.8026865672 1.4 0.28499999642 -2.8026865672 1.35 0.28499999642 -2.8026865672 1.3 0.28499999642 
-2.8026865672 1.25 0.28499999642 -2.8026865672 1.2 0.28499999642 -2.8026865672 1.15 0.28499999642 
-2.8026865672 1.1 0.28499999642 -2.8026865672 1.05 0.28499999642 -2.8026865672 1 0.28499999642 
-2.8026865672 0.95 0.28499999642 -2.8026865672 0.9 0.28499999642 -2.8026865672 0.85 0.28499999642 
-2.8026865672 0.8 0.28499999642 -2.8026865672 0.75 0.28499999642 -2.8026865672 0.7 0.28499999642 
-2.8026865672 0.65 0.28499999642 -2.8026865672 0.6 0.28499999642 -2.8026865672 0.55 0.28499999642 
-2.8026865672 0.5 0.28499999642 -2.8026865672 0.45 0.28499999642 -2.8026865672 0.4 0.28499999642 
-2.8026865672 0.35 0.28499999642 -2.8026865672 0.3 0.28499999642 -2.8026865672 0.25 0.28499999642 
-2.8026865672 0.2 0.28499999642 -2.8026865672 0.15 0.28499999642 -2.8026865672 0.1 0.28499999642 
-2.8026865672 0.05 0.28499999642 -2.8026865672 0 0.28499999642 -2.7526368159 1.5 0.28499999642 
-2.7526368159 1.45 0.28499999642 -2.7526368159 1.4 0.28499999642 -2.7526368159 1.35 0.28499999642 
-2.7526368159 1.3 0.28499999642 -2.7526368159 1.25 0.28499999642 -2.7526368159 1.2 0.28499999642 
-2.7526368159 1.15 0.28499999642 -2.7526368159 1.1 0.28499999642 -2.7526368159 1.05 0.28499999642 
-2.7526368159 1 0.28499999642 -2.7526368159 0.95 0.28499999642 -2.7526368159 0.9 0.28499999642 
-2.7526368159 0.85 0.28499999642 -2.7526368159 0.8 0.28499999642 -2.7526368159 0.75 0.28499999642 
-2.7526368159 0.7 0.28499999642 -2.7526368159 0.65 0.28499999642 -2.7526368159 0.6 0.28499999642 
-2.7526368159 0.55 0.28499999642 -2.7526368159 0.5 0.28499999642 -2.7526368159 0.45 0.28499999642 
-2.7526368159 0.4 0.28499999642 -2.7526368159 0.35 0.28499999642 -2.7526368159 0.3 0.28499999642 
-2.7526368159 0.25 0.28499999642 -2.7526368159 0.2 0.28499999642 -2.7526368159 0.15 0.28499999642 
-2.7526368159 0.1 0.28499999642 -2.7526368159 0.05 0.28499999642 -2.7526368159 0 0.28499999642 
-2.7025870647 1.5 0.28499999642 -2.7025870647 1.45 0.28499999642 -2.7025870647 1.4 0.28499999642 
-2.7025870647 1.35 0.28499999642 -2.7025870647 1.3 0.28499999642 -2.7025870647 1.25 0.28499999642 
-2.7025870647 1.2 0.28499999642 -2.7025870647 1.15 0.28499999642 -2.7025870647 1.1 0.28499999642 
-2.7025870647 1.05 0.28499999642 -2.7025870647 1 0.28499999642 -2.7025870647 0.95 0.28499999642 
-2.7025870647 0.9 0.28499999642 -2.7025870647 0.85 0.28499999642 -2.7025870647 0.8 0.28499999642 
-2.7025870647 0.75 0.28499999642 -2.7025870647 0.7 0.28499999642 -2.7025870647 0.65 0.28499999642 
-2.7025870647 0.6 0.28499999642 -2.7025870647 0.55 0.28499999642 -2.7025870647 0.5 0.28499999642 
-2.7025870647 0.45 0.28499999642 -2.7025870647 0.4 0.28499999642 -2.7025870647 0.35 0.28499999642 
-2.7025870647 0.3 0.28499999642 -2.7025870647 0.25 0.28499999642 -2.7025870647 0.2 0.28499999642 
-2.7025870647 0.15 0.28499999642 -2.7025870647 0.1 0.28499999642 -2.7025870647 0.05 0.28499999642 
-2.7025870647 0 0.28499999642 -2.6525373134 1.5 0.28499999642 -2.6525373134 1.45 0.28499999642 
-2.6525373134 1.4 0.28499999642 -2.6525373134 1.35 0.28499999642 -2.6525373134 1.3 0.28499999642 
-2.6525373134 1.25 0.28499999642 -2.6525373134 1.2 0.28499999642 -2.6525373134 1.15 0.28499999642 
-2.6525373134 1.1 0.28499999642 -2.6525373134 1.05 0.28499999642 -2.6525373134 1 0.28499999642 
-2.6525373134 0.95 0.28499999642 -2.6525373134 0.9 0.28499999642 -2.6525373134 0.85 0.28499999642 
-2.6525373134 0.8 0.28499999642 -2.6525373134 0.75 0.28499999642 -2.6525373134 0.7 0.28499999642 
-2.6525373134 0.65 0.28499999642 -2.6525373134 0.6 0.28499999642 -2.6525373134 0.55 0.28499999642 
-2.6525373134 0.5 0.28499999642 -2.6525373134 0.45 0.28499999642 -2.6525373134 0.4 0.28499999642 
-2.6525373134 0.35 0.28499999642 -2.6525373134 0.3 0.28499999642 -2.6525373134 0.25 0.28499999642 
-2.6525373134 0.2 0.28499999642 -2.6525373134 0.15 0.28499999642 -2.6525373134 0.1 0.28499999642 
-2.6525373134 0.05 0.28499999642 -2.6525373134 0 0.28499999642 -2.6024875622 1.5 0.28499999642 
-2.6024875622 1.45 0.28499999642 -2.6024875622 1.4 0.28499999642 -2.6024875622 1.35 0.28499999642 
-2.6024875622 1.3 0.28499999642 -2.6024875622 1.25 0.28499999642 -2.6024875622 1.2 0.28499999642 
-2.6024875622 1.15 0.28499999642 -2.6024875622 1.1 0.28499999642 -2.6024875622 1.05 0.28499999642 
-2.6024875622 1 0.28499999642 -2.6024875622 0.95 0.28499999642 -2.6024875622 0.9 0.28499999642 
-2.6024875622 0.85 0.28499999642 -2.6024875622 0.8 0.28499999642 -2.6024875622 0.75 0.28499999642 
-2.6024875622 0.7 0.28499999642 -2.6024875622 0.65 0.28499999642 -2.6024875622 0.6 0.28499999642 
-2.6024875622 0.55 0.28499999642 -2.6024875622 0.5 0.28499999642 -2.6024875622 0.45 0.28499999642 
-2.6024875622 0.4 0.28499999642 -2.6024875622 0.35 0.28499999642 -2.6024875622 0.3 0.28499999642 
-2.6024875622 0.25 0.28499999642 -2.6024875622 0.2 0.28499999642 -2.6024875622 0.15 0.28499999642 
-2.6024875622 0.1 0.28499999642 -2.6024875622 0.05 0.28499999642 -2.6024875622 0 0.28499999642 
-2.5524378109 1.5 0.28499999642 -2.5524378109 1.45 0.28499999642 -2.5524378109 1.4 0.28499999642 
-2.5524378109 1.35 0.28499999642 -2.5524378109 1.3 0.28499999642 -2.5524378109 1.25 0.28499999642 
-2.5524378109 1.2 0.28499999642 -2.5524378109 1.15 0.28499999642 -2.5524378109 1.1 0.28499999642 
-2.5524378109 1.05 0.28499999642 -2.5524378109 1 0.28499999642 -2.5524378109 0.95 0.28499999642 
-2.5524378109 0.9 0.28499999642 -2.5524378109 0.85 0.28499999642 -2.5524378109 0.8 0.28499999642 
-2.5524378109 0.75 0.28499999642 -2.5524378109 0.7 0.28499999642 -2.5524378109 0.65 0.28499999642 
-2.5524378109 0.6 0.28499999642 -2.5524378109 0.55 0.28499999642 -2.5524378109 0.5 0.28499999642 
-2.5524378109 0.45 0.28499999642 -2.5524378109 0.4 0.28499999642 -2.5524378109 0.35 0.28499999642 
-2.5524378109 0.3 0.28499999642 -2.5524378109 0.25 0.28499999642 -2.5524378109 0.2 0.28499999642 
-2.5524378109 0.15 0.28499999642 -2.5524378109 0.1 0.28499999642 -2.5524378109 0.05 0.28499999642 
-2.5524378109 0 0.28499999642 -2.5023880597 1.5 0.28499999642 -2.5023880597 1.45 0.28499999642 
-2.5023880597 1.4 0.28499999642 -2.5023880597 1.35 0.28499999642 -2.5023880597 1.3 0.28499999642 
-2.5023880597 1.25 0.28499999642 -2.5023880597 1.2 0.28499999642 -2.5023880597 1.15 0.28499999642 
-2.5023880597 1.1 0.28499999642 -2.5023880597 1.05 0.28499999642 -2.5023880597 1 0.28499999642 
-2.5023880597 0.95 0.28499999642 -2.5023880597 0.9 0.28499999642 -2.5023880597 0.85 0.28499999642 
-2.5023880597 0.8 0.28499999642 -2.5023880597 0.75 0.28499999642 -2.5023880597 0.7 0.28499999642 
-2.5023880597 0.65 0.28499999642 -2.5023880597 0.6 0.28499999642 -2.5023880597 0.55 0.28499999642 
-2.5023880597 0.5 0.28499999642 -2.5023880597 0.45 0.28499999642 -2.5023880597 0.4 0.28499999642 
-2.5023880597 0.35 0.28499999642 -2.5023880597 0.3 0.28499999642 -2.5023880597 0.25 0.28499999642 
-2.5023880597 0.2 0.28499999642 -2.5023880597 0.15 0.28499999642 -2.5023880597 0.1 0.28499999642 
-2.5023880597 0.05 0.28499999642 -2.5023880597 0 0.28499999642 -2.4523383085 1.5 0.28499999642 
-2.4523383085 1.45 0.28499999642 -2.4523383085 1.4 0.28499999642 -2.4523383085 1.35 0.28499999642 
-2.4523383085 1.3 0.28499999642 -2.4523383085 1.25 0.28499999642 -2.4523383085 1.2 0.28499999642 
-2.4523383085 1.15 0.28499999642 -2.4523383085 1.1 0.28499999642 -2.4523383085 1.05 0.28499999642 
-2.4523383085 1 0.28499999642 -2.4523383085 0.95 0.28499999642 -2.4523383085 0.9 0.28499999642 
-2.4523383085 0.85 0.28499999642 -2.4523383085 0.8 0.28499999642 -2.4523383085 0.75 0.28499999642 
-2.4523383085 0.7 0.28499999642 -2.4523383085 0.65 0.28499999642 -2.4523383085 0.6 0.28499999642 
-2.4523383085 0.55 0.28499999642 -2.4523383085 0.5 0.28499999642 -2.4523383085 0.45 0.28499999642 
-2.4523383085 0.4 0.28499999642 -2.4523383085 0.35 0.28499999642 -2.4523383085 0.3 0.28499999642 
-2.4523383085 0.25 0.28499999642 -2.4523383085 0.2 0.28499999642 -2.4523383085 0.15 0.28499999642 
-2.4523383085 0.1 0.28499999642 -2.4523383085 0.05 0.28499999642 -2.4523383085 0 0.28499999642 
-2.4022885572 1.5 0.28499999642 -2.4022885572 1.45 0.28499999642 -2.4022885572 1.4 0.28499999642 
-2.4022885572 1.35 0.28499999642 -2.4022885572 1.3 0.28499999642 -2.4022885572 1.25 0.28499999642 
-2.4022885572 1.2 0.28499999642 -2.4022885572 1.15 0.28499999642 -2.4022885572 1.1 0.28499999642 
-2.4022885572 1.05 0.28499999642 -2.4022885572 1 0.28499999642 -2.4022885572 0.95 0.28499999642 
-2.4022885572 0.9 0.28499999642 -2.4022885572 0.85 0.28499999642 -2.4022885572 0.8 0.28499999642 
-2.4022885572 0.75 0.28499999642 -2.4022885572 0.7 0.28499999642 -2.4022885572 0.65 0.28499999642 
-2.4022885572 0.6 0.28499999642 -2.4022885572 0.55 0.28499999642 -2.4022885572 0.5 0.28499999642 
-2.4022885572 0.45 0.28499999642 -2.4022885572 0.4 0.28499999642 -2.4022885572 0.35 0.28499999642 
-2.4022885572 0.3 0.28499999642 -2.4022885572 0.25 0.28499999642 -2.4022885572 0.2 0.28499999642 
-2.4022885572 0.15 0.28499999642 -2.4022885572 0.1 0.28499999642 -2.4022885572 0.05 0.28499999642 
-2.4022885572 0 0.28499999642 -2.352238806 1.5 0.28499999642 -2.352238806 1.45 0.28499999642 
-2.352238806 1.4 0.28499999642 -2.352238806 1.35 0.28499999642 -2.352238806 1.3 0.28499999642 
-2.352238806 1.25 0.28499999642 -2.352238806 1.2 0.28499999642 -2.352238806 1.15 0.28499999642 
-2.352238806 1.1 0.28499999642 -2.352238806 1.05 0.28499999642 -2.352238806 1 0.28499999642 
-2.352238806 0.95 0.28499999642 -2.352238806 0.9 0.28499999642 -2.352238806 0.85 0.28499999642 
-2.352238806 0.8 0.28499999642 -2.352238806 0.75 0.28499999642 -2.352238806 0.7 0.28499999642 
-2.352238806 0.65 0.28499999642 -2.352238806 0.6 0.28499999642 -2.352238806 0.55 0.28499999642 
-2.352238806 0.5 0.28499999642 -2.352238806 0.45 0.28499999642 -2.352238806 0.4 0.28499999642 
-2.352238806 0.35 0.28499999642 -2.352238806 0.3 0.28499999642 -2.352238806 0.25 0.28499999642 
-2.352238806 0.2 0.28499999642 -2.352238806 0.15 0.28499999642 -2.352238806 0.1 0.28499999642 
-2.352238806 0.05 0.28499999642 -2.352238806 0 0.28499999642 -2.3021890547 1.5 0.28499999642 
-2.3021890547 1.45 0.28499999642 -2.3021890547 1.4 0.28499999642 -2.3021890547 1.35 0.28499999642 
-2.3021890547 1.3 0.28499999642 -2.3021890547 1.25 0.28499999642 -2.3021890547 1.2 0.28499999642 
-2.3021890547 1.15 0.28499999642 -2.3021890547 1.1 0.28499999642 -2.3021890547 1.05 0.28499999642 
-2.3021890547 1 0.28499999642 -2.3021890547 0.95 0.28499999642 -2.3021890547 0.9 0.28499999642 
-2.3021890547 0.85 0.28499999642 -2.3021890547 0.8 0.28499999642 -2.3021890547 0.75 0.28499999642 
-2.3021890547 0.7 0.28499999642 -2.3021890547 0.65 0.28499999642 -2.3021890547 0.6 0.28499999642 
-2.3021890547 0.55 0.28499999642 -2.3021890547 0.5 0.28499999642 -2.3021890547 0.45 0.28499999642 
-2.3021890547 0.4 0.28499999642 -2.3021890547 0.35 0.28499999642 -2.3021890547 0.3 0.28499999642 
-2.3021890547 0.25 0.28499999642 -2.3021890547 0.2 0.28499999642 -2.3021890547 0.15 0.28499999642 
-2.3021890547 0.1 0.28499999642 -2.3021890547 0.05 0.28499999642 -2.3021890547 0 0.28499999642 
-2.2521393035 1.5 0.28499999642 -2.2521393035 1.45 0.28499999642 -2.2521393035 1.4 0.28499999642 
-2.2521393035 1.35 0.28499999642 -2.2521393035 1.3 0.28499999642 -2.2521393035 1.25 0.28499999642 
-2.2521393035 1.2 0.28499999642 -2.2521393035 1.15 0.28499999642 -2.2521393035 1.1 0.28499999642 
-2.2521393035 1.05 0.28499999642 -2.2521393035 1 0.28499999642 -2.2521393035 0.95 0.28499999642 
-2.2521393035 0.9 0.28499999642 -2.2521393035 0.85 0.28499999642 -2.2521393035 0.8 0.28499999642 
-2.2521393035 0.75 0.28499999642 -2.2521393035 0.7 0.28499999642 -2.2521393035 0.65 0.28499999642 
-2.2521393035 0.6 0.28499999642 -2.2521393035 0.55 0.28499999642 -2.2521393035 0.5 0.28499999642 
-2.2521393035 0.45 0.28499999642 -2.2521393035 0.4 0.28499999642 -2.2521393035 0.35 0.28499999642 
-2.2521393035 0.3 0.28499999642 -2.2521393035 0.25 0.28499999642 -2.2521393035 0.2 0.28499999642 
-2.2521393035 0.15 0.28499999642 -2.2521393035 0.1 0.28499999642 -2.2521393035 0.05 0.28499999642 
-2.2521393035 0 0.28499999642 -2.2020895522 1.5 0.28499999642 -2.2020895522 1.45 0.28499999642 
-2.2020895522 1.4 0.28499999642 -2.2020895522 1.35 0.28499999642 -2.2020895522 1.3 0.28499999642 
-2.2020895522 1.25 0.28499999642 -2.2020895522 1.2 0.28499999642 -2.2020895522 1.15 0.28499999642 
-2.2020895522 1.1 0.28499999642 -2.2020895522 1.05 0.28499999642 -2.2020895522 1 0.28499999642 
-2.2020895522 0.95 0.28499999642 -2.2020895522 0.9 0.28499999642 -2.2020895522 0.85 0.28499999642 
-2.2020895522 0.8 0.28499999642 -2.2020895522 0.75 0.28499999642 -2.2020895522 0.7 0.28499999642 
-2.2020895522 0.65 0.28499999642 -2.2020895522 0.6 0.28499999642 -2.2020895522 0.55 0.28499999642 
-2.2020895522 0.5 0.28499999642 -2.2020895522 0.45 0.28499999642 -2.2020895522 0.4 0.28499999642 
-2.2020895522 0.35 0.28499999642 -2.2020895522 0.3 0.28499999642 -2.2020895522 0.25 0.28499999642 
-2.2020895522 0.2 0.28499999642 -2.2020895522 0.15 0.28499999642 -2.2020895522 0.1 0.28499999642 
-2.2020895522 0.05 0.28499999642 -2.2020895522 0 0.28499999642 -2.152039801 1.5 0.28499999642 
-2.152039801 1.45 0.28499999642 -2.152039801 1.4 0.28499999642 -2.152039801 1.35 0.28499999642 
-2.152039801 1.3 0.28499999642 -2.152039801 1.25 0.28499999642 -2.152039801 1.2 0.28499999642 
-2.152039801 1.15 0.28499999642 -2.152039801 1.1 0.28499999642 -2.152039801 1.05 0.28499999642 
-2.152039801 1 0.28499999642 -2.152039801 0.95 0.28499999642 -2.152039801 0.9 0.28499999642 
-2.152039801 0.85 0.28499999642 -2.152039801 0.8 0.28499999642 -2.152039801 0.75 0.28499999642 
-2.152039801 0.7 0.28499999642 -2.152039801 0.65 0.28499999642 -2.152039801 0.6 0.28499999642 
-2.152039801 0.55 0.28499999642 -2.152039801 0.5 0.28499999642 -2.152039801 0.45 0.28499999642 
-2.152039801 0.4 0.28499999642 -2.152039801 0.35 0.28499999642 -2.152039801 0.3 0.28499999642 
-2.152039801 0.25 0.28499999642 -2.152039801 0.2 0.28499999642 -2.152039801 0.15 0.28499999642 
-2.152039801 0.1 0.28499999642 -2.152039801 0.05 0.28499999642 -2.152039801 0 0.28499999642 
-2.1019900498 1.5 0.28499999642 -2.1019900498 1.45 0.28499999642 -2.1019900498 1.4 0.28499999642 
-2.1019900498 1.35 0.28499999642 -2.1019900498 1.3 0.28499999642 -2.1019900498 1.25 0.28499999642 
-2.1019900498 1.2 0.28499999642 -2.1019900498 1.15 0.28499999642 -2.1019900498 1.1 0.28499999642 
-2.1019900498 1.05 0.28499999642 -2.1019900498 1 0.28499999642 -2.1019900498 0.95 0.28499999642 
-2.1019900498 0.9 0.28499999642 -2.1019900498 0.85 0.28499999642 -2.1019900498 0.8 0.28499999642 
-2.1019900498 0.75 0.28499999642 -2.1019900498 0.7 0.28499999642 -2.1019900498 0.65 0.28499999642 
-2.1019900498 0.6 0.28499999642 -2.1019900498 0.55 0.28499999642 -2.1019900498 0.5 0.28499999642 
-2.1019900498 0.45 0.28499999642 -2.1019900498 0.4 0.28499999642 -2.1019900498 0.35 0.28499999642 
-2.1019900498 0.3 0.28499999642 -2.1019900498 0.25 0.28499999642 -2.1019900498 0.2 0.28499999642 
-2.1019900498 0.15 0.28499999642 -2.1019900498 0.1 0.28499999642 -2.1019900498 0.05 0.28499999642 
-2.1019900498 0 0.28499999642 -2.0519402985 1.5 0.28499999642 -2.0519402985 1.45 0.28499999642 
-2.0519402985 1.4 0.28499999642 -2.0519402985 1.35 0.28499999642 -2.0519402985 1.3 0.28499999642 
-2.0519402985 1.25 0.28499999642 -2.0519402985 1.2 0.28499999642 -2.0519402985 1.15 0.28499999642 
-2.0519402985 1.1 0.28499999642 -2.0519402985 1.05 0.28499999642 -2.0519402985 1 0.28499999642 
-2.0519402985 0.95 0.28499999642 -2.0519402985 0.9 0.28499999642 -2.0519402985 0.85 0.28499999642 
-2.0519402985 0.8 0.28499999642 -2.0519402985 0.75 0.28499999642 -2.0519402985 0.7 0.28499999642 
-2.0519402985 0.65 0.28499999642 -2.0519402985 0.6 0.28499999642 -2.0519402985 0.55 0.28499999642 
-2.0519402985 0.5 0.28499999642 -2.0519402985 0.45 0.28499999642 -2.0519402985 0.4 0.28499999642 
-2.0519402985 0.35 0.28499999642 -2.0519402985 0.3 0.28499999642 -2.0519402985 0.25 0.28499999642 
-2.0519402985 0.2 0.28499999642 -2.0519402985 0.15 0.28499999642 -2.0519402985 0.1 0.28499999642 
-2.0519402985 0.05 0.28499999642 -2.0519402985 0 0.28499999642 -2.0018905473 1.5 0.28499999642 
-2.0018905473 1.45 0.28499999642 -2.0018905473 1.4 0.28499999642 -2.0018905473 1.35 0.28499999642 
-2.0018905473 1.3 0.28499999642 -2.0018905473 1.25 0.28499999642 -2.0018905473 1.2 0.28499999642 
-2.0018905473 1.15 0.28499999642 -2.0018905473 1.1 0.28499999642 -2.0018905473 1.05 0.28499999642 
-2.0018905473 1 0.28499999642 -2.0018905473 0.95 0.28499999642 -2.0018905473 0.9 0.28499999642 
-2.0018905473 0.85 0.28499999642 -2.0018905473 0.8 0.28499999642 -2.0018905473 0.75 0.28499999642 
-2.0018905473 0.7 0.28499999642 -2.0018905473 0.65 0.28499999642 -2.0018905473 0.6 0.28499999642 
-2.0018905473 0.55 0.28499999642 -2.0018905473 0.5 0.28499999642 -2.0018905473 0.45 0.28499999642 
-2.0018905473 0.4 0.28499999642 -2.0018905473 0.35 0.28499999642 -2.0018905473 0.3 0.28499999642 
-2.0018905473 0.25 0.28499999642 -2.0018905473 0.2 0.28499999642 -2.0018905473 0.15 0.28499999642 
-2.0018905473 0.1 0.28499999642 -2.0018905473 0.05 0.28499999642 -2.0018905473 0 0.28499999642 
-1.951840796 1.5 0.28499999642 -1.951840796 1.45 0.28499999642 -1.951840796 1.4 0.28499999642 
-1.951840796 1.35 0.28499999642 -1.951840796 1.3 0.28499999642 -1.951840796 1.25 0.28499999642 
-1.951840796 1.2 0.28499999642 -1.951840796 1.15 0.28499999642 -1.951840796 1.1 0.28499999642 
-1.951840796 1.05 0.28499999642 -1.951840796 1 0.28499999642 -1.951840796 0.95 0.28499999642 
-1.951840796 0.9 0.28499999642 -1.951840796 0.85 0.28499999642 -1.951840796 0.8 0.28499999642 
-1.951840796 0.75 0.28499999642 -1.951840796 0.7 0.28499999642 -1.951840796 0.65 0.28499999642 
-1.951840796 0.6 0.28499999642 -1.951840796 0.55 0.28499999642 -1.951840796 0.5 0.28499999642 
-1.951840796 0.45 0.28499999642 -1.951840796 0.4 0.28499999642 -1.951840796 0.35 0.28499999642 
-1.951840796 0.3 0.28499999642 -1.951840796 0.25 0.28499999642 -1.951840796 0.2 0.28499999642 
-1.951840796 0.15 0.28499999642 -1.951840796 0.1 0.28499999642 -1.951840796 0.05 0.28499999642 
-1.951840796 0 0.28499999642 -1.9017910448 1.5 0.28499999642 -1.9017910448 1.45 0.28499999642 
-1.9017910448 1.4 0.28499999642 -1.9017910448 1.35 0.28499999642 -1.9017910448 1.3 0.28499999642 
-1.9017910448 1.25 0.28499999642 -1.9017910448 1.2 0.28499999642 -1.9017910448 1.15 0.28499999642 
-1.9017910448 1.1 0.28499999642 -1.9017910448 1.05 0.28499999642 -1.9017910448 1 0.28499999642 
-1.9017910448 0.95 0.28499999642 -1.9017910448 0.9 0.28499999642 -1.9017910448 0.85 0.28499999642 
-1.9017910448 0.8 0.28499999642 -1.9017910448 0.75 0.28499999642 -1.9017910448 0.7 0.28499999642 
-1.9017910448 0.65 0.28499999642 -1.9017910448 0.6 0.28499999642 -1.9017910448 0.55 0.28499999642 
-1.9017910448 0.5 0.28499999642 -1.9017910448 0.45 0.28499999642 -1.9017910448 0.4 0.28499999642 
-1.9017910448 0.35 0.28499999642 -1.9017910448 0.3 0.28499999642 -1.9017910448 0.25 0.28499999642 
-1.9017910448 0.2 0.28499999642 -1.9017910448 0.15 0.28499999642 -1.9017910448 0.1 0.28499999642 
-1.9017910448 0.05 0.28499999642 -1.9017910448 0 0.28499999642 -1.8517412935 1.5 0.28499999642 
-1.8517412935 1.45 0.28499999642 -1.8517412935 1.4 0.28499999642 -1.8517412935 1.35 0.28499999642 
-1.8517412935 1.3 0.28499999642 -1.8517412935 1.25 0.28499999642 -1.8517412935 1.2 0.28499999642 
-1.8517412935 1.15 0.28499999642 -1.8517412935 1.1 0.28499999642 -1.8517412935 1.05 0.28499999642 
-1.8517412935 1 0.28499999642 -1.8517412935 0.95 0.28499999642 -1.8517412935 0.9 0.28499999642 
-1.8517412935 0.85 0.28499999642 -1.8517412935 0.8 0.28499999642 -1.8517412935 0.75 0.28499999642 
-1.8517412935 0.7 0.28499999642 -1.8517412935 0.65 0.28499999642 -1.8517412935 0.6 0.28499999642 
-1.8517412935 0.55 0.28499999642 -1.8517412935 0.5 0.28499999642 -1.8517412935 0.45 0.28499999642 
-1.8517412935 0.4 0.28499999642 -1.8517412935 0.35 0.28499999642 -1.8517412935 0.3 0.28499999642 
-1.8517412935 0.25 0.28499999642 -1.8517412935 0.2 0.28499999642 -1.8517412935 0.15 0.28499999642 
-1.8517412935 0.1 0.28499999642 -1.8517412935 0.05 0.28499999642 -1.8517412935 0 0.28499999642 
-1.8016915423 1.5 0.28499999642 -1.8016915423 1.45 0.28499999642 -1.8016915423 1.4 0.28499999642 
-1.8016915423 1.35 0.28499999642 -1.8016915423 1.3 0.28499999642 -1.8016915423 1.25 0.28499999642 
-1.8016915423 1.2 0.28499999642 -1.8016915423 1.15 0.28499999642 -1.8016915423 1.1 0.28499999642 
-1.8016915423 1.05 0.28499999642 -1.8016915423 1 0.28499999642 -1.8016915423 0.95 0.28499999642 
-1.8016915423 0.9 0.28499999642 -1.8016915423 0.85 0.28499999642 -1.8016915423 0.8 0.28499999642 
-1.8016915423 0.75 0.28499999642 -1.8016915423 0.7 0.28499999642 -1.8016915423 0.65 0.28499999642 
-1.8016915423 0.6 0.28499999642 -1.8016915423 0.55 0.28499999642 -1.8016915423 0.5 0.28499999642 
-1.8016915423 0.45 0.28499999642 -1.8016915423 0.4 0.28499999642 -1.8016915423 0.35 0.28499999642 
-1.8016915423 0.3 0.28499999642 -1.8016915423 0.25 0.28499999642 -1.8016915423 0.2 0.28499999642 
-1.8016915423 0.15 0.28499999642 -1.8016915423 0.1 0.28499999642 -1.8016915423 0.05 0.28499999642 
-1.8016915423 0 0.28499999642 -1.751641791 1.5 0.28499999642 -1.751641791 1.45 0.28499999642 
-1.751641791 1.4 0.28499999642 -1.751641791 1.35 0.28499999642 -1.751641791 1.3 0.28499999642 
-1.751641791 1.25 0.28499999642 -1.751641791 1.2 0.28499999642 -1.751641791 1.15 0.28499999642 
-1.751641791 1.1 0.28499999642 -1.751641791 1.05 0.28499999642 -1.751641791 1 0.28499999642 
-1.751641791 0.95 0.28499999642 -1.751641791 0.9 0.28499999642 -1.751641791 0.85 0.28499999642 
-1.751641791 0.8 0.28499999642 -1.751641791 0.75 0.28499999642 -1.751641791 0.7 0.28499999642 
-1.751641791 0.65 0.28499999642 -1.751641791 0.6 0.28499999642 -1.751641791 0.55 0.28499999642 
-1.751641791 0.5 0.28499999642 -1.751641791 0.45 0.28499999642 -1.751641791 0.4 0.28499999642 
-1.751641791 0.35 0.28499999642 -1.751641791 0.3 0.28499999642 -1.751641791 0.25 0.28499999642 
-1.751641791 0.2 0.28499999642 -1.751641791 0.15 0.28499999642 -1.751641791 0.1 0.28499999642 
-1.751641791 0.05 0.28499999642 -1.751641791 0 0.28499999642 -1.7015920398 1.5 0.28499999642 
-1.7015920398 1.45 0.28499999642 -1.7015920398 1.4 0.28499999642 -1.7015920398 1.35 0.28499999642 
-1.7015920398 1.3 0.28499999642 -1.7015920398 1.25 0.28499999642 -1.7015920398 1.2 0.28499999642 
-1.7015920398 1.15 0.28499999642 -1.7015920398 1.1 0.28499999642 -1.7015920398 1.05 0.28499999642 
-1.7015920398 1 0.28499999642 -1.7015920398 0.95 0.28499999642 -1.7015920398 0.9 0.28499999642 
-1.7015920398 0.85 0.28499999642 -1.7015920398 0.8 0.28499999642 -1.7015920398 0.75 0.28499999642 
-1.7015920398 0.7 0.28499999642 -1.7015920398 0.65 0.28499999642 -1.7015920398 0.6 0.28499999642 
-1.7015920398 0.55 0.28499999642 -1.7015920398 0.5 0.28499999642 -1.7015920398 0.45 0.28499999642 
-1.7015920398 0.4 0.28499999642 -1.7015920398 0.35 0.28499999642 -1.7015920398 0.3 0.28499999642 
-1.7015920398 0.25 0.28499999642 -1.7015920398 0.2 0.28499999642 -1.7015920398 0.15 0.28499999642 
-1.7015920398 0.1 0.28499999642 -1.7015920398 0.05 0.28499999642 -1.7015920398 0 0.28499999642 
-1.6515422886 1.5 0.27990657091 -1.6515422886 1.45 0.27893334627 -1.6515422886 1.4 0.28071549535 
-1.6515422886 1.35 0.28887486458 -1.6515422886 1.3 0.29286155105 -1.6515422886 1.25 0.30168020725 
-1.6515422886 1.2 0.30096757412 -1.6515422886 1.15 0.29441973567 -1.6515422886 1.1 0.27950152755 
-1.6515422886 1.05 0.27230417728 -1.6515422886 1 0.27316105366 -1.6515422886 0.95 0.27740830183 
-1.6515422886 0.9 0.2799936831 -1.6515422886 0.85 0.25430217385 -1.6515422886 0.8 0.28800538182 
-1.6515422886 0.75 0.29098933935 -1.6515422886 0.7 0.2906678915 -1.6515422886 0.65 0.29171916842 
-1.6515422886 0.6 0.29219472408 -1.6515422886 0.55 0.28930079937 -1.6515422886 0.5 0.28777638078 
-1.6515422886 0.45 0.28728297353 -1.6515422886 0.4 0.28637433052 -1.6515422886 0.35 0.2870631218 
-1.6515422886 0.3 0.28786891699 -1.6515422886 0.25 0.27797797322 -1.6515422886 0.2 0.26317596436 
-1.6515422886 0.15 0.24845406413 -1.6515422886 0.1 0.23866352439 -1.6515422886 0.05 0.23708228767 
-1.6515422886 0 0.23791398108 -1.6014925373 1.5 0.27237764001 -1.6014925373 1.45 0.27014613152 
-1.6014925373 1.4 0.27683457732 -1.6014925373 1.35 0.29495880008 -1.6014925373 1.3 0.30174824595 
-1.6014925373 1.25 0.32351973653 -1.6014925373 1.2 0.32393208146 -1.6014925373 1.15 0.30344375968 
-1.6014925373 1.1 0.28054341674 -1.6014925373 1.05 0.26378571987 -1.6014925373 1 0.25738888979 
-1.6014925373 0.95 0.25809371471 -1.6014925373 0.9 0.25678256154 -1.6014925373 0.85 0.24727798998 
-1.6014925373 0.8 0.29190677404 -1.6014925373 0.75 0.29644671082 -1.6014925373 0.7 0.29692569375 
-1.6014925373 0.65 0.29997369647 -1.6014925373 0.6 0.29960340261 -1.6014925373 0.55 0.29486334324 
-1.6014925373 0.5 0.29166731238 -1.6014925373 0.45 0.2905678153 -1.6014925373 0.4 0.28844082355 
-1.6014925373 0.35 0.28913059831 -1.6014925373 0.3 0.29000130296 -1.6014925373 0.25 0.26963981986 
-1.6014925373 0.2 0.23936367035 -1.6014925373 0.15 0.21294911206 -1.6014925373 0.1 0.19005088508 
-1.6014925373 0.05 0.18974556029 -1.6014925373 0 0.18600000441 -1.5514427861 1.5 0.2729190588 
-1.5514427861 1.45 0.2786385119 -1.5514427861 1.4 0.27327784896 -1.5514427861 1.35 0.28967416286 
-1.5514427861 1.3 0.29307040572 -1.5514427861 1.25 0.31341353059 -1.5514427861 1.2 0.32298380136 
-1.5514427861 1.15 0.29806739092 -1.5514427861 1.1 0.2881989181 -1.5514427861 1.05 0.27216047049 
-1.5514427861 1 0.26299625635 -1.5514427861 0.95 0.25718006492 -1.5514427861 0.9 0.24587032199 
-1.5514427861 0.85 0.27999681234 -1.5514427861 0.8 0.2905266881 -1.5514427861 0.75 0.29089611769 
-1.5514427861 0.7 0.29236537218 -1.5514427861 0.65 0.29631349444 -1.5514427861 0.6 0.29844668508 
-1.5514427861 0.55 0.29391434789 -1.5514427861 0.5 0.29078990221 -1.5514427861 0.45 0.28885343671 
-1.5514427861 0.4 0.28738254309 -1.5514427861 0.35 0.28797096014 -1.5514427861 0.3 0.28877526522 
-1.5514427861 0.25 0.2725828886 -1.5514427861 0.2 0.24036888778 -1.5514427861 0.15 0.21391957998 
-1.5514427861 0.1 0.19112594426 -1.5514427861 0.05 0.1853672266 -1.5514427861 0 0.16584977508 
-1.5013930348 1.5 0.28823933005 -1.5013930348 1.45 0.29895308614 -1.5013930348 1.4 0.31163138151 
-1.5013930348 1.35 0.30830979347 -1.5013930348 1.3 0.31160709262 -1.5013930348 1.25 0.32134434581 
-1.5013930348 1.2 0.32490700483 -1.5013930348 1.15 0.30518555641 -1.5013930348 1.1 0.28746902943 
-1.5013930348 1.05 0.28446099162 -1.5013930348 1 0.28324249387 -1.5013930348 0.95 0.27796682715 
-1.5013930348 0.9 0.25983339548 -1.5013930348 0.85 0.2720927 -1.5013930348 0.8 0.28371331096 
-1.5013930348 0.75 0.28790611029 -1.5013930348 0.7 0.28920689225 -1.5013930348 0.65 0.29497241974 
-1.5013930348 0.6 0.29957312346 -1.5013930348 0.55 0.2940107286 -1.5013930348 0.5 0.29111525416 
-1.5013930348 0.45 0.28864860535 -1.5013930348 0.4 0.28709620237 -1.5013930348 0.35 0.28796824813 
-1.5013930348 0.3 0.28875556588 -1.5013930348 0.25 0.27337059379 -1.5013930348 0.2 0.24195733666 
-1.5013930348 0.15 0.21299999952 -1.5013930348 0.1 0.19589003921 -1.5013930348 0.05 0.1867800802 
-1.5013930348 0 0.18967011571 -1.4513432836 1.5 0.30825021863 -1.4513432836 1.45 0.31677186489 
-1.4513432836 1.4 0.34621527791 -1.4513432836 1.35 0.34155774117 -1.4513432836 1.3 0.35073760152 
-1.4513432836 1.25 0.3508683145 -1.4513432836 1.2 0.34208014607 -1.4513432836 1.15 0.33904531598 
-1.4513432836 1.1 0.31425765157 -1.4513432836 1.05 0.3154079318 -1.4513432836 1 0.3150382638 
-1.4513432836 0.95 0.30451905727 -1.4513432836 0.9 0.27840489149 -1.4513432836 0.85 0.28380990028 
-1.4513432836 0.8 0.28030446172 -1.4513432836 0.75 0.2821713686 -1.4513432836 0.7 0.28354346752 
-1.4513432836 0.65 0.29114606977 -1.4513432836 0.6 0.29570394754 -1.4513432836 0.55 0.29189309478 
-1.4513432836 0.5 0.29041272402 -1.4513432836 0.45 0.28711462021 -1.4513432836 0.4 0.28654551506 
-1.4513432836 0.35 0.28540986776 -1.4513432836 0.3 0.28615909815 -1.4513432836 0.25 0.27432796359 
-1.4513432836 0.2 0.24430336058 -1.4513432836 0.15 0.21872100234 -1.4513432836 0.1 0.2047445029 
-1.4513432836 0.05 0.19988401234 -1.4513432836 0 0.19572100043 -1.4012935323 1.5 0.34258010983 
-1.4012935323 1.45 0.35268735886 -1.4012935323 1.4 0.357853055 -1.4012935323 1.35 0.36909076571 
-1.4012935323 1.3 0.37809610367 -1.4012935323 1.25 0.38393646479 -1.4012935323 1.2 0.37674027681 
-1.4012935323 1.15 0.38598793745 -1.4012935323 1.1 0.35171100497 -1.4012935323 1.05 0.34431576729 
-1.4012935323 1 0.34684243798 -1.4012935323 0.95 0.33798491955 -1.4012935323 0.9 0.31162300706 
-1.4012935323 0.85 0.30328255892 -1.4012935323 0.8 0.28327840567 -1.4012935323 0.75 0.27683901787 
-1.4012935323 0.7 0.2781766057 -1.4012935323 0.65 0.28450393677 -1.4012935323 0.6 0.29460832477 
-1.4012935323 0.55 0.29284968972 -1.4012935323 0.5 0.28948226571 -1.4012935323 0.45 0.28348711133 
-1.4012935323 0.4 0.28520387411 -1.4012935323 0.35 0.28229746222 -1.4012935323 0.3 0.28402370214 
-1.4012935323 0.25 0.27407121658 -1.4012935323 0.2 0.24770265818 -1.4012935323 0.15 0.23247866333 
-1.4012935323 0.1 0.22614058852 -1.4012935323 0.05 0.22229540348 -1.4012935323 0 0.21781674027 
-1.3512437811 1.5 0.38953652978 -1.3512437811 1.45 0.39399546385 -1.3512437811 1.4 0.40161037445 
-1.3512437811 1.35 0.39916616678 -1.3512437811 1.3 0.40172827244 -1.3512437811 1.25 0.41339176893 
-1.3512437811 1.2 0.40808910131 -1.3512437811 1.15 0.39973914623 -1.3512437811 1.1 0.36476701498 
-1.3512437811 1.05 0.36616283655 -1.3512437811 1 0.38184085488 -1.3512437811 0.95 0.37549069524 
-1.3512437811 0.9 0.35313898325 -1.3512437811 0.85 0.32282453775 -1.3512437811 0.8 0.29796901345 
-1.3512437811 0.75 0.27732184529 -1.3512437811 0.7 0.2769125402 -1.3512437811 0.65 0.2830119431 
-1.3512437811 0.6 0.29178279638 -1.3512437811 0.55 0.28676956892 -1.3512437811 0.5 0.28867071867 
-1.3512437811 0.45 0.28372687101 -1.3512437811 0.4 0.280806005 -1.3512437811 0.35 0.27755281329 
-1.3512437811 0.3 0.27756977081 -1.3512437811 0.25 0.27300858498 -1.3512437811 0.2 0.25791588426 
-1.3512437811 0.15 0.25301426649 -1.3512437811 0.1 0.24480855465 -1.3512437811 0.05 0.2408156842 
-1.3512437811 0 0.24763849378 -1.3011940299 1.5 0.41601037979 -1.3011940299 1.45 0.42018529773 
-1.3011940299 1.4 0.43039792776 -1.3011940299 1.35 0.42737486959 -1.3011940299 1.3 0.43269595504 
-1.3011940299 1.25 0.44059550762 -1.3011940299 1.2 0.43978622556 -1.3011940299 1.15 0.41436335444 
-1.3011940299 1.1 0.40289881825 -1.3011940299 1.05 0.39917352796 -1.3011940299 1 0.40710419416 
-1.3011940299 0.95 0.40110942721 -1.3011940299 0.9 0.37601453066 -1.3011940299 0.85 0.35257524252 
-1.3011940299 0.8 0.31968212128 -1.3011940299 0.75 0.28167805076 -1.3011940299 0.7 0.27373114228 
-1.3011940299 0.65 0.26815894246 -1.3011940299 0.6 0.28801307082 -1.3011940299 0.55 0.28311407566 
-1.3011940299 0.5 0.28430464864 -1.3011940299 0.45 0.27910125256 -1.3011940299 0.4 0.27559736371 
-1.3011940299 0.35 0.26928588748 -1.3011940299 0.3 0.26721668243 -1.3011940299 0.25 0.27266949415 
-1.3011940299 0.2 0.26889437437 -1.3011940299 0.15 0.27049076557 -1.3011940299 0.1 0.26371890306 
-1.3011940299 0.05 0.26475578547 -1.3011940299 0 0.26403453946 -1.2511442786 1.5 0.44501143694 
-1.2511442786 1.45 0.45189070702 -1.2511442786 1.4 0.46535912156 -1.2511442786 1.35 0.46074426174 
-1.2511442786 1.3 0.46578788757 -1.2511442786 1.25 0.47065442801 -1.2511442786 1.2 0.46851572394 
-1.2511442786 1.15 0.45976266265 -1.2511442786 1.1 0.45253109932 -1.2511442786 1.05 0.43865069747 
-1.2511442786 1 0.42189109325 -1.2511442786 0.95 0.4215478003 -1.2511442786 0.9 0.3986133337 
-1.2511442786 0.85 0.36655929685 -1.2511442786 0.8 0.33437231183 -1.2511442786 0.75 0.30544322729 
-1.2511442786 0.7 0.28796580434 -1.2511442786 0.65 0.26963424683 -1.2511442786 0.6 0.28994569182 
-1.2511442786 0.55 0.27376845479 -1.2511442786 0.5 0.27622011304 -1.2511442786 0.45 0.27095130086 
-1.2511442786 0.4 0.27066233754 -1.2511442786 0.35 0.26304021478 -1.2511442786 0.3 0.26565590501 
-1.2511442786 0.25 0.27190563083 -1.2511442786 0.2 0.27269548178 -1.2511442786 0.15 0.29165056348 
-1.2511442786 0.1 0.28965058923 -1.2511442786 0.05 0.28045409918 -1.2511442786 0 0.28313526511 
-1.2010945274 1.5 0.46113058925 -1.2010945274 1.45 0.4729052186 -1.2010945274 1.4 0.47495925426 
-1.2010945274 1.35 0.47536635399 -1.2010945274 1.3 0.48092606664 -1.2010945274 1.25 0.48177820444 
-1.2010945274 1.2 0.480186373 -1.2010945274 1.15 0.47449710965 -1.2010945274 1.1 0.45927932858 
-1.2010945274 1.05 0.43540894985 -1.2010945274 1 0.43630075455 -1.2010945274 0.95 0.43865439296 
-1.2010945274 0.9 0.41341573 -1.2010945274 0.85 0.37455877662 -1.2010945274 0.8 0.34609699249 
-1.2010945274 0.75 0.34021574259 -1.2010945274 0.7 0.3175342679 -1.2010945274 0.65 0.30256837606 
-1.2010945274 0.6 0.29380935431 -1.2010945274 0.55 0.25996118784 -1.2010945274 0.5 0.27590373158 
-1.2010945274 0.45 0.2736517489 -1.2010945274 0.4 0.26845040917 -1.2010945274 0.35 0.2684750855 
-1.2010945274 0.3 0.27266278863 -1.2010945274 0.25 0.27910903096 -1.2010945274 0.2 0.28690752387 
-1.2010945274 0.15 0.30727687478 -1.2010945274 0.1 0.30455377698 -1.2010945274 0.05 0.29841533303 
-1.2010945274 0 0.27926656604 -1.1510447761 1.5 0.46850118041 -1.1510447761 1.45 0.47396197915 
-1.1510447761 1.4 0.47055533528 -1.1510447761 1.35 0.46991625428 -1.1510447761 1.3 0.47462829947 
-1.1510447761 1.25 0.46732464433 -1.1510447761 1.2 0.47055262327 -1.1510447761 1.15 0.46262344718 
-1.1510447761 1.1 0.44727811217 -1.1510447761 1.05 0.43087866902 -1.1510447761 1 0.44603252411 
-1.1510447761 0.95 0.44794929028 -1.1510447761 0.9 0.42321929336 -1.1510447761 0.85 0.39429408312 
-1.1510447761 0.8 0.3737129271 -1.1510447761 0.75 0.36341828108 -1.1510447761 0.7 0.33232802153 
-1.1510447761 0.65 0.30981323123 -1.1510447761 0.6 0.29911959171 -1.1510447761 0.55 0.2781842649 
-1.1510447761 0.5 0.27902492881 -1.1510447761 0.45 0.28080695868 -1.1510447761 0.4 0.28171214461 
-1.1510447761 0.35 0.28435868025 -1.1510447761 0.3 0.28866657615 -1.1510447761 0.25 0.29525923729 
-1.1510447761 0.2 0.29628768563 -1.1510447761 0.15 0.3214662075 -1.1510447761 0.1 0.32551604509 
-1.1510447761 0.05 0.3174661994 -1.1510447761 0 0.31529897451 -1.1009950249 1.5 0.47244098783 
-1.1009950249 1.45 0.46395149827 -1.1009950249 1.4 0.45553794503 -1.1009950249 1.35 0.45814660192 
-1.1009950249 1.3 0.4625017345 -1.1009950249 1.25 0.4491237402 -1.1009950249 1.2 0.4654070735 
-1.1009950249 1.15 0.45113649964 -1.1009950249 1.1 0.43874484301 -1.1009950249 1.05 0.42629253864 
-1.1009950249 1 0.44546550512 -1.1009950249 0.95 0.44756430387 -1.1009950249 0.9 0.42285722494 
-1.1009950249 0.85 0.41585400701 -1.1009950249 0.8 0.40927320719 -1.1009950249 0.75 0.38303735852 
-1.1009950249 0.7 0.34410893917 -1.1009950249 0.65 0.32338899374 -1.1009950249 0.6 0.31180536747 
-1.1009950249 0.55 0.29245012999 -1.1009950249 0.5 0.29433760047 -1.1009950249 0.45 0.29900708795 
-1.1009950249 0.4 0.30629557371 -1.1009950249 0.35 0.30743056536 -1.1009950249 0.3 0.30791839957 
-1.1009950249 0.25 0.30614328384 -1.1009950249 0.2 0.31474879384 -1.1009950249 0.15 0.33792242408 
-1.1009950249 0.1 0.34457617998 -1.1009950249 0.05 0.33719113469 -1.1009950249 0 0.3126565218 
-1.0509452736 1.5 0.4703541398 -1.0509452736 1.45 0.45303267241 -1.0509452736 1.4 0.44002065063 
-1.0509452736 1.35 0.4453689754 -1.0509452736 1.3 0.45093128085 -1.0509452736 1.25 0.4512232244 
-1.0509452736 1.2 0.45616543293 -1.0509452736 1.15 0.44254750013 -1.0509452736 1.1 0.43379157782 
-1.0509452736 1.05 0.41487684846 -1.0509452736 1 0.44529533386 -1.0509452736 0.95 0.44775345922 
-1.0509452736 0.9 0.42745247483 -1.0509452736 0.85 0.42927744985 -1.0509452736 0.8 0.42630457878 
-1.0509452736 0.75 0.39652055502 -1.0509452736 0.7 0.35658812523 -1.0509452736 0.65 0.3341460228 
-1.0509452736 0.6 0.32675847411 -1.0509452736 0.55 0.32943230867 -1.0509452736 0.5 0.3299216032 
-1.0509452736 0.45 0.33765432239 -1.0509452736 0.4 0.3435857296 -1.0509452736 0.35 0.34470623732 
-1.0509452736 0.3 0.33832135797 -1.0509452736 0.25 0.32341009378 -1.0509452736 0.2 0.33084008098 
-1.0509452736 0.15 0.35499361157 -1.0509452736 0.1 0.36399361491 -1.0509452736 0.05 0.36061781645 
-1.0509452736 0 0.36111462116 -1.0008955224 1.5 0.46354147792 -1.0008955224 1.45 0.44421935081 
-1.0008955224 1.4 0.43583184481 -1.0008955224 1.35 0.43065369129 -1.0008955224 1.3 0.43613344431 
-1.0008955224 1.25 0.43485745788 -1.0008955224 1.2 0.44094374776 -1.0008955224 1.15 0.42755043507 
-1.0008955224 1.1 0.42422959208 -1.0008955224 1.05 0.43093135953 -1.0008955224 1 0.44648042321 
-1.0008955224 0.95 0.44857144356 -1.0008955224 0.9 0.43950986862 -1.0008955224 0.85 0.43823939562 
-1.0008955224 0.8 0.43456503749 -1.0008955224 0.75 0.4141485393 -1.0008955224 0.7 0.37428948283 
-1.0008955224 0.65 0.35380005836 -1.0008955224 0.6 0.34888643026 -1.0008955224 0.55 0.35204690695 
-1.0008955224 0.5 0.37132319808 -1.0008955224 0.45 0.37255564332 -1.0008955224 0.4 0.37878623605 
-1.0008955224 0.35 0.38204970956 -1.0008955224 0.3 0.3717481792 -1.0008955224 0.25 0.36302322149 
-1.0008955224 0.2 0.35272073746 -1.0008955224 0.15 0.37235197425 -1.0008955224 0.1 0.38235199451 
-1.0008955224 0.05 0.37854129076 -1.0008955224 0 0.38332530856 -0.95084577114 1.5 0.45156291127 
-0.95084577114 1.45 0.42322549224 -0.95084577114 1.4 0.42088410258 -0.95084577114 1.35 0.41423812509 
-0.95084577114 1.3 0.42216274142 -0.95084577114 1.25 0.41975879669 -0.95084577114 1.2 0.42092531919 
-0.95084577114 1.15 0.41598543525 -0.95084577114 1.1 0.42022719979 -0.95084577114 1.05 0.42696073651 
-0.95084577114 1 0.44637605548 -0.95084577114 0.95 0.4508985877 -0.95084577114 0.9 0.44296038151 
-0.95084577114 0.85 0.44221463799 -0.95084577114 0.8 0.44261446595 -0.95084577114 0.75 0.43216410279 
-0.95084577114 0.7 0.39594593644 -0.95084577114 0.65 0.3819539845 -0.95084577114 0.6 0.37935391068 
-0.95084577114 0.55 0.38678902388 -0.95084577114 0.5 0.39934191108 -0.95084577114 0.45 0.39685502648 
-0.95084577114 0.4 0.39560616016 -0.95084577114 0.35 0.40220168233 -0.95084577114 0.3 0.39970505238 
-0.95084577114 0.25 0.38719117641 -0.95084577114 0.2 0.38622888923 -0.95084577114 0.15 0.38656511903 
-0.95084577114 0.1 0.40091177821 -0.95084577114 0.05 0.40208613873 -0.95084577114 0 0.40156513453 
-0.9007960199 1.5 0.43699064851 -0.9007960199 1.45 0.39426088333 -0.9007960199 1.4 0.39968633652 
-0.9007960199 1.35 0.39536872506 -0.9007960199 1.3 0.40760311484 -0.9007960199 1.25 0.40737122297 
-0.9007960199 1.2 0.4172360003 -0.9007960199 1.15 0.40910840034 -0.9007960199 1.1 0.41747248173 
-0.9007960199 1.05 0.42397809029 -0.9007960199 1 0.44455033541 -0.9007960199 0.95 0.4523255229 
-0.9007960199 0.9 0.44291681051 -0.9007960199 0.85 0.44158008695 -0.9007960199 0.8 0.44212457538 
-0.9007960199 0.75 0.44243702292 -0.9007960199 0.7 0.42035150528 -0.9007960199 0.65 0.41407191753 
-0.9007960199 0.6 0.41418501735 -0.9007960199 0.55 0.41768881679 -0.9007960199 0.5 0.4163043201 
-0.9007960199 0.45 0.40205994248 -0.9007960199 0.4 0.39587655663 -0.9007960199 0.35 0.40115863085 
-0.9007960199 0.3 0.41728460789 -0.9007960199 0.25 0.41180464625 -0.9007960199 0.2 0.41234412789 
-0.9007960199 0.15 0.41003385186 -0.9007960199 0.1 0.4274982512 -0.9007960199 0.05 0.42014235258 
-0.9007960199 0 0.42056944966 -0.85074626866 1.5 0.42416444421 -0.85074626866 1.45 0.38795933127 
-0.85074626866 1.4 0.37856698036 -0.85074626866 1.35 0.37806668878 -0.85074626866 1.3 0.38732922077 
-0.85074626866 1.25 0.3910368681 -0.85074626866 1.2 0.40482729673 -0.85074626866 1.15 0.39815187454 
-0.85074626866 1.1 0.40693432093 -0.85074626866 1.05 0.41718736291 -0.85074626866 1 0.44361826777 
-0.85074626866 0.95 0.44903492928 -0.85074626866 0.9 0.44491910934 -0.85074626866 0.85 0.44097083807 
-0.85074626866 0.8 0.44200778008 -0.85074626866 0.75 0.45142811537 -0.85074626866 0.7 0.44497177005 
-0.85074626866 0.65 0.44520813227 -0.85074626866 0.6 0.43839895725 -0.85074626866 0.55 0.43467131257 
-0.85074626866 0.5 0.4171333611 -0.85074626866 0.45 0.40098831058 -0.85074626866 0.4 0.39580625296 
-0.85074626866 0.35 0.4007268846 -0.85074626866 0.3 0.41612896323 -0.85074626866 0.25 0.43603092432 
-0.85074626866 0.2 0.44429093599 -0.85074626866 0.15 0.4406028986 -0.85074626866 0.1 0.44850605726 
-0.85074626866 0.05 0.42649394274 -0.85074626866 0 0.42192736268 -0.80069651741 1.5 0.40714111924 
-0.80069651741 1.45 0.3808811307 -0.80069651741 1.4 0.36417672038 -0.80069651741 1.35 0.35919064283 
-0.80069651741 1.3 0.36805686355 -0.80069651741 1.25 0.37617293 -0.80069651741 1.2 0.39788228273 
-0.80069651741 1.15 0.38920152187 -0.80069651741 1.1 0.39354002476 -0.80069651741 1.05 0.41739878058 
-0.80069651741 1 0.44415447116 -0.80069651741 0.95 0.44585686922 -0.80069651741 0.9 0.44065466523 
-0.80069651741 0.85 0.43848305941 -0.80069651741 0.8 0.44101846218 -0.80069651741 0.75 0.4550088048 
-0.80069651741 0.7 0.46157580614 -0.80069651741 0.65 0.45783236623 -0.80069651741 0.6 0.44292917848 
-0.80069651741 0.55 0.43507164717 -0.80069651741 0.5 0.41687679291 -0.80069651741 0.45 0.40075206757 
-0.80069651741 0.4 0.39440110326 -0.80069651741 0.35 0.40024369955 -0.80069651741 0.3 0.41340190172 
-0.80069651741 0.25 0.43063795567 -0.80069651741 0.2 0.43853503466 -0.80069651741 0.15 0.45899999142 
-0.80069651741 0.1 0.44704699516 -0.80069651741 0.05 0.42652347684 -0.80069651741 0 0.41452348232 
-0.75064676617 1.5 0.38964650035 -0.75064676617 1.45 0.36855643988 -0.75064676617 1.4 0.33727285266 
-0.75064676617 1.35 0.3382165134 -0.75064676617 1.3 0.35343310237 -0.75064676617 1.25 0.35971295834 
-0.75064676617 1.2 0.37128272653 -0.75064676617 1.15 0.38055834174 -0.75064676617 1.1 0.39129537344 
-0.75064676617 1.05 0.41507008672 -0.75064676617 1 0.44460970163 -0.75064676617 0.95 0.4412651062 
-0.75064676617 0.9 0.43014368415 -0.75064676617 0.85 0.43132063746 -0.75064676617 0.8 0.43868762255 
-0.75064676617 0.75 0.45386967063 -0.75064676617 0.7 0.46578136086 -0.75064676617 0.65 0.45805203915 
-0.75064676617 0.6 0.44925311208 -0.75064676617 0.55 0.43434566259 -0.75064676617 0.5 0.41526931524 
-0.75064676617 0.45 0.39999610186 -0.75064676617 0.4 0.39182880521 -0.75064676617 0.35 0.39744609594 
-0.75064676617 0.3 0.40573528409 -0.75064676617 0.25 0.42123037577 -0.75064676617 0.2 0.42735376954 
-0.75064676617 0.15 0.45655301213 -0.75064676617 0.1 0.44665905833 -0.75064676617 0.05 0.42455303669 
-0.75064676617 0 0.41455301642 -0.70059701493 1.5 0.37961629033 -0.70059701493 1.45 0.34997776151 
-0.70059701493 1.4 0.32190617919 -0.70059701493 1.35 0.32380235195 -0.70059701493 1.3 0.33770161867 
-0.70059701493 1.25 0.3424269855 -0.70059701493 1.2 0.33374238014 -0.70059701493 1.15 0.36775699258 
-0.70059701493 1.1 0.3829588294 -0.70059701493 1.05 0.41282129288 -0.70059701493 1 0.44075316191 
-0.70059701493 0.95 0.4277818203 -0.70059701493 0.9 0.42016077042 -0.70059701493 0.85 0.42229521275 
-0.70059701493 0.8 0.4317689538 -0.70059701493 0.75 0.44983422756 -0.70059701493 0.7 0.45624992251 
-0.70059701493 0.65 0.45274576545 -0.70059701493 0.6 0.43654620647 -0.70059701493 0.55 0.43357118964 
-0.70059701493 0.5 0.41135177016 -0.70059701493 0.45 0.39718979597 -0.70059701493 0.4 0.3881585598 
-0.70059701493 0.35 0.38680809736 -0.70059701493 0.3 0.39906734228 -0.70059701493 0.25 0.40991330147 
-0.70059701493 0.2 0.42264401913 -0.70059701493 0.15 0.45207792521 -0.70059701493 0.1 0.43924301863 
-0.70059701493 0.05 0.41891279817 -0.70059701493 0 0.41016513109 -0.65054726368 1.5 0.36274033785 
-0.65054726368 1.45 0.32747805119 -0.65054726368 1.4 0.30581283569 -0.65054726368 1.35 0.29743340611 
-0.65054726368 1.3 0.32132688165 -0.65054726368 1.25 0.32801139355 -0.65054726368 1.2 0.33891314268 
-0.65054726368 1.15 0.35911896825 -0.65054726368 1.1 0.37644839287 -0.65054726368 1.05 0.40342494845 
-0.65054726368 1 0.42637965083 -0.65054726368 0.95 0.41514891386 -0.65054726368 0.9 0.40636718273 
-0.65054726368 0.85 0.40795913339 -0.65054726368 0.8 0.42390915751 -0.65054726368 0.75 0.436334759 
-0.65054726368 0.7 0.44246780872 -0.65054726368 0.65 0.43762072921 -0.65054726368 0.6 0.43926820159 
-0.65054726368 0.55 0.43603330851 -0.65054726368 0.5 0.40944904089 -0.65054726368 0.45 0.39093869925 
-0.65054726368 0.4 0.37984672189 -0.65054726368 0.35 0.37989616394 -0.65054726368 0.3 0.38820421696 
-0.65054726368 0.25 0.39787358046 -0.65054726368 0.2 0.40868276358 -0.65054726368 0.15 0.43850886822 
-0.65054726368 0.1 0.42850887775 -0.65054726368 0.05 0.41167259216 -0.65054726368 0 0.398612082 
-0.60049751244 1.5 0.33900398016 -0.60049751244 1.45 0.30553689599 -0.60049751244 1.4 0.28989619017 
-0.60049751244 1.35 0.27333918214 -0.60049751244 1.3 0.30227264762 -0.60049751244 1.25 0.31190955639 
-0.60049751244 1.2 0.33059999347 -0.60049751244 1.15 0.34429311752 -0.60049751244 1.1 0.36667409539 
-0.60049751244 1.05 0.39013800025 -0.60049751244 1 0.4010309279 -0.60049751244 0.95 0.39260259271 
-0.60049751244 0.9 0.38734686375 -0.60049751244 0.85 0.39123177528 -0.60049751244 0.8 0.41238132119 
-0.60049751244 0.75 0.41279682517 -0.60049751244 0.7 0.42453688383 -0.60049751244 0.65 0.41793102026 
-0.60049751244 0.6 0.41939663887 -0.60049751244 0.55 0.42522367835 -0.60049751244 0.5 0.40734425187 
-0.60049751244 0.45 0.38756683469 -0.60049751244 0.4 0.37151956558 -0.60049751244 0.35 0.36767876148 
-0.60049751244 0.3 0.37147182226 -0.60049751244 0.25 0.38016110659 -0.60049751244 0.2 0.39052692056 
-0.60049751244 0.15 0.42069962621 -0.60049751244 0.1 0.40834122896 -0.60049751244 0.05 0.39484980702 
-0.60049751244 0 0.39177471399 -0.55044776119 1.5 0.32674387097 -0.55044776119 1.45 0.30098795891 
-0.55044776119 1.4 0.26647010446 -0.55044776119 1.35 0.25414279103 -0.55044776119 1.3 0.28227758408 
-0.55044776119 1.25 0.2976436615 -0.55044776119 1.2 0.32277157903 -0.55044776119 1.15 0.33566665649 
-0.55044776119 1.1 0.35034677386 -0.55044776119 1.05 0.37340781093 -0.55044776119 1 0.37149620056 
-0.55044776119 0.95 0.35505858064 -0.55044776119 0.9 0.35736727715 -0.55044776119 0.85 0.37211298943 
-0.55044776119 0.8 0.39258471131 -0.55044776119 0.75 0.38244870305 -0.55044776119 0.7 0.39084690809 
-0.55044776119 0.65 0.38242247701 -0.55044776119 0.6 0.39525485039 -0.55044776119 0.55 0.3996540308 
-0.55044776119 0.5 0.39203438163 -0.55044776119 0.45 0.37151092291 -0.55044776119 0.4 0.35501366854 
-0.55044776119 0.35 0.35227975249 -0.55044776119 0.3 0.35237410665 -0.55044776119 0.25 0.36084127426 
-0.55044776119 0.2 0.37784782052 -0.55044776119 0.15 0.39740991592 -0.55044776119 0.1 0.38472521305 
-0.55044776119 0.05 0.37505406141 -0.55044776119 0 0.38416218758 -0.50039800995 1.5 0.31683894992 
-0.50039800995 1.45 0.28058108687 -0.50039800995 1.4 0.2443318218 -0.50039800995 1.35 0.24146950245 
-0.50039800995 1.3 0.26886555552 -0.50039800995 1.25 0.27780404687 -0.50039800995 1.2 0.30698233843 
-0.50039800995 1.15 0.3176291883 -0.50039800995 1.1 0.32723304629 -0.50039800995 1.05 0.34409081936 
-0.50039800995 1 0.33880099654 -0.50039800995 0.95 0.31881684065 -0.50039800995 0.9 0.33149829507 
-0.50039800995 0.85 0.34370231628 -0.50039800995 0.8 0.35227137804 -0.50039800995 0.75 0.35592740774 
-0.50039800995 0.7 0.34932279587 -0.50039800995 0.65 0.35406026244 -0.50039800995 0.6 0.36149096489 
-0.50039800995 0.55 0.3678638041 -0.50039800995 0.5 0.36714747548 -0.50039800995 0.45 0.35429793596 
-0.50039800995 0.4 0.33599680662 -0.50039800995 0.35 0.32826021314 -0.50039800995 0.3 0.33377477527 
-0.50039800995 0.25 0.33973962069 -0.50039800995 0.2 0.36622458696 -0.50039800995 0.15 0.37180989981 
-0.50039800995 0.1 0.35300707817 -0.50039800995 0.05 0.35031348467 -0.50039800995 0 0.34970778227 
-0.45034825871 1.5 0.30302977562 -0.45034825871 1.45 0.26400223374 -0.45034825871 1.4 0.24145504832 
-0.45034825871 1.35 0.22406968474 -0.45034825871 1.3 0.23779380322 -0.45034825871 1.25 0.26592487097 
-0.45034825871 1.2 0.28371483088 -0.45034825871 1.15 0.28171423078 -0.45034825871 1.1 0.30919113755 
-0.45034825871 1.05 0.32537701726 -0.45034825871 1 0.30406576395 -0.45034825871 0.95 0.28744164109 
-0.45034825871 0.9 0.28548136353 -0.45034825871 0.85 0.30829373002 -0.45034825871 0.8 0.31699642539 
-0.45034825871 0.75 0.31754249334 -0.45034825871 0.7 0.31466624141 -0.45034825871 0.65 0.31740245223 
-0.45034825871 0.6 0.33188256621 -0.45034825871 0.55 0.34117564559 -0.45034825871 0.5 0.33922660351 
-0.45034825871 0.45 0.3250335753 -0.45034825871 0.4 0.31073129177 -0.45034825871 0.35 0.30224916339 
-0.45034825871 0.3 0.30903127789 -0.45034825871 0.25 0.31531092525 -0.45034825871 0.2 0.3295968473 
-0.45034825871 0.15 0.33557221293 -0.45034825871 0.1 0.32287469506 -0.45034825871 0.05 0.32160493731 
-0.45034825871 0 0.31441420317 -0.40029850746 1.5 0.28762823343 -0.40029850746 1.45 0.26128065586 
-0.40029850746 1.4 0.22613292933 -0.40029850746 1.35 0.20906899869 -0.40029850746 1.3 0.22403408587 
-0.40029850746 1.25 0.24690246582 -0.40029850746 1.2 0.24925227463 -0.40029850746 1.15 0.27559924126 
-0.40029850746 1.1 0.28680631518 -0.40029850746 1.05 0.27853602171 -0.40029850746 1 0.26896038651 
-0.40029850746 0.95 0.26829022169 -0.40029850746 0.9 0.24272157252 -0.40029850746 0.85 0.27707788348 
-0.40029850746 0.8 0.28638678789 -0.40029850746 0.75 0.28490167856 -0.40029850746 0.7 0.29048195481 
-0.40029850746 0.65 0.27412071824 -0.40029850746 0.6 0.30165222287 -0.40029850746 0.55 0.31083673239 
-0.40029850746 0.5 0.30241036415 -0.40029850746 0.45 0.28571754694 -0.40029850746 0.4 0.27070435882 
-0.40029850746 0.35 0.26839444041 -0.40029850746 0.3 0.28988543153 -0.40029850746 0.25 0.28542006016 
-0.40029850746 0.2 0.29490333796 -0.40029850746 0.15 0.31835761666 -0.40029850746 0.1 0.28991633654 
-0.40029850746 0.05 0.28375980258 -0.40029850746 0 0.27707827091 -0.35024875622 1.5 0.26680967212 
-0.35024875622 1.45 0.24784772098 -0.35024875622 1.4 0.20749762654 -0.35024875622 1.35 0.19461004436 
-0.35024875622 1.3 0.20990157127 -0.35024875622 1.25 0.23549719155 -0.35024875622 1.2 0.22850650549 
-0.35024875622 1.15 0.23567977548 -0.35024875622 1.1 0.25771361589 -0.35024875622 1.05 0.25354576111 
-0.35024875622 1 0.24012443423 -0.35024875622 0.95 0.23041981459 -0.35024875622 0.9 0.22600719333 
-0.35024875622 0.85 0.24769310653 -0.35024875622 0.8 0.24706795812 -0.35024875622 0.75 0.24929356575 
-0.35024875622 0.7 0.25122526288 -0.35024875622 0.65 0.25674068928 -0.35024875622 0.6 0.2677847147 
-0.35024875622 0.55 0.2765455842 -0.35024875622 0.5 0.26278340816 -0.35024875622 0.45 0.24663263559 
-0.35024875622 0.4 0.23979149759 -0.35024875622 0.35 0.22633440793 -0.35024875622 0.3 0.24948175251 
-0.35024875622 0.25 0.25463202596 -0.35024875622 0.2 0.25470578671 -0.35024875622 0.15 0.29220488667 
-0.35024875622 0.1 0.25862914324 -0.35024875622 0.05 0.26341843605 -0.35024875622 0 0.25400000811 
-0.30019900498 1.5 0.24136973917 -0.30019900498 1.45 0.23440860212 -0.30019900498 1.4 0.21371921897 
-0.30019900498 1.35 0.18263623118 -0.30019900498 1.3 0.20549510419 -0.30019900498 1.25 0.20285412669 
-0.30019900498 1.2 0.18878260255 -0.30019900498 1.15 0.20585174859 -0.30019900498 1.1 0.21378062665 
-0.30019900498 1.05 0.22199210525 -0.30019900498 1 0.19790062308 -0.30019900498 0.95 0.20089638233 
-0.30019900498 0.9 0.21366675198 -0.30019900498 0.85 0.21849174798 -0.30019900498 0.8 0.21268904209 
-0.30019900498 0.75 0.21843476593 -0.30019900498 0.7 0.21005874872 -0.30019900498 0.65 0.22354911268 
-0.30019900498 0.6 0.23430791497 -0.30019900498 0.55 0.2456342876 -0.30019900498 0.5 0.21699851751 
-0.30019900498 0.45 0.22293685377 -0.30019900498 0.4 0.21048045158 -0.30019900498 0.35 0.20870807767 
-0.30019900498 0.3 0.21589408815 -0.30019900498 0.25 0.22124959528 -0.30019900498 0.2 0.22427943349 
-0.30019900498 0.15 0.22592058778 -0.30019900498 0.1 0.22592058778 -0.30019900498 0.05 0.23073944449 
-0.30019900498 0 0.25020349026 -0.25014925373 1.5 0.20472081006 -0.25014925373 1.45 0.20427383482 
-0.25014925373 1.4 0.20448300242 -0.25014925373 1.35 0.17146614194 -0.25014925373 1.3 0.17396849394 
-0.25014925373 1.25 0.1784093082 -0.25014925373 1.2 0.17459146678 -0.25014925373 1.15 0.17388778925 
-0.25014925373 1.1 0.17470791936 -0.25014925373 1.05 0.16568516195 -0.25014925373 1 0.18171924353 
-0.25014925373 0.95 0.17270833254 -0.25014925373 0.9 0.18438832462 -0.25014925373 0.85 0.18916633725 
-0.25014925373 0.8 0.18546488881 -0.25014925373 0.75 0.19022814929 -0.25014925373 0.7 0.18864408135 
-0.25014925373 0.65 0.18893769383 -0.25014925373 0.6 0.19340534508 -0.25014925373 0.55 0.2113879323 
-0.25014925373 0.5 0.19482438266 -0.25014925373 0.45 0.17962832749 -0.25014925373 0.4 0.18149638176 
-0.25014925373 0.35 0.17197859287 -0.25014925373 0.3 0.17428547144 -0.25014925373 0.25 0.18329206109 
-0.25014925373 0.2 0.1917399168 -0.25014925373 0.15 0.19211950898 -0.25014925373 0.1 0.19357432425 
-0.25014925373 0.05 0.21145187318 -0.25014925373 0 0.20745186508 -0.20009950249 1.5 0.18658739328 
-0.20009950249 1.45 0.17988975346 -0.20009950249 1.4 0.17115537822 -0.20009950249 1.35 0.15116290748 
-0.20009950249 1.3 0.13936531544 -0.20009950249 1.25 0.14497515559 -0.20009950249 1.2 0.1457131505 
-0.20009950249 1.15 0.14903405309 -0.20009950249 1.1 0.15766721964 -0.20009950249 1.05 0.16154570878 
-0.20009950249 1 0.13165031374 -0.20009950249 0.95 0.13457633555 -0.20009950249 0.9 0.15474072099 
-0.20009950249 0.85 0.15735305846 -0.20009950249 0.8 0.15770982206 -0.20009950249 0.75 0.15808165073 
-0.20009950249 0.7 0.1588229388 -0.20009950249 0.65 0.16435924172 -0.20009950249 0.6 0.16168068349 
-0.20009950249 0.55 0.18003706634 -0.20009950249 0.5 0.16788971424 -0.20009950249 0.45 0.15302433074 
-0.20009950249 0.4 0.15390226245 -0.20009950249 0.35 0.15015785396 -0.20009950249 0.3 0.1557970345 
-0.20009950249 0.25 0.16302932799 -0.20009950249 0.2 0.15198004246 -0.20009950249 0.15 0.16380278766 
-0.20009950249 0.1 0.16592486203 -0.20009950249 0.05 0.16775585711 -0.20009950249 0 0.17853520811 
-0.15004975124 1.5 0.14545579255 -0.15004975124 1.45 0.14446817338 -0.15004975124 1.4 0.1427385658 
-0.15004975124 1.35 0.13812850416 -0.15004975124 1.3 0.13218151033 -0.15004975124 1.25 0.11674667895 
-0.15004975124 1.2 0.14287140965 -0.15004975124 1.15 0.13298891485 -0.15004975124 1.1 0.1178458035 
-0.15004975124 1.05 0.12077334523 -0.15004975124 1 0.12923759222 -0.15004975124 0.95 0.132536605 
-0.15004975124 0.9 0.13844768703 -0.15004975124 0.85 0.14936985075 -0.15004975124 0.8 0.15530727804 
-0.15004975124 0.75 0.14644683897 -0.15004975124 0.7 0.14226299524 -0.15004975124 0.65 0.14013665915 
-0.15004975124 0.6 0.14115180075 -0.15004975124 0.55 0.15089040995 -0.15004975124 0.5 0.15099187195 
-0.15004975124 0.45 0.13840597868 -0.15004975124 0.4 0.13823001087 -0.15004975124 0.35 0.13619351387 
-0.15004975124 0.3 0.13498610258 -0.15004975124 0.25 0.13192255795 -0.15004975124 0.2 0.13302288949 
-0.15004975124 0.15 0.13699114323 -0.15004975124 0.1 0.1360745132 -0.15004975124 0.05 0.14673906565 
-0.15004975124 0 0.15502841771 
CELLS 9271 37080
OFFSETS vtktypeint64
0 4 8 12 16 20 24 28 32 
36 40 44 48 52 56 60 64 68 
72 76 80 84 88 92 96 100 104 
108 112 116 120 124 128 132 136 140 
144 148 152 156 160 164 168 172 176 
180 184 188 192 196 200 204 208 212 
216 220 224 228 232 236 240 244 248 
252 256 260 264 268 272 276 280 284 
288 292 296 300 304 308 312 316 320 
324 328 332 336 340 344 348 352 356 
360 364 368 372 376 380 384 388 392 
396 400 404 408 412 416 420 424 428 
432 436 440 444 448 452 456 460 464 
468 472 476 480 484 488 492 496 500 
504 508 512 516 520 524 528 532 536 
540 544 548 552 556 560 564 568 572 
576 580 584 588 592 596 600 604 608 
612 616 620 624 628 632 636 640 644 
648 652 656 660 664 668 672 676 680 
684 688 692 696 700 704 708 712 716 
720 724 728 732 736 740 744 748 752 
756 760 764 768 772 776 780 784 788 
792 796 800 804 808 812 816 820 824 
828 832 836 840 844 848 852 856 860 
864 868 872 876 880 884 888 892 896 
900 904 908 912 916 920 924 928 932 
936 940 944 948 952 956 960 964 968 
972 976 980 984 988 992 996 1000 1004 
1008 1012 1016 1020 1024 1028 1032 1036 1040 
1044 1048 1052 1056 1060 1064 1068 1072 1076 
1080 1084 1088 1092 1096 1100 1104 1108 1112 
1116 1120 1124 1128 1132 1136 1140 1144 1148 
1152 1156 1160 1164 1168 1172 1176 1180 1184 
1188 1192 1196 1200 1204 1208 1212 1216 1220 
1224 1228 1232 1236 1240 1244 1248 1252 1256 
1260 1264 1268 1272 1276 1280 1284 1288 1292 
1296 1300 1304 1308 1312 1316 1320 1324 1328 
1332 1336 1340 1344 1348 1352 1356 1360 1364 
1368 1372 1376 1380 1384 1388 1392 1396 1400 
1404 1408 1412 1416 1420 1424 1428 1432 1436 
1440 1444 1448 1452 1456 1460 1464 1468 1472 
1476 1480 1484 1488 1492 1496 1500 1504 1508 
1512 1516 1520 1524 1528 1532 1536 1540 1544 
1548 1552 1556 1560 1564 1568 1572 1576 1580 
1584 1588 1592 1596 1600 1604 1608 1612 1616 
1620 1624 1628 1632 1636 1640 1644 1648 1652 
1656 1660 1664 1668 1672 1676 1680 1684 1688 
1692 1696 1700 1704 1708 1712 1716 1720 1724 
1728 1732 1736 1740 1744 1748 1752 1756 1760 
1764 1768 1772 1776 1780 1784 1788 1792 1796 
1800 1804 1808 1812 1816 1820 1824 1828 1832 
1836 1840 1844 1848 1852 1856 1860 1864 1868 
1872 1876 1880 1884 1888 1892 1896 1900 1904 
1908 1912 1916 1920 1924 1928 1932 1936 1940 
1944 1948 1952 1956 1960 1964 1968 1972 1976 
1980 1984 1988 1992 1996 2000 2004 2008 2012 
2016 2020 2024 2028 2032 2036 2040 2044 2048 
2052 2056 2060 2064 2068 2072 2076 2080 2084 
2088 2092 2096 2100 2104 2108 2112 2116 2120 
2124 2128 2132 2136 2140 2144 2148 2152 2156 
2160 2164 2168 2172 2176 2180 2184 2188 2192 
2196 2200 2204 2208 2212 2216 2220 2224 2228 
2232 2236 2240 2244 2248 2252 2256 2260 2264 
2268 2272 2276 2280 2284 2288 2292 2296 2300 
2304 2308 2312 2316 2320 2324 2328 2332 2336 
2340 2344 2348 2352 2356 2360 2364 2368 2372 
2376 2380 2384 2388 2392 2396 2400 2404 2408 
2412 2416 2420 2424 2428 2432 2436 2440 2444 
2448 2452 2456 2460 2464 2468 2472 2476 2480 
2484 2488 2492 2496 2500 2504 2508 2512 2516 
2520 2524 2528 2532 2536 2540 2544 2548 2552 
2556 2560 2564 2568 2572 2576 2580 2584 2588 
2592 2596 2600 2604 2608 2612 2616 2620 2624 
2628 2632 2636 2640 2644 2648 2652 2656 2660 
2664 2668 2672 2676 2680 2684 2688 2692 2696 
2700 2704 2708 2712 2716 2720 2724 2728 2732 
2736 2740 2744 2748 2752 2756 2760 2764 2768 
2772 2776 2780 2784 2788 2792 2796 2800 2804 
2808 2812 2816 2820 2824 2828 2832 2836 2840 
2844 2848 2852 2856 2860 2864 2868 2872 2876 
2880 2884 2888 2892 2896 2900 2904 2908 2912 
2916 2920 2924 2928 2932 2936 2940 2944 2948 
2952 2956 2960 2964 2968 2972 2976 2980 2984 
2988 2992 2996 3000 3004 3008 3012 3016 3020 
3024 3028 3032 3036 3040 3044 3048 3052 3056 
3060 3064 3068 3072 3076 3080 3084 3088 3092 
3096 3100 3104 3108 3112 3116 3120 3124 3128 
3132 3136 3140 3144 3148 3152 3156 3160 3164 
3168 3172 3176 3180 3184 3188 3192 3196 3200 
3204 3208 3212 3216 3220 3224 3228 3232 3236 
3240 3244 3248 3252 3256 3260 3264 3268 3272 
3276 3280 3284 3288 3292 3296 3300 3304 3308 
3312 3316 3320 3324 3328 3332 3336 3340 3344 
3348 3352 3356 3360 3364 3368 3372 3376 3380 
3384 3388 3392 3396 3400 3404 3408 3412 3416 
3420 3424 3428 3432 3436 3440 3444 3448 3452 
3456 3460 3464 3468 3472 3476 3480 3484 3488 
3492 3496 3500 3504 3508 3512 3516 3520 3524 
3528 3532 3536 3540 3544 3548 3552 3556 3560 
3564 3568 3572 3576 3580 3584 3588 3592 3596 
3600 3604 3608 3612 3616 3620 3624 3628 3632 
3636 3640 3644 3648 3652 3656 3660 3664 3668 
3672 3676 3680 3684 3688 3692 3696 3700 3704 
3708 3712 3716 3720 3724 3728 3732 3736 3740 
3744 3748 3752 3756 3760 3764 3768 3772 3776 
3780 3784 3788 3792 3796 3800 3804 3808 3812 
3816 3820 3824 3828 3832 3836 3840 3844 3848 
3852 3856 3860 3864 3868 3872 3876 3880 3884 
3888 3892 3896 3900 3904 3908 3912 3916 3920 
3924 3928 3932 3936 3940 3944 3948 3952 3956 
3960 3964 3968 3972 3976 3980 3984 3988 3992 
3996 4000 4004 4008 4012 4016 4020 4024 4028 
4032 4036 4040 4044 4048 4052 4056 4060 4064 
4068 4072 4076 4080 4084 4088 4092 4096 4100 
4104 4108 4112 4116 4120 4124 4128 4132 4136 
4140 4144 4148 4152 4156 4160 4164 4168 4172 
4176 4180 4184 4188 4192 4196 4200 4204 4208 
4212 4216 4220 4224 4228 4232 4236 4240 4244 
4248 4252 4256 4260 4264 4268 4272 4276 4280 
4284 4288 4292 4296 4300 4304 4308 4312 4316 
4320 4324 4328 4332 4336 4340 4344 4348 4352 
4356 4360 4364 4368 4372 4376 4380 4384 4388 
4392 4396 4400 4404 4408 4412 4416 4420 4424 
4428 4432 4436 4440 4444 4448 4452 4456 4460 
4464 4468 4472 4476 4480 4484 4488 4492 4496 
4500 4504 4508 4512 4516 4520 4524 4528 4532 
4536 4540 4544 4548 4552 4556 4560 4564 4568 
4572 4576 4580 4584 4588 4592 4596 4600 4604 
4608 4612 4616 4620 4624 4628 4632 4636 4640 
4644 4648 4652 4656 4660 4664 4668 4672 4676 
4680 4684 4688 4692 4696 4700 4704 4708 4712 
4716 4720 4724 4728 4732 4736 4740 4744 4748 
4752 4756 4760 4764 4768 4772 4776 4780 4784 
4788 4792 4796 4800 4804 4808 4812 4816 4820 
4824 4828 4832 4836 4840 4844 4848 4852 4856 
4860 4864 4868 4872 4876 4880 4884 4888 4892 
4896 4900 4904 4908 4912 4916 4920 4924 4928 
4932 4936 4940 4944 4948 4952 4956 4960 4964 
4968 4972 4976 4980 4984 4988 4992 4996 5000 
5004 5008 5012 5016 5020 5024 5028 5032 5036 
5040 5044 5048 5052 5056 5060 5064 5068 5072 
5076 5080 5084 5088 5092 5096 5100 5104 5108 
5112 5116 5120 5124 5128 5132 5136 5140 5144 
5148 5152 5156 5160 5164 5168 5172 5176 5180 
5184 5188 5192 5196 5200 5204 5208 5212 5216 
5220 5224 5228 5232 5236 5240 5244 5248 5252 
5256 5260 5264 5268 5272 5276 5280 5284 5288 
5292 5296 5300 5304 5308 5312 5316 5320 5324 
5328 5332 5336 5340 5344 5348 5352 5356 5360 
5364 5368 5372 5376 5380 5384 5388 5392 5396 
5400 5404 5408 5412 5416 5420 5424 5428 5432 
5436 5440 5444 5448 5452 5456 5460 5464 5468 
5472 5476 5480 5484 5488 5492 5496 5500 5504 
5508 5512 5516 5520 5524 5528 5532 5536 5540 
5544 5548 5552 5556 5560 5564 5568 5572 5576 
5580 5584 5588 5592 5596 5600 5604 5608 5612 
5616 5620 5624 5628 5632 5636 5640 5644 5648 
5652 5656 5660 5664 5668 5672 5676 5680 5684 
5688 5692 5696 5700 5704 5708 5712 5716 5720 
5724 5728 5732 5736 5740 5744 5748 5752 5756 
5760 5764 5768 5772 5776 5780 5784 5788 5792 
5796 5800 5804 5808 5812 5816 5820 5824 5828 
5832 5836 5840 5844 5848 5852 5856 5860 5864 
5868 5872 5876 5880 5884 5888 5892 5896 5900 
5904 5908 5912 5916 5920 5924 5928 5932 5936 
5940 5944 5948 5952 5956 5960 5964 5968 5972 
5976 5980 5984 5988 5992 5996 6000 6004 6008 
6012 6016 6020 6024 6028 6032 6036 6040 6044 
6048 6052 6056 6060 6064 6068 6072 6076 6080 
6084 6088 6092 6096 6100 6104 6108 6112 6116 
6120 6124 6128 6132 6136 6140 6144 6148 6152 
6156 6160 6164 6168 6172 6176 6180 6184 6188 
6192 6196 6200 6204 6208 6212 6216 6220 6224 
6228 6232 6236 6240 6244 6248 6252 6256 6260 
6264 6268 6272 6276 6280 6284 6288 6292 6296 
6300 6304 6308 6312 6316 6320 6324 6328 6332 
6336 6340 6344 6348 6352 6356 6360 6364 6368 
6372 6376 6380 6384 6388 6392 6396 6400 6404 
6408 6412 6416 6420 6424 6428 6432 6436 6440 
6444 6448 6452 6456 6460 6464 6468 6472 6476 
6480 6484 6488 6492 6496 6500 6504 6508 6512 
6516 6520 6524 6528 6532 6536 6540 6544 6548 
6552 6556 6560 6564 6568 6572 6576 6580 6584 
6588 6592 6596 6600 6604 6608 6612 6616 6620 
6624 6628 6632 6636 6640 6644 6648 6652 6656 
6660 6664 6668 6672 6676 6680 6684 6688 6692 
6696 6700 6704 6708 6712 6716 6720 6724 6728 
6732 6736 6740 6744 6748 6752 6756 6760 6764 
6768 6772 6776 6780 6784 6788 6792 6796 6800 
6804 6808 6812 6816 6820 6824 6828 6832 6836 
6840 6844 6848 6852 6856 6860 6864 6868 6872 
6876 6880 6884 6888 6892 6896 6900 6904 6908 
6912 6916 6920 6924 6928 6932 6936 6940 6944 
6948 6952 6956 6960 6964 6968 6972 6976 6980 
6984 6988 6992 6996 7000 7004 7008 7012 7016 
7020 7024 7028 7032 7036 7040 7044 7048 7052 
7056 7060 7064 7068 7072 7076 7080 7084 7088 
7092 7096 7100 7104 7108 7112 7116 7120 7124 
7128 7132 7136 7140 7144 7148 7152 7156 7160 
7164 7168 7172 7176 7180 7184 7188 7192 7196 
7200 7204 7208 7212 7216 7220 7224 7228 7232 
7236 7240 7244 7248 7252 7256 7260 7264 7268 
7272 7276 7280 7284 7288 7292 7296 7300 7304 
7308 7312 7316 7320 7324 7328 7332 7336 7340 
7344 7348 7352 7356 7360 7364 7368 7372 7376 
7380 7384 7388 7392 7396 7400 7404 7408 7412 
7416 7420 7424 7428 7432 7436 7440 7444 7448 
7452 7456 7460 7464 7468 7472 7476 7480 7484 
7488 7492 7496 7500 7504 7508 7512 7516 7520 
7524 7528 7532 7536 7540 7544 7548 7552 7556 
7560 7564 7568 7572 7576 7580 7584 7588 7592 
7596 7600 7604 7608 7612 7616 7620 7624 7628 
7632 7636 7640 7644 7648 7652 7656 7660 7664 
7668 7672 7676 7680 7684 7688 7692 7696 7700 
7704 7708 7712 7716 7720 7724 7728 7732 7736 
7740 7744 7748 7752 7756 7760 7764 7768 7772 
7776 7780 7784 7788 7792 7796 7800 7804 7808 
7812 7816 7820 7824 7828 7832 7836 7840 7844 
7848 7852 7856 7860 7864 7868 7872 7876 7880 
7884 7888 7892 7896 7900 7904 7908 7912 7916 
7920 7924 7928 7932 7936 7940 7944 7948 7952 
7956 7960 7964 7968 7972 7976 7980 7984 7988 
7992 7996 8000 8004 8008 8012 8016 8020 8024 
8028 8032 8036 8040 8044 8048 8052 8056 8060 
8064 8068 8072 8076 8080 8084 8088 8092 8096 
8100 8104 8108 8112 8116 8120 8124 8128 8132 
8136 8140 8144 8148 8152 8156 8160 8164 8168 
8172 8176 8180 8184 8188 8192 8196 8200 8204 
8208 8212 8216 8220 8224 8228 8232 8236 8240 
8244 8248 8252 8256 8260 8264 8268 8272 8276 
8280 8284 8288 8292 8296 8300 8304 8308 8312 
8316 8320 8324 8328 8332 8336 8340 8344 8348 
8352 8356 8360 8364 8368 8372 8376 8380 8384 
8388 8392 8396 8400 8404 8408 8412 8416 8420 
8424 8428 8432 8436 8440 8444 8448 8452 8456 
8460 8464 8468 8472 8476 8480 8484 8488 8492 
8496 8500 8504 8508 8512 8516 8520 8524 8528 
8532 8536 8540 8544 8548 8552 8556 8560 8564 
8568 8572 8576 8580 8584 8588 8592 8596 8600 
8604 8608 8612 8616 8620 8624 8628 8632 8636 
8640 8644 8648 8652 8656 8660 8664 8668 8672 
8676 8680 8684 8688 8692 8696 8700 8704 8708 
8712 8716 8720 8724 8728 8732 8736 8740 8744 
8748 8752 8756 8760 8764 8768 8772 8776 8780 
8784 8788 8792 8796 8800 8804 8808 8812 8816 
8820 8824 8828 8832 8836 8840 8844 8848 8852 
8856 8860 8864 8868 8872 8876 8880 8884 8888 
8892 8896 8900 8904 8908 8912 8916 8920 8924 
8928 8932 8936 8940 8944 8948 8952 8956 8960 
8964 8968 8972 8976 8980 8984 8988 8992 8996 
9000 9004 9008 9012 9016 9020 9024 9028 9032 
9036 9040 9044 9048 9052 9056 9060 9064 9068 
9072 9076 9080 9084 9088 9092 9096 9100 9104 
9108 9112 9116 9120 9124 9128 9132 9136 9140 
9144 9148 9152 9156 9160 9164 9168 9172 9176 
9180 9184 9188 9192 9196 9200 9204 9208 9212 
9216 9220 9224 9228 9232 9236 9240 9244 9248 
9252 9256 9260 9264 9268 9272 9276 9280 9284 
9288 9292 9296 9300 9304 9308 9312 9316 9320 
9324 9328 9332 9336 9340 9344 9348 9352 9356 
9360 9364 9368 9372 9376 9380 9384 9388 9392 
9396 9400 9404 9408 9412 9416 9420 9424 9428 
9432 9436 9440 9444 9448 9452 9456 9460 9464 
9468 9472 9476 9480 9484 9488 9492 9496 9500 
9504 9508 9512 9516 9520 9524 9528 9532 9536 
9540 9544 9548 9552 9556 9560 9564 9568 9572 
9576 9580 9584 9588 9592 9596 9600 9604 9608 
9612 9616 9620 9624 9628 9632 9636 9640 9644 
9648 9652 9656 9660 9664 9668 9672 9676 9680 
9684 9688 9692 9696 9700 9704 9708 9712 9716 
9720 9724 9728 9732 9736 9740 9744 9748 9752 
9756 9760 9764 9768 9772 9776 9780 9784 9788 
9792 9796 9800 9804 9808 9812 9816 9820 9824 
9828 9832 9836 9840 9844 9848 9852 9856 9860 
9864 9868 9872 9876 9880 9884 9888 9892 9896 
9900 9904 9908 9912 9916 9920 9924 9928 9932 
9936 9940 9944 9948 9952 9956 9960 9964 9968 
9972 9976 9980 9984 9988 9992 9996 10000 10004 
10008 10012 10016 10020 10024 10028 10032 10036 10040 
10044 10048 10052 10056 10060 10064 10068 10072 10076 
10080 10084 10088 10092 10096 10100 10104 10108 10112 
10116 10120 10124 10128 10132 10136 10140 10144 10148 
10152 10156 10160 10164 10168 10172 10176 10180 10184 
10188 10192 10196 10200 10204 10208 10212 10216 10220 
10224 10228 10232 10236 10240 10244 10248 10252 10256 
10260 10264 10268 10272 10276 10280 10284 10288 10292 
10296 10300 10304 10308 10312 10316 10320 10324 10328 
10332 10336 10340 10344 10348 10352 10356 10360 10364 
10368 10372 10376 10380 10384 10388 10392 10396 10400 
10404 10408 10412 10416 10420 10424 10428 10432 10436 
10440 10444 10448 10452 10456 10460 10464 10468 10472 
10476 10480 10484 10488 10492 10496 10500 10504 10508 
10512 10516 10520 10524 10528 10532 10536 10540 10544 
10548 10552 10556 10560 10564 10568 10572 10576 10580 
10584 10588 10592 10596 10600 10604 10608 10612 10616 
10620 10624 10628 10632 10636 10640 10644 10648 10652 
10656 10660 10664 10668 10672 10676 10680 10684 10688 
10692 10696 10700 10704 10708 10712 10716 10720 10724 
10728 10732 10736 10740 10744 10748 10752 10756 10760 
10764 10768 10772 10776 10780 10784 10788 10792 10796 
10800 10804 10808 10812 10816 10820 10824 10828 10832 
10836 10840 10844 10848 10852 10856 10860 10864 10868 
10872 10876 10880 10884 10888 10892 10896 10900 10904 
10908 10912 10916 10920 10924 10928 10932 10936 10940 
10944 10948 10952 10956 10960 10964 10968 10972 10976 
10980 10984 10988 10992 10996 11000 11004 11008 11012 
11016 11020 11024 11028 11032 11036 11040 11044 11048 
11052 11056 11060 11064 11068 11072 11076 11080 11084 
11088 11092 11096 11100 11104 11108 11112 11116 11120 
11124 11128 11132 11136 11140 11144 11148 11152 11156 
11160 11164 11168 11172 11176 11180 11184 11188 11192 
11196 11200 11204 11208 11212 11216 11220 11224 11228 
11232 11236 11240 11244 11248 11252 11256 11260 11264 
11268 11272 11276 11280 11284 11288 11292 11296 11300 
11304 11308 11312 11316 11320 11324 11328 11332 11336 
11340 11344 11348 11352 11356 11360 11364 11368 11372 
11376 11380 11384 11388 11392 11396 11400 11404 11408 
11412 11416 11420 11424 11428 11432 11436 11440 11444 
11448 11452 11456 11460 11464 11468 11472 11476 11480 
11484 11488 11492 11496 11500 11504 11508 11512 11516 
11520 11524 11528 11532 11536 11540 11544 11548 11552 
11556 11560 11564 11568 11572 11576 11580 11584 11588 
11592 11596 11600 11604 11608 11612 11616 11620 11624 
11628 11632 11636 11640 11644 11648 11652 11656 11660 
11664 11668 11672 11676 11680 11684 11688 11692 11696 
11700 11704 11708 11712 11716 11720 11724 11728 11732 
11736 11740 11744 11748 11752 11756 11760 11764 11768 
11772 11776 11780 11784 11788 11792 11796 11800 11804 
11808 11812 11816 11820 11824 11828 11832 11836 11840 
11844 11848 11852 11856 11860 11864 11868 11872 11876 
11880 11884 11888 11892 11896 11900 11904 11908 11912 
11916 11920 11924 11928 11932 11936 11940 11944 11948 
11952 11956 11960 11964 11968 11972 11976 11980 11984 
11988 11992 11996 12000 12004 12008 12012 12016 12020 
12024 12028 12032 12036 12040 12044 12048 12052 12056 
12060 12064 12068 12072 12076 12080 12084 12088 12092 
12096 12100 12104 12108 12112 12116 12120 12124 12128 
12132 12136 12140 12144 12148 12152 12156 12160 12164 
12168 12172 12176 12180 12184 12188 12192 12196 12200 
12204 12208 12212 12216 12220 12224 12228 12232 12236 
12240 12244 12248 12252 12256 12260 12264 12268 12272 
12276 12280 12284 12288 12292 12296 12300 12304 12308 
12312 12316 12320 12324 12328 12332 12336 12340 12344 
12348 12352 12356 12360 12364 12368 12372 12376 12380 
12384 12388 12392 12396 12400 12404 12408 12412 12416 
12420 12424 12428 12432 12436 12440 12444 12448 12452 
12456 12460 12464 12468 12472 12476 12480 12484 12488 
12492 12496 12500 12504 12508 12512 12516 12520 12524 
12528 12532 12536 12540 12544 12548 12552 12556 12560 
12564 12568 12572 12576 12580 12584 12588 12592 12596 
12600 12604 12608 12612 12616 12620 12624 12628 12632 
12636 12640 12644 12648 12652 12656 12660 12664 12668 
12672 12676 12680 12684 12688 12692 12696 12700 12704 
12708 12712 12716 12720 12724 12728 12732 12736 12740 
12744 12748 12752 12756 12760 12764 12768 12772 12776 
12780 12784 12788 12792 12796 12800 12804 12808 12812 
12816 12820 12824 12828 12832 12836 12840 12844 12848 
12852 12856 12860 12864 12868 12872 12876 12880 12884 
12888 12892 12896 12900 12904 12908 12912 12916 12920 
12924 12928 12932 12936 12940 12944 12948 12952 12956 
12960 12964 12968 12972 12976 12980 12984 12988 12992 
12996 13000 13004 13008 13012 13016 13020 13024 13028 
13032 13036 13040 13044 13048 13052 13056 13060 13064 
13068 13072 13076 13080 13084 13088 13092 13096 13100 
13104 13108 13112 13116 13120 13124 13128 13132 13136 
13140 13144 13148 13152 13156 13160 13164 13168 13172 
13176 13180 13184 13188 13192 13196 13200 13204 13208 
13212 13216 13220 13224 13228 13232 13236 13240 13244 
13248 13252 13256 13260 13264 13268 13272 13276 13280 
13284 13288 13292 13296 13300 13304 13308 13312 13316 
13320 13324 13328 13332 13336 13340 13344 13348 13352 
13356 13360 13364 13368 13372 13376 13380 13384 13388 
13392 13396 13400 13404 13408 13412 13416 13420 13424 
13428 13432 13436 13440 13444 13448 13452 13456 13460 
13464 13468 13472 13476 13480 13484 13488 13492 13496 
13500 13504 13508 13512 13516 13520 13524 13528 13532 
13536 13540 13544 13548 13552 13556 13560 13564 13568 
13572 13576 13580 13584 13588 13592 13596 13600 13604 
13608 13612 13616 13620 13624 13628 13632 13636 13640 
13644 13648 13652 13656 13660 13664 13668 13672 13676 
13680 13684 13688 13692 13696 13700 13704 13708 13712 
13716 13720 13724 13728 13732 13736 13740 13744 13748 
13752 13756 13760 13764 13768 13772 13776 13780 13784 
13788 13792 13796 13800 13804 13808 13812 13816 13820 
13824 13828 13832 13836 13840 13844 13848 13852 13856 
13860 13864 13868 13872 13876 13880 13884 13888 13892 
13896 13900 13904 13908 13912 13916 13920 13924 13928 
13932 13936 13940 13944 13948 13952 13956 13960 13964 
13968 13972 13976 13980 13984 13988 13992 13996 14000 
14004 14008 14012 14016 14020 14024 14028 14032 14036 
14040 14044 14048 14052 14056 14060 14064 14068 14072 
14076 14080 14084 14088 14092 14096 14100 14104 14108 
14112 14116 14120 14124 14128 14132 14136 14140 14144 
14148 14152 14156 14160 14164 14168 14172 14176 14180 
14184 14188 14192 14196 14200 14204 14208 14212 14216 
14220 14224 14228 14232 14236 14240 14244 14248 14252 
14256 14260 14264 14268 14272 14276 14280 14284 14288 
14292 14296 14300 14304 14308 14312 14316 14320 14324 
14328 14332 14336 14340 14344 14348 14352 14356 14360 
14364 14368 14372 14376 14380 14384 14388 14392 14396 
14400 14404 14408 14412 14416 14420 14424 14428 14432 
14436 14440 14444 14448 14452 14456 14460 14464 14468 
14472 14476 14480 14484 14488 14492 14496 14500 14504 
14508 14512 14516 14520 14524 14528 14532 14536 14540 
14544 14548 14552 14556 14560 14564 14568 14572 14576 
14580 14584 14588 14592 14596 14600 14604 14608 14612 
14616 14620 14624 14628 14632 14636 14640 14644 14648 
14652 14656 14660 14664 14668 14672 14676 14680 14684 
14688 14692 14696 14700 14704 14708 14712 14716 14720 
14724 14728 14732 14736 14740 14744 14748 14752 14756 
14760 14764 14768 14772 14776 14780 14784 14788 14792 
14796 14800 14804 14808 14812 14816 14820 14824 14828 
14832 14836 14840 14844 14848 14852 14856 14860 14864 
14868 14872 14876 14880 14884 14888 14892 14896 14900 
14904 14908 14912 14916 14920 14924 14928 14932 14936 
14940 14944 14948 14952 14956 14960 14964 14968 14972 
14976 14980 14984 14988 14992 14996 15000 15004 15008 
15012 15016 15020 15024 15028 15032 15036 15040 15044 
15048 15052 15056 15060 15064 15068 15072 15076 15080 
15084 15088 15092 15096 15100 15104 15108 15112 15116 
15120 15124 15128 15132 15136 15140 15144 15148 15152 
15156 15160 15164 15168 15172 15176 15180 15184 15188 
15192 15196 15200 15204 15208 15212 15216 15220 15224 
15228 15232 15236 15240 15244 15248 15252 15256 15260 
15264 15268 15272 15276 15280 15284 15288 15292 15296 
15300 15304 15308 15312 15316 15320 15324 15328 15332 
15336 15340 15344 15348 15352 15356 15360 15364 15368 
15372 15376 15380 15384 15388 15392 15396 15400 15404 
15408 15412 15416 15420 15424 15428 15432 15436 15440 
15444 15448 15452 15456 15460 15464 15468 15472 15476 
15480 15484 15488 15492 15496 15500 15504 15508 15512 
15516 15520 15524 15528 15532 15536 15540 15544 15548 
15552 15556 15560 15564 15568 15572 15576 15580 15584 
15588 15592 15596 15600 15604 15608 15612 15616 15620 
15624 15628 15632 15636 15640 15644 15648 15652 15656 
15660 15664 15668 15672 15676 15680 15684 15688 15692 
15696 15700 15704 15708 15712 15716 15720 15724 15728 
15732 15736 15740 15744 15748 15752 15756 15760 15764 
15768 15772 15776 15780 15784 15788 15792 15796 15800 
15804 15808 15812 15816 15820 15824 15828 15832 15836 
15840 15844 15848 15852 15856 15860 15864 15868 15872 
15876 15880 15884 15888 15892 15896 15900 15904 15908 
15912 15916 15920 15924 15928 15932 15936 15940 15944 
15948 15952 15956 15960 15964 15968 15972 15976 15980 
15984 15988 15992 15996 16000 16004 16008 16012 16016 
16020 16024 16028 16032 16036 16040 16044 16048 16052 
16056 16060 16064 16068 16072 16076 16080 16084 16088 
16092 16096 16100 16104 16108 16112 16116 16120 16124 
16128 16132 16136 16140 16144 16148 16152 16156 16160 
16164 16168 16172 16176 16180 16184 16188 16192 16196 
16200 16204 16208 16212 16216 16220 16224 16228 16232 
16236 16240 16244 16248 16252 16256 16260 16264 16268 
16272 16276 16280 16284 16288 16292 16296 16300 16304 
16308 16312 16316 16320 16324 16328 16332 16336 16340 
16344 16348 16352 16356 16360 16364 16368 16372 16376 
16380 16384 16388 16392 16396 16400 16404 16408 16412 
16416 16420 16424 16428 16432 16436 16440 16444 16448 
16452 16456 16460 16464 16468 16472 16476 16480 16484 
16488 16492 16496 16500 16504 16508 16512 16516 16520 
16524 16528 16532 16536 16540 16544 16548 16552 16556 
16560 16564 16568 16572 16576 16580 16584 16588 16592 
16596 16600 16604 16608 16612 16616 16620 16624 16628 
16632 16636 16640 16644 16648 16652 16656 16660 16664 
16668 16672 16676 16680 16684 16688 16692 16696 16700 
16704 16708 16712 16716 16720 16724 16728 16732 16736 
16740 16744 16748 16752 16756 16760 16764 16768 16772 
16776 16780 16784 16788 16792 16796 16800 16804 16808 
16812 16816 16820 16824 16828 16832 16836 16840 16844 
16848 16852 16856 16860 16864 16868 16872 16876 16880 
16884 16888 16892 16896 16900 16904 16908 16912 16916 
16920 16924 16928 16932 16936 16940 16944 16948 16952 
16956 16960 16964 16968 16972 16976 16980 16984 16988 
16992 16996 17000 17004 17008 17012 17016 17020 17024 
17028 17032 17036 17040 17044 17048 17052 17056 17060 
17064 17068 17072 17076 17080 17084 17088 17092 17096 
17100 17104 17108 17112 17116 17120 17124 17128 17132 
17136 17140 17144 17148 17152 17156 17160 17164 17168 
17172 17176 17180 17184 17188 17192 17196 17200 17204 
17208 17212 17216 17220 17224 17228 17232 17236 17240 
17244 17248 17252 17256 17260 17264 17268 17272 17276 
17280 17284 17288 17292 17296 17300 17304 17308 17312 
17316 17320 17324 17328 17332 17336 17340 17344 17348 
17352 17356 17360 17364 17368 17372 17376 17380 17384 
17388 17392 17396 17400 17404 17408 17412 17416 17420 
17424 17428 17432 17436 17440 17444 17448 17452 17456 
17460 17464 17468 17472 17476 17480 17484 17488 17492 
17496 17500 17504 17508 17512 17516 17520 17524 17528 
17532 17536 17540 17544 17548 17552 17556 17560 17564 
17568 17572 17576 17580 17584 17588 17592 17596 17600 
17604 17608 17612 17616 17620 17624 17628 17632 17636 
17640 17644 17648 17652 17656 17660 17664 17668 17672 
17676 17680 17684 17688 17692 17696 17700 17704 17708 
17712 17716 17720 17724 17728 17732 17736 17740 17744 
17748 17752 17756 17760 17764 17768 17772 17776 17780 
17784 17788 17792 17796 17800 17804 17808 17812 17816 
17820 17824 17828 17832 17836 17840 17844 17848 17852 
17856 17860 17864 17868 17872 17876 17880 17884 17888 
17892 17896 17900 17904 17908 17912 17916 17920 17924 
17928 17932 17936 17940 17944 17948 17952 17956 17960 
17964 17968 17972 17976 17980 17984 17988 17992 17996 
18000 18004 18008 18012 18016 18020 18024 18028 18032 
18036 18040 18044 18048 18052 18056 18060 18064 18068 
18072 18076 18080 18084 18088 18092 18096 18100 18104 
18108 18112 18116 18120 18124 18128 18132 18136 18140 
18144 18148 18152 18156 18160 18164 18168 18172 18176 
18180 18184 18188 18192 18196 18200 18204 18208 18212 
18216 18220 18224 18228 18232 18236 18240 18244 18248 
18252 18256 18260 18264 18268 18272 18276 18280 18284 
18288 18292 18296 18300 18304 18308 18312 18316 18320 
18324 18328 18332 18336 18340 18344 18348 18352 18356 
18360 18364 18368 18372 18376 18380 18384 18388 18392 
18396 18400 18404 18408 18412 18416 18420 18424 18428 
18432 18436 18440 18444 18448 18452 18456 18460 18464 
18468 18472 18476 18480 18484 18488 18492 18496 18500 
18504 18508 18512 18516 18520 18524 18528 18532 18536 
18540 18544 18548 18552 18556 18560 18564 18568 18572 
18576 18580 18584 18588 18592 18596 18600 18604 18608 
18612 18616 18620 18624 18628 18632 18636 18640 18644 
18648 18652 18656 18660 18664 18668 18672 18676 18680 
18684 18688 18692 18696 18700 18704 18708 18712 18716 
18720 18724 18728 18732 18736 18740 18744 18748 18752 
18756 18760 18764 18768 18772 18776 18780 18784 18788 
18792 18796 18800 18804 18808 18812 18816 18820 18824 
18828 18832 18836 18840 18844 18848 18852 18856 18860 
18864 18868 18872 18876 18880 18884 18888 18892 18896 
18900 18904 18908 18912 18916 18920 18924 18928 18932 
18936 18940 18944 18948 18952 18956 18960 18964 18968 
18972 18976 18980 18984 18988 18992 18996 19000 19004 
19008 19012 19016 19020 19024 19028 19032 19036 19040 
19044 19048 19052 19056 19060 19064 19068 19072 19076 
19080 19084 19088 19092 19096 19100 19104 19108 19112 
19116 19120 19124 19128 19132 19136 19140 19144 19148 
19152 19156 19160 19164 19168 19172 19176 19180 19184 
19188 19192 19196 19200 19204 19208 19212 19216 19220 
19224 19228 19232 19236 19240 19244 19248 19252 19256 
19260 19264 19268 19272 19276 19280 19284 19288 19292 
19296 19300 19304 19308 19312 19316 19320 19324 19328 
19332 19336 19340 19344 19348 19352 19356 19360 19364 
19368 19372 19376 19380 19384 19388 19392 19396 19400 
19404 19408 19412 19416 19420 19424 19428 19432 19436 
19440 19444 19448 19452 19456 19460 19464 19468 19472 
19476 19480 19484 19488 19492 19496 19500 19504 19508 
19512 19516 19520 19524 19528 19532 19536 19540 19544 
19548 19552 19556 19560 19564 19568 19572 19576 19580 
19584 19588 19592 19596 19600 19604 19608 19612 19616 
19620 19624 19628 19632 19636 19640 19644 19648 19652 
19656 19660 19664 19668 19672 19676 19680 19684 19688 
19692 19696 19700 19704 19708 19712 19716 19720 19724 
19728 19732 19736 19740 19744 19748 19752 19756 19760 
19764 19768 19772 19776 19780 19784 19788 19792 19796 
19800 19804 19808 19812 19816 19820 19824 19828 19832 
19836 19840 19844 19848 19852 19856 19860 19864 19868 
19872 19876 19880 19884 19888 19892 19896 19900 19904 
19908 19912 19916 19920 19924 19928 19932 19936 19940 
19944 19948 19952 19956 19960 19964 19968 19972 19976 
19980 19984 19988 19992 19996 20000 20004 20008 20012 
20016 20020 20024 20028 20032 20036 20040 20044 20048 
20052 20056 20060 20064 20068 20072 20076 20080 20084 
20088 20092 20096 20100 20104 20108 20112 20116 20120 
20124 20128 20132 20136 20140 20144 20148 20152 20156 
20160 20164 20168 20172 20176 20180 20184 20188 20192 
20196 20200 20204 20208 20212 20216 20220 20224 20228 
20232 20236 20240 20244 20248 20252 20256 20260 20264 
20268 20272 20276 20280 20284 20288 20292 20296 20300 
20304 20308 20312 20316 20320 20324 20328 20332 20336 
20340 20344 20348 20352 20356 20360 20364 20368 20372 
20376 20380 20384 20388 20392 20396 20400 20404 20408 
20412 20416 20420 20424 20428 20432 20436 20440 20444 
20448 20452 20456 20460 20464 20468 20472 20476 20480 
20484 20488 20492 20496 20500 20504 20508 20512 20516 
20520 20524 20528 20532 20536 20540 20544 20548 20552 
20556 20560 20564 20568 20572 20576 20580 20584 20588 
20592 20596 20600 20604 20608 20612 20616 20620 20624 
20628 20632 20636 20640 20644 20648 20652 20656 20660 
20664 20668 20672 20676 20680 20684 20688 20692 20696 
20700 20704 20708 20712 20716 20720 20724 20728 20732 
20736 20740 20744 20748 20752 20756 20760 20764 20768 
20772 20776 20780 20784 20788 20792 20796 20800 20804 
20808 20812 20816 20820 20824 20828 20832 20836 20840 
20844 20848 20852 20856 20860 20864 20868 20872 20876 
20880 20884 20888 20892 20896 20900 20904 20908 20912 
20916 20920 20924 20928 20932 20936 20940 20944 20948 
20952 20956 20960 20964 20968 20972 20976 20980 20984 
20988 20992 20996 21000 21004 21008 21012 21016 21020 
21024 21028 21032 21036 21040 21044 21048 21052 21056 
21060 21064 21068 21072 21076 21080 21084 21088 21092 
21096 21100 21104 21108 21112 21116 21120 21124 21128 
21132 21136 21140 21144 21148 21152 21156 21160 21164 
21168 21172 21176 21180 21184 21188 21192 21196 21200 
21204 21208 21212 21216 21220 21224 21228 21232 21236 
21240 21244 21248 21252 21256 21260 21264 21268 21272 
21276 21280 21284 21288 21292 21296 21300 21304 21308 
21312 21316 21320 21324 21328 21332 21336 21340 21344 
21348 21352 21356 21360 21364 21368 21372 21376 21380 
21384 21388 21392 21396 21400 21404 21408 21412 21416 
21420 21424 21428 21432 21436 21440 21444 21448 21452 
21456 21460 21464 21468 21472 21476 21480 21484 21488 
21492 21496 21500 21504 21508 21512 21516 21520 21524 
21528 21532 21536 21540 21544 21548 21552 21556 21560 
21564 21568 21572 21576 21580 21584 21588 21592 21596 
21600 21604 21608 21612 21616 21620 21624 21628 21632 
21636 21640 21644 21648 21652 21656 21660 21664 21668 
21672 21676 21680 21684 21688 21692 21696 21700 21704 
21708 21712 21716 21720 21724 21728 21732 21736 21740 
21744 21748 21752 21756 21760 21764 21768 21772 21776 
21780 21784 21788 21792 21796 21800 21804 21808 21812 
21816 21820 21824 21828 21832 21836 21840 21844 21848 
21852 21856 21860 21864 21868 21872 21876 21880 21884 
21888 21892 21896 21900 21904 21908 21912 21916 21920 
21924 21928 21932 21936 21940 21944 21948 21952 21956 
21960 21964 21968 21972 21976 21980 21984 21988 21992 
21996 22000 22004 22008 22012 22016 22020 22024 22028 
22032 22036 22040 22044 22048 22052 22056 22060 22064 
22068 22072 22076 22080 22084 22088 22092 22096 22100 
22104 22108 22112 22116 22120 22124 22128 22132 22136 
22140 22144 22148 22152 22156 22160 22164 22168 22172 
22176 22180 22184 22188 22192 22196 22200 22204 22208 
22212 22216 22220 22224 22228 22232 22236 22240 22244 
22248 22252 22256 22260 22264 22268 22272 22276 22280 
22284 22288 22292 22296 22300 22304 22308 22312 22316 
22320 22324 22328 22332 22336 22340 22344 22348 22352 
22356 22360 22364 22368 22372 22376 22380 22384 22388 
22392 22396 22400 22404 22408 22412 22416 22420 22424 
22428 22432 22436 22440 22444 22448 22452 22456 22460 
22464 22468 22472 22476 22480 22484 22488 22492 22496 
22500 22504 22508 22512 22516 22520 22524 22528 22532 
22536 22540 22544 22548 22552 22556 22560 22564 22568 
22572 22576 22580 22584 22588 22592 22596 22600 22604 
22608 22612 22616 22620 22624 22628 22632 22636 22640 
22644 22648 22652 22656 22660 22664 22668 22672 22676 
22680 22684 22688 22692 22696 22700 22704 22708 22712 
22716 22720 22724 22728 22732 22736 22740 22744 22748 
22752 22756 22760 22764 22768 22772 22776 22780 22784 
22788 22792 22796 22800 22804 22808 22812 22816 22820 
22824 22828 22832 22836 22840 22844 22848 22852 22856 
22860 22864 22868 22872 22876 22880 22884 22888 22892 
22896 22900 22904 22908 22912 22916 22920 22924 22928 
22932 22936 22940 22944 22948 22952 22956 22960 22964 
22968 22972 22976 22980 22984 22988 22992 22996 23000 
23004 23008 23012 23016 23020 23024 23028 23032 23036 
23040 23044 23048 23052 23056 23060 23064 23068 23072 
23076 23080 23084 23088 23092 23096 23100 23104 23108 
23112 23116 23120 23124 23128 23132 23136 23140 23144 
23148 23152 23156 23160 23164 23168 23172 23176 23180 
23184 23188 23192 23196 23200 23204 23208 23212 23216 
23220 23224 23228 23232 23236 23240 23244 23248 23252 
23256 23260 23264 23268 23272 23276 23280 23284 23288 
23292 23296 23300 23304 23308 23312 23316 23320 23324 
23328 23332 23336 23340 23344 23348 23352 23356 23360 
23364 23368 23372 23376 23380 23384 23388 23392 23396 
23400 23404 23408 23412 23416 23420 23424 23428 23432 
23436 23440 23444 23448 23452 23456 23460 23464 23468 
23472 23476 23480 23484 23488 23492 23496 23500 23504 
23508 23512 23516 23520 23524 23528 23532 23536 23540 
23544 23548 23552 23556 23560 23564 23568 23572 23576 
23580 23584 23588 23592 23596 23600 23604 23608 23612 
23616 23620 23624 23628 23632 23636 23640 23644 23648 
23652 23656 23660 23664 23668 23672 23676 23680 23684 
23688 23692 23696 23700 23704 23708 23712 23716 23720 
23724 23728 23732 23736 23740 23744 23748 23752 23756 
23760 23764 23768 23772 23776 23780 23784 23788 23792 
23796 23800 23804 23808 23812 23816 23820 23824 23828 
23832 23836 23840 23844 23848 23852 23856 23860 23864 
23868 23872 23876 23880 23884 23888 23892 23896 23900 
23904 23908 23912 23916 23920 23924 23928 23932 23936 
23940 23944 23948 23952 23956 23960 23964 23968 23972 
23976 23980 23984 23988 23992 23996 24000 24004 24008 
24012 24016 24020 24024 24028 24032 24036 24040 24044 
24048 24052 24056 24060 24064 24068 24072 24076 24080 
24084 24088 24092 24096 24100 24104 24108 24112 24116 
24120 24124 24128 24132 24136 24140 24144 24148 24152 
24156 24160 24164 24168 24172 24176 24180 24184 24188 
24192 24196 24200 24204 24208 24212 24216 24220 24224 
24228 24232 24236 24240 24244 24248 24252 24256 24260 
24264 24268 24272 24276 24280 24284 24288 24292 24296 
24300 24304 24308 24312 24316 24320 24324 24328 24332 
24336 24340 24344 24348 24352 24356 24360 24364 24368 
24372 24376 24380 24384 24388 24392 24396 24400 24404 
24408 24412 24416 24420 24424 24428 24432 24436 24440 
24444 24448 24452 24456 24460 24464 24468 24472 24476 
24480 24484 24488 24492 24496 24500 24504 24508 24512 
24516 24520 24524 24528 24532 24536 24540 24544 24548 
24552 24556 24560 24564 24568 24572 24576 24580 24584 
24588 24592 24596 24600 24604 24608 24612 24616 24620 
24624 24628 24632 24636 24640 24644 24648 24652 24656 
24660 24664 24668 24672 24676 24680 24684 24688 24692 
24696 24700 24704 24708 24712 24716 24720 24724 24728 
24732 24736 24740 24744 24748 24752 24756 24760 24764 
24768 24772 24776 24780 24784 24788 24792 24796 24800 
24804 24808 24812 24816 24820 24824 24828 24832 24836 
24840 24844 24848 24852 24856 24860 24864 24868 24872 
24876 24880 24884 24888 24892 24896 24900 24904 24908 
24912 24916 24920 24924 24928 24932 24936 24940 24944 
24948 24952 24956 24960 24964 24968 24972 24976 24980 
24984 24988 24992 24996 25000 25004 25008 25012 25016 
25020 25024 25028 25032 25036 25040 25044 25048 25052 
25056 25060 25064 25068 25072 25076 25080 25084 25088 
25092 25096 25100 25104 25108 25112 25116 25120 25124 
25128 25132 25136 25140 25144 25148 25152 25156 25160 
25164 25168 25172 25176 25180 25184 25188 25192 25196 
25200 25204 25208 25212 25216 25220 25224 25228 25232 
25236 25240 25244 25248 25252 25256 25260 25264 25268 
25272 25276 25280 25284 25288 25292 25296 25300 25304 
25308 25312 25316 25320 25324 25328 25332 25336 25340 
25344 25348 25352 25356 25360 25364 25368 25372 25376 
25380 25384 25388 25392 25396 25400 25404 25408 25412 
25416 25420 25424 25428 25432 25436 25440 25444 25448 
25452 25456 25460 25464 25468 25472 25476 25480 25484 
25488 25492 25496 25500 25504 25508 25512 25516 25520 
25524 25528 25532 25536 25540 25544 25548 25552 25556 
25560 25564 25568 25572 25576 25580 25584 25588 25592 
25596 25600 25604 25608 25612 25616 25620 25624 25628 
25632 25636 25640 25644 25648 25652 25656 25660 25664 
25668 25672 25676 25680 25684 25688 25692 25696 25700 
25704 25708 25712 25716 25720 25724 25728 25732 25736 
25740 25744 25748 25752 25756 25760 25764 25768 25772 
25776 25780 25784 25788 25792 25796 25800 25804 25808 
25812 25816 25820 25824 25828 25832 25836 25840 25844 
25848 25852 25856 25860 25864 25868 25872 25876 25880 
25884 25888 25892 25896 25900 25904 25908 25912 25916 
25920 25924 25928 25932 25936 25940 25944 25948 25952 
25956 25960 25964 25968 25972 25976 25980 25984 25988 
25992 25996 26000 26004 26008 26012 26016 26020 26024 
26028 26032 26036 26040 26044 26048 26052 26056 26060 
26064 26068 26072 26076 26080 26084 26088 26092 26096 
26100 26104 26108 26112 26116 26120 26124 26128 26132 
26136 26140 26144 26148 26152 26156 26160 26164 26168 
26172 26176 26180 26184 26188 26192 26196 26200 26204 
26208 26212 26216 26220 26224 26228 26232 26236 26240 
26244 26248 26252 26256 26260 26264 26268 26272 26276 
26280 26284 26288 26292 26296 26300 26304 26308 26312 
26316 26320 26324 26328 26332 26336 26340 26344 26348 
26352 26356 26360 26364 26368 26372 26376 26380 26384 
26388 26392 26396 26400 26404 26408 26412 26416 26420 
26424 26428 26432 26436 26440 26444 26448 26452 26456 
26460 26464 26468 26472 26476 26480 26484 26488 26492 
26496 26500 26504 26508 26512 26516 26520 26524 26528 
26532 26536 26540 26544 26548 26552 26556 26560 26564 
26568 26572 26576 26580 26584 26588 26592 26596 26600 
26604 26608 26612 26616 26620 26624 26628 26632 26636 
26640 26644 26648 26652 26656 26660 26664 26668 26672 
26676 26680 26684 26688 26692 26696 26700 26704 26708 
26712 26716 26720 26724 26728 26732 26736 26740 26744 
26748 26752 26756 26760 26764 26768 26772 26776 26780 
26784 26788 26792 26796 26800 26804 26808 26812 26816 
26820 26824 26828 26832 26836 26840 26844 26848 26852 
26856 26860 26864 26868 26872 26876 26880 26884 26888 
26892 26896 26900 26904 26908 26912 26916 26920 26924 
26928 26932 26936 26940 26944 26948 26952 26956 26960 
26964 26968 26972 26976 26980 26984 26988 26992 26996 
27000 27004 27008 27012 27016 27020 27024 27028 27032 
27036 27040 27044 27048 27052 27056 27060 27064 27068 
27072 27076 27080 27084 27088 27092 27096 27100 27104 
27108 27112 27116 27120 27124 27128 27132 27136 27140 
27144 27148 27152 27156 27160 27164 27168 27172 27176 
27180 27184 27188 27192 27196 27200 27204 27208 27212 
27216 27220 27224 27228 27232 27236 27240 27244 27248 
27252 27256 27260 27264 27268 27272 27276 27280 27284 
27288 27292 27296 27300 27304 27308 27312 27316 27320 
27324 27328 27332 27336 27340 27344 27348 27352 27356 
27360 27364 27368 27372 27376 27380 27384 27388 27392 
27396 27400 27404 27408 27412 27416 27420 27424 27428 
27432 27436 27440 27444 27448 27452 27456 27460 27464 
27468 27472 27476 27480 27484 27488 27492 27496 27500 
27504 27508 27512 27516 27520 27524 27528 27532 27536 
27540 27544 27548 27552 27556 27560 27564 27568 27572 
27576 27580 27584 27588 27592 27596 27600 27604 27608 
27612 27616 27620 27624 27628 27632 27636 27640 27644 
27648 27652 27656 27660 27664 27668 27672 27676 27680 
27684 27688 27692 27696 27700 27704 27708 27712 27716 
27720 27724 27728 27732 27736 27740 27744 27748 27752 
27756 27760 27764 27768 27772 27776 27780 27784 27788 
27792 27796 27800 27804 27808 27812 27816 27820 27824 
27828 27832 27836 27840 27844 27848 27852 27856 27860 
27864 27868 27872 27876 27880 27884 27888 27892 27896 
27900 27904 27908 27912 27916 27920 27924 27928 27932 
27936 27940 27944 27948 27952 27956 27960 27964 27968 
27972 27976 27980 27984 27988 27992 27996 28000 28004 
28008 28012 28016 28020 28024 28028 28032 28036 28040 
28044 28048 28052 28056 28060 28064 28068 28072 28076 
28080 28084 28088 28092 28096 28100 28104 28108 28112 
28116 28120 28124 28128 28132 28136 28140 28144 28148 
28152 28156 28160 28164 28168 28172 28176 28180 28184 
28188 28192 28196 28200 28204 28208 28212 28216 28220 
28224 28228 28232 28236 28240 28244 28248 28252 28256 
28260 28264 28268 28272 28276 28280 28284 28288 28292 
28296 28300 28304 28308 28312 28316 28320 28324 28328 
28332 28336 28340 28344 28348 28352 28356 28360 28364 
28368 28372 28376 28380 28384 28388 28392 28396 28400 
28404 28408 28412 28416 28420 28424 28428 28432 28436 
28440 28444 28448 28452 28456 28460 28464 28468 28472 
28476 28480 28484 28488 28492 28496 28500 28504 28508 
28512 28516 28520 28524 28528 28532 28536 28540 28544 
28548 28552 28556 28560 28564 28568 28572 28576 28580 
28584 28588 28592 28596 28600 28604 28608 28612 28616 
28620 28624 28628 28632 28636 28640 28644 28648 28652 
28656 28660 28664 28668 28672 28676 28680 28684 28688 
28692 28696 28700 28704 28708 28712 28716 28720 28724 
28728 28732 28736 28740 28744 28748 28752 28756 28760 
28764 28768 28772 28776 28780 28784 28788 28792 28796 
28800 28804 28808 28812 28816 28820 28824 28828 28832 
28836 28840 28844 28848 28852 28856 28860 28864 28868 
28872 28876 28880 28884 28888 28892 28896 28900 28904 
28908 28912 28916 28920 28924 28928 28932 28936 28940 
28944 28948 28952 28956 28960 28964 28968 28972 28976 
28980 28984 28988 28992 28996 29000 29004 29008 29012 
29016 29020 29024 29028 29032 29036 29040 29044 29048 
29052 29056 29060 29064 29068 29072 29076 29080 29084 
29088 29092 29096 29100 29104 29108 29112 29116 29120 
29124 29128 29132 29136 29140 29144 29148 29152 29156 
29160 29164 29168 29172 29176 29180 29184 29188 29192 
29196 29200 29204 29208 29212 29216 29220 29224 29228 
29232 29236 29240 29244 29248 29252 29256 29260 29264 
29268 29272 29276 29280 29284 29288 29292 29296 29300 
29304 29308 29312 29316 29320 29324 29328 29332 29336 
29340 29344 29348 29352 29356 29360 29364 29368 29372 
29376 29380 29384 29388 29392 29396 29400 29404 29408 
29412 29416 29420 29424 29428 29432 29436 29440 29444 
29448 29452 29456 29460 29464 29468 29472 29476 29480 
29484 29488 29492 29496 29500 29504 29508 29512 29516 
29520 29524 29528 29532 29536 29540 29544 29548 29552 
29556 29560 29564 29568 29572 29576 29580 29584 29588 
29592 29596 29600 29604 29608 29612 29616 29620 29624 
29628 29632 29636 29640 29644 29648 29652 29656 29660 
29664 29668 29672 29676 29680 29684 29688 29692 29696 
29700 29704 29708 29712 29716 29720 29724 29728 29732 
29736 29740 29744 29748 29752 29756 29760 29764 29768 
29772 29776 29780 29784 29788 29792 29796 29800 29804 
29808 29812 29816 29820 29824 29828 29832 29836 29840 
29844 29848 29852 29856 29860 29864 29868 29872 29876 
29880 29884 29888 29892 29896 29900 29904 29908 29912 
29916 29920 29924 29928 29932 29936 29940 29944 29948 
29952 29956 29960 29964 29968 29972 29976 29980 29984 
29988 29992 29996 30000 30004 30008 30012 30016 30020 
30024 30028 30032 30036 30040 30044 30048 30052 30056 
30060 30064 30068 30072 30076 30080 30084 30088 30092 
30096 30100 30104 30108 30112 30116 30120 30124 30128 
30132 30136 30140 30144 30148 30152 30156 30160 30164 
30168 30172 30176 30180 30184 30188 30192 30196 30200 
30204 30208 30212 30216 30220 30224 30228 30232 30236 
30240 30244 30248 30252 30256 30260 30264 30268 30272 
30276 30280 30284 30288 30292 30296 30300 30304 30308 
30312 30316 30320 30324 30328 30332 30336 30340 30344 
30348 30352 30356 30360 30364 30368 30372 30376 30380 
30384 30388 30392 30396 30400 30404 30408 30412 30416 
30420 30424 30428 30432 30436 30440 30444 30448 30452 
30456 30460 30464 30468 30472 30476 30480 30484 30488 
30492 30496 30500 30504 30508 30512 30516 30520 30524 
30528 30532 30536 30540 30544 30548 30552 30556 30560 
30564 30568 30572 30576 30580 30584 30588 30592 30596 
30600 30604 30608 30612 30616 30620 30624 30628 30632 
30636 30640 30644 30648 30652 30656 30660 30664 30668 
30672 30676 30680 30684 30688 30692 30696 30700 30704 
30708 30712 30716 30720 30724 30728 30732 30736 30740 
30744 30748 30752 30756 30760 30764 30768 30772 30776 
30780 30784 30788 30792 30796 30800 30804 30808 30812 
30816 30820 30824 30828 30832 30836 30840 30844 30848 
30852 30856 30860 30864 30868 30872 30876 30880 30884 
30888 30892 30896 30900 30904 30908 30912 30916 30920 
30924 30928 30932 30936 30940 30944 30948 30952 30956 
30960 30964 30968 30972 30976 30980 30984 30988 30992 
30996 31000 31004 31008 31012 31016 31020 31024 31028 
31032 31036 31040 31044 31048 31052 31056 31060 31064 
31068 31072 31076 31080 31084 31088 31092 31096 31100 
31104 31108 31112 31116 31120 31124 31128 31132 31136 
31140 31144 31148 31152 31156 31160 31164 31168 31172 
31176 31180 31184 31188 31192 31196 31200 31204 31208 
31212 31216 31220 31224 31228 31232 31236 31240 31244 
31248 31252 31256 31260 31264 31268 31272 31276 31280 
31284 31288 31292 31296 31300 31304 31308 31312 31316 
31320 31324 31328 31332 31336 31340 31344 31348 31352 
31356 31360 31364 31368 31372 31376 31380 31384 31388 
31392 31396 31400 31404 31408 31412 31416 31420 31424 
31428 31432 31436 31440 31444 31448 31452 31456 31460 
31464 31468 31472 31476 31480 31484 31488 31492 31496 
31500 31504 31508 31512 31516 31520 31524 31528 31532 
31536 31540 31544 31548 31552 31556 31560 31564 31568 
31572 31576 31580 31584 31588 31592 31596 31600 31604 
31608 31612 31616 31620 31624 31628 31632 31636 31640 
31644 31648 31652 31656 31660 31664 31668 31672 31676 
31680 31684 31688 31692 31696 31700 31704 31708 31712 
31716 31720 31724 31728 31732 31736 31740 31744 31748 
31752 31756 31760 31764 31768 31772 31776 31780 31784 
31788 31792 31796 31800 31804 31808 31812 31816 31820 
31824 31828 31832 31836 31840 31844 31848 31852 31856 
31860 31864 31868 31872 31876 31880 31884 31888 31892 
31896 31900 31904 31908 31912 31916 31920 31924 31928 
31932 31936 31940 31944 31948 31952 31956 31960 31964 
31968 31972 31976 31980 31984 31988 31992 31996 32000 
32004 32008 32012 32016 32020 32024 32028 32032 32036 
32040 32044 32048 32052 32056 32060 32064 32068 32072 
32076 32080 32084 32088 32092 32096 32100 32104 32108 
32112 32116 32120 32124 32128 32132 32136 32140 32144 
32148 32152 32156 32160 32164 32168 32172 32176 32180 
32184 32188 32192 32196 32200 32204 32208 32212 32216 
32220 32224 32228 32232 32236 32240 32244 32248 32252 
32256 32260 32264 32268 32272 32276 32280 32284 32288 
32292 32296 32300 32304 32308 32312 32316 32320 32324 
32328 32332 32336 32340 32344 32348 32352 32356 32360 
32364 32368 32372 32376 32380 32384 32388 32392 32396 
32400 32404 32408 32412 32416 32420 32424 32428 32432 
32436 32440 32444 32448 32452 32456 32460 32464 32468 
32472 32476 32480 32484 32488 32492 32496 32500 32504 
32508 32512 32516 32520 32524 32528 32532 32536 32540 
32544 32548 32552 32556 32560 32564 32568 32572 32576 
32580 32584 32588 32592 32596 32600 32604 32608 32612 
32616 32620 32624 32628 32632 32636 32640 32644 32648 
32652 32656 32660 32664 32668 32672 32676 32680 32684 
32688 32692 32696 32700 32704 32708 32712 32716 32720 
32724 32728 32732 32736 32740 32744 32748 32752 32756 
32760 32764 32768 32772 32776 32780 32784 32788 32792 
32796 32800 32804 32808 32812 32816 32820 32824 32828 
32832 32836 32840 32844 32848 32852 32856 32860 32864 
32868 32872 32876 32880 32884 32888 32892 32896 32900 
32904 32908 32912 32916 32920 32924 32928 32932 32936 
32940 32944 32948 32952 32956 32960 32964 32968 32972 
32976 32980 32984 32988 32992 32996 33000 33004 33008 
33012 33016 33020 33024 33028 33032 33036 33040 33044 
33048 33052 33056 33060 33064 33068 33072 33076 33080 
33084 33088 33092 33096 33100 33104 33108 33112 33116 
33120 33124 33128 33132 33136 33140 33144 33148 33152 
33156 33160 33164 33168 33172 33176 33180 33184 33188 
33192 33196 33200 33204 33208 33212 33216 33220 33224 
33228 33232 33236 33240 33244 33248 33252 33256 33260 
33264 33268 33272 33276 33280 33284 33288 33292 33296 
33300 33304 33308 33312 33316 33320 33324 33328 33332 
33336 33340 33344 33348 33352 33356 33360 33364 33368 
33372 33376 33380 33384 33388 33392 33396 33400 33404 
33408 33412 33416 33420 33424 33428 33432 33436 33440 
33444 33448 33452 33456 33460 33464 33468 33472 33476 
33480 33484 33488 33492 33496 33500 33504 33508 33512 
33516 33520 33524 33528 33532 33536 33540 33544 33548 
33552 33556 33560 33564 33568 33572 33576 33580 33584 
33588 33592 33596 33600 33604 33608 33612 33616 33620 
33624 33628 33632 33636 33640 33644 33648 33652 33656 
33660 33664 33668 33672 33676 33680 33684 33688 33692 
33696 33700 33704 33708 33712 33716 33720 33724 33728 
33732 33736 33740 33744 33748 33752 33756 33760 33764 
33768 33772 33776 33780 33784 33788 33792 33796 33800 
33804 33808 33812 33816 33820 33824 33828 33832 33836 
33840 33844 33848 33852 33856 33860 33864 33868 33872 
33876 33880 33884 33888 33892 33896 33900 33904 33908 
33912 33916 33920 33924 33928 33932 33936 33940 33944 
33948 33952 33956 33960 33964 33968 33972 33976 33980 
33984 33988 33992 33996 34000 34004 34008 34012 34016 
34020 34024 34028 34032 34036 34040 34044 34048 34052 
34056 34060 34064 34068 34072 34076 34080 34084 34088 
34092 34096 34100 34104 34108 34112 34116 34120 34124 
34128 34132 34136 34140 34144 34148 34152 34156 34160 
34164 34168 34172 34176 34180 34184 34188 34192 34196 
34200 34204 34208 34212 34216 34220 34224 34228 34232 
34236 34240 34244 34248 34252 34256 34260 34264 34268 
34272 34276 34280 34284 34288 34292 34296 34300 34304 
34308 34312 34316 34320 34324 34328 34332 34336 34340 
34344 34348 34352 34356 34360 34364 34368 34372 34376 
34380 34384 34388 34392 34396 34400 34404 34408 34412 
34416 34420 34424 34428 34432 34436 34440 34444 34448 
34452 34456 34460 34464 34468 34472 34476 34480 34484 
34488 34492 34496 34500 34504 34508 34512 34516 34520 
34524 34528 34532 34536 34540 34544 34548 34552 34556 
34560 34564 34568 34572 34576 34580 34584 34588 34592 
34596 34600 34604 34608 34612 34616 34620 34624 34628 
34632 34636 34640 34644 34648 34652 34656 34660 34664 
34668 34672 34676 34680 34684 34688 34692 34696 34700 
34704 34708 34712 34716 34720 34724 34728 34732 34736 
34740 34744 34748 34752 34756 34760 34764 34768 34772 
34776 34780 34784 34788 34792 34796 34800 34804 34808 
34812 34816 34820 34824 34828 34832 34836 34840 34844 
34848 34852 34856 34860 34864 34868 34872 34876 34880 
34884 34888 34892 34896 34900 34904 34908 34912 34916 
34920 34924 34928 34932 34936 34940 34944 34948 34952 
34956 34960 34964 34968 34972 34976 34980 34984 34988 
34992 34996 35000 35004 35008 35012 35016 35020 35024 
35028 35032 35036 35040 35044 35048 35052 35056 35060 
35064 35068 35072 35076 35080 35084 35088 35092 35096 
35100 35104 35108 35112 35116 35120 35124 35128 35132 
35136 35140 35144 35148 35152 35156 35160 35164 35168 
35172 35176 35180 35184 35188 35192 35196 35200 35204 
35208 35212 35216 35220 35224 35228 35232 35236 35240 
35244 35248 35252 35256 35260 35264 35268 35272 35276 
35280 35284 35288 35292 35296 35300 35304 35308 35312 
35316 35320 35324 35328 35332 35336 35340 35344 35348 
35352 35356 35360 35364 35368 35372 35376 35380 35384 
35388 35392 35396 35400 35404 35408 35412 35416 35420 
35424 35428 35432 35436 35440 35444 35448 35452 35456 
35460 35464 35468 35472 35476 35480 35484 35488 35492 
35496 35500 35504 35508 35512 35516 35520 35524 35528 
35532 35536 35540 35544 35548 35552 35556 35560 35564 
35568 35572 35576 35580 35584 35588 35592 35596 35600 
35604 35608 35612 35616 35620 35624 35628 35632 35636 
35640 35644 35648 35652 35656 35660 35664 35668 35672 
35676 35680 35684 35688 35692 35696 35700 35704 35708 
35712 35716 35720 35724 35728 35732 35736 35740 35744 
35748 35752 35756 35760 35764 35768 35772 35776 35780 
35784 35788 35792 35796 35800 35804 35808 35812 35816 
35820 35824 35828 35832 35836 35840 35844 35848 35852 
35856 35860 35864 35868 35872 35876 35880 35884 35888 
35892 35896 35900 35904 35908 35912 35916 35920 35924 
35928 35932 35936 35940 35944 35948 35952 35956 35960 
35964 35968 35972 35976 35980 35984 35988 35992 35996 
36000 36004 36008 36012 36016 36020 36024 36028 36032 
36036 36040 36044 36048 36052 36056 36060 36064 36068 
36072 36076 36080 36084 36088 36092 36096 36100 36104 
36108 36112 36116 36120 36124 36128 36132 36136 36140 
36144 36148 36152 36156 36160 36164 36168 36172 36176 
36180 36184 36188 36192 36196 36200 36204 36208 36212 
36216 36220 36224 36228 36232 36236 36240 36244 36248 
36252 36256 36260 36264 36268 36272 36276 36280 36284 
36288 36292 36296 36300 36304 36308 36312 36316 36320 
36324 36328 36332 36336 36340 36344 36348 36352 36356 
36360 36364 36368 36372 36376 36380 36384 36388 36392 
36396 36400 36404 36408 36412 36416 36420 36424 36428 
36432 36436 36440 36444 36448 36452 36456 36460 36464 
36468 36472 36476 36480 36484 36488 36492 36496 36500 
36504 36508 36512 36516 36520 36524 36528 36532 36536 
36540 36544 36548 36552 36556 36560 36564 36568 36572 
36576 36580 36584 36588 36592 36596 36600 36604 36608 
36612 36616 36620 36624 36628 36632 36636 36640 36644 
36648 36652 36656 36660 36664 36668 36672 36676 36680 
36684 36688 36692 36696 36700 36704 36708 36712 36716 
36720 36724 36728 36732 36736 36740 36744 36748 36752 
36756 36760 36764 36768 36772 36776 36780 36784 36788 
36792 36796 36800 36804 36808 36812 36816 36820 36824 
36828 36832 36836 36840 36844 36848 36852 36856 36860 
36864 36868 36872 36876 36880 36884 36888 36892 36896 
36900 36904 36908 36912 36916 36920 36924 36928 36932 
36936 36940 36944 36948 36952 36956 36960 36964 36968 
36972 36976 36980 36984 36988 36992 36996 37000 37004 
37008 37012 37016 37020 37024 37028 37032 37036 37040 
37044 37048 37052 37056 37060 37064 37068 37072 37076 
37080 
CONNECTIVITY vtktypeint64
0 1 63 62 1 2 64 63 2 
3 65 64 3 4 66 65 4 5 
67 66 5 6 68 67 6 7 69 
68 7 8 70 69 8 9 71 70 
9 10 72 71 10 11 73 72 11 
12 74 73 12 13 75 74 13 14 
76 75 14 15 77 76 15 16 78 
77 16 17 79 78 17 18 80 79 
18 19 81 80 19 20 82 81 20 
21 83 82 21 22 84 83 22 23 
85 84 23 24 86 85 24 25 87 
86 25 26 88 87 26 27 89 88 
27 28 90 89 28 29 91 90 29 
30 92 91 62 63 94 93 63 64 
95 94 64 65 96 95 65 66 97 
96 66 67 98 97 67 68 99 98 
68 69 100 99 69 70 101 100 70 
71 102 101 71 72 103 102 72 73 
104 103 73 74 105 104 74 75 106 
105 75 76 107 106 76 77 108 107 
77 78 109 108 78 79 110 109 79 
80 111 110 80 81 112 111 81 82 
113 112 82 83 114 113 83 84 115 
114 84 85 116 115 85 86 117 116 
86 87 118 117 87 88 119 118 88 
89 120 119 89 90 121 120 90 91 
122 121 91 92 123 122 93 94 125 
124 94 95 126 125 95 96 127 126 
96 97 128 127 97 98 129 128 98 
99 130 129 99 100 131 130 100 101 
132 131 101 102 133 132 102 103 134 
133 103 104 135 134 104 105 136 135 
105 106 137 136 106 107 138 137 107 
108 139 138 108 109 140 139 109 110 
141 140 110 111 142 141 111 112 143 
142 112 113 144 143 113 114 145 144 
114 115 146 145 115 116 147 146 116 
117 148 147 117 118 149 148 118 119 
150 149 119 120 151 150 120 121 152 
151 121 122 153 152 122 123 154 153 
124 125 156 155 125 126 157 156 126 
127 158 157 127 128 159 158 128 129 
160 159 129 130 161 160 130 131 162 
161 131 132 163 162 132 133 164 163 
133 134 165 164 134 135 166 165 135 
136 167 166 136 137 168 167 137 138 
169 168 138 139 170 169 139 140 171 
170 140 141 172 171 141 142 173 172 
142 143 174 173 143 144 175 174 144 
145 176 175 145 146 177 176 146 147 
178 177 147 148 179 178 148 149 180 
179 149 150 181 180 150 151 182 181 
151 152 183 182 152 153 184 183 153 
154 185 184 155 156 187 186 156 157 
188 187 157 158 189 188 158 159 190 
189 159 160 191 190 160 161 192 191 
161 162 193 192 162 163 194 193 163 
164 195 194 164 165 196 195 165 166 
197 196 166 167 198 197 167 168 199 
198 168 169 200 199 169 170 201 200 
170 171 202 201 171 172 203 202 172 
173 204 203 173 174 205 204 174 175 
206 205 175 176 207 206 176 177 208 
207 177 178 209 208 178 179 210 209 
179 180 211 210 180 181 212 211 181 
182 213 212 182 183 214 213 183 184 
215 214 184 185 216 215 186 187 218 
217 187 188 219 218 188 189 220 219 
189 190 221 220 190 191 222 221 191 
192 223 222 192 193 224 223 193 194 
225 224 194 195 226 225 195 196 227 
226 196 197 228 227 197 198 229 228 
198 199 230 229 199 200 231 230 200 
201 232 231 201 202 233 232 202 203 
234 233 203 204 235 234 204 205 236 
235 205 206 237 236 206 207 238 237 
207 208 239 238 208 209 240 239 209 
210 241 240 210 211 242 241 211 212 
243 242 212 213 244 243 213 214 245 
244 214 215 246 245 215 216 247 246 
217 218 249 248 218 219 250 249 219 
220 251 250 220 221 252 251 221 222 
253 252 222 223 254 253 223 224 255 
254 224 225 256 255 225 226 257 256 
226 227 258 257 227 228 259 258 228 
229 260 259 229 230 261 260 230 231 
262 261 231 232 263 262 232 233 264 
263 233 234 265 264 234 235 266 265 
235 236 267 266 236 237 268 267 237 
238 269 268 238 239 270 269 239 240 
271 270 240 241 272 271 241 242 273 
272 242 243 274 273 243 244 275 274 
244 245 276 275 245 246 277 276 246 
247 278 277 248 249 280 279 249 250 
281 280 250 251 282 281 251 252 283 
282 252 253 284 283 253 254 285 284 
254 255 286 285 255 256 287 286 256 
257 288 287 257 258 289 288 258 259 
290 289 259 260 291 290 260 261 292 
291 261 262 293 292 262 263 294 293 
263 264 295 294 264 265 296 295 265 
266 297 296 266 267 298 297 267 268 
299 298 268 269 300 299 269 270 301 
300 270 271 302 301 271 272 303 302 
272 273 304 303 273 274 305 304 274 
275 306 305 275 276 307 306 276 277 
308 307 277 278 309 308 279 280 311 
310 280 281 312 311 281 282 313 312 
282 283 314 313 283 284 315 314 284 
285 316 315 285 286 317 316 286 287 
318 317 287 288 319 318 288 289 320 
319 289 290 321 320 290 291 322 321 
291 292 323 322 292 293 324 323 293 
294 325 324 294 295 326 325 295 296 
327 326 296 297 328 327 297 298 329 
328 298 299 330 329 299 300 331 330 
300 301 332 331 301 302 333 332 302 
303 334 333 303 304 335 334 304 305 
336 335 305 306 337 336 306 307 338 
337 307 308 339 338 308 309 340 339 
310 311 342 341 311 312 343 342 312 
313 344 343 313 314 345 344 314 315 
346 345 315 316 347 346 316 317 348 
347 317 318 349 348 318 319 350 349 
319 320 351 350 320 321 352 351 321 
322 353 352 322 323 354 353 323 324 
355 354 324 325 356 355 325 326 357 
356 326 327 358 357 327 328 359 358 
328 329 360 359 329 330 361 360 330 
331 362 361 331 332 363 362 332 333 
364 363 333 334 365 364 334 335 366 
365 335 336 367 366 336 337 368 367 
337 338 369 368 338 339 370 369 339 
340 371 370 341 342 373 372 342 343 
374 373 343 344 375 374 344 345 376 
375 345 346 377 376 346 347 378 377 
347 348 379 378 348 349 380 379 349 
350 381 380 350 351 382 381 351 352 
383 382 352 353 384 383 353 354 385 
384 354 355 386 385 355 356 387 386 
356 357 388 387 357 358 389 388 358 
359 390 389 359 360 391 390 360 361 
392 391 361 362 393 392 362 363 394 
393 363 364 395 394 364 365 396 395 
365 366 397 396 366 367 398 397 367 
368 399 398 368 369 400 399 369 370 
401 400 370 371 402 401 372 373 404 
403 373 374 405 404 374 375 406 405 
375 376 407 406 376 377 408 407 377 
378 409 408 378 379 410 409 379 380 
411 410 380 381 412 411 381 382 413 
412 382 383 414 413 383 384 415 414 
384 385 416 415 385 386 417 416 386 
387 418 417 387 388 419 418 388 389 
420 419 389 390 421 420 390 391 422 
421 391 392 423 422 392 393 424 423 
393 394 425 424 394 395 426 425 395 
396 427 426 396 397 428 427 397 398 
429 428 398 399 430 429 399 400 431 
430 400 401 432 431 401 402 433 432 
403 404 435 434 404 405 436 435 405 
406 437 436 406 407 438 437 407 408 
439 438 408 409 440 439 409 410 441 
440 410 411 442 441 411 412 443 442 
412 413 444 443 413 414 445 444 414 
415 446 445 415 416 447 446 416 417 
448 447 417 418 449 448 418 419 450 
449 419 420 451 450 420 421 452 451 
421 422 453 452 422 423 454 453 423 
424 455 454 424 425 456 455 425 426 
457 456 426 427 458 457 427 428 459 
458 428 429 460 459 429 430 461 460 
430 431 462 461 431 432 463 462 432 
433 464 463 434 435 466 465 435 436 
467 466 436 437 468 467 437 438 469 
468 438 439 470 469 439 440 471 470 
440 441 472 471 441 442 473 472 442 
443 474 473 443 444 475 474 444 445 
476 475 445 446 477 476 446 447 478 
477 447 448 479 478 448 449 480 479 
449 450 481 480 450 451 482 481 451 
452 483 482 452 453 484 483 453 454 
485 484 454 455 486 485 455 456 487 
486 456 457 488 487 457 458 489 488 
458 459 490 489 459 460 491 490 460 
461 492 491 461 462 493 492 462 463 
494 493 463 464 495 494 465 466 497 
496 466 467 498 497 467 468 499 498 
468 469 500 499 469 470 501 500 470 
471 502 501 471 472 503 502 472 473 
504 503 473 474 505 504 474 475 506 
505 475 476 507 506 476 477 508 507 
477 478 509 508 478 479 510 509 479 
480 511 510 480 481 512 511 481 482 
513 512 482 483 514 513 483 484 515 
514 484 485 516 515 485 486 517 516 
486 487 518 517 487 488 519 518 488 
489 520 519 489 490 521 520 490 491 
522 521 491 492 523 522 492 493 524 
523 493 494 525 524 494 495 526 525 
496 497 528 527 497 498 529 528 498 
499 530 529 499 500 531 530 500 501 
532 531 501 502 533 532 502 503 534 
533 503 504 535 534 504 505 536 535 
505 506 537 536 506 507 538 537 507 
508 539 538 508 509 540 539 509 510 
541 540 510 511 542 541 511 512 543 
542 512 513 544 543 513 514 545 544 
514 515 546 545 515 516 547 546 516 
517 548 547 517 518 549 548 518 519 
550 549 519 520 551 550 520 521 552 
551 521 522 553 552 522 523 554 553 
523 524 555 554 524 525 556 555 525 
526 557 556 527 528 559 558 528 529 
560 559 529 530 561 560 530 531 562 
561 531 532 563 562 532 533 564 563 
533 534 565 564 534 535 566 565 535 
536 567 566 536 537 568 567 537 538 
569 568 538 539 570 569 539 540 571 
570 540 541 572 571 541 542 573 572 
542 543 574 573 543 544 575 574 544 
545 576 575 545 546 577 576 546 547 
578 577 547 548 579 578 548 549 580 
579 549 550 581 580 550 551 582 581 
551 552 583 582 552 553 584 583 553 
554 585 584 554 555 586 585 555 556 
587 586 556 557 588 587 558 559 590 
589 559 560 591 590 560 561 592 591 
561 562 593 592 562 563 594 593 563 
564 595 594 564 565 596 595 565 566 
597 596 566 567 598 597 567 568 599 
598 568 569 600 599 569 570 601 600 
570 571 602 601 571 572 603 602 572 
573 604 603 573 574 605 604 574 575 
606 605 575 576 607 606 576 577 608 
607 577 578 609 608 578 579 610 609 
579 580 611 610 580 581 612 611 581 
582 613 612 582 583 614 613 583 584 
615 614 584 585 616 615 585 586 617 
616 586 587 618 617 587 588 619 618 
589 590 621 620 590 591 622 621 591 
592 623 622 592 593 624 623 593 594 
625 624 594 595 626 625 595 596 627 
626 596 597 628 627 597 598 629 628 
598 599 630 629 599 600 631 630 600 
601 632 631 601 602 633 632 602 603 
634 633 603 604 635 634 604 605 636 
635 605 606 637 636 606 607 638 637 
607 608 639 638 608 609 640 639 609 
610 641 640 610 611 642 641 611 612 
643 642 612 613 644 643 613 614 645 
644 614 615 646 645 615 616 647 646 
616 617 648 647 617 618 649 648 618 
619 650 649 620 621 652 651 621 622 
653 652 622 623 654 653 623 624 655 
654 624 625 656 655 625 626 657 656 
626 627 658 657 627 628 659 658 628 
629 660 659 629 630 661 660 630 631 
662 661 631 632 663 662 632 633 664 
663 633 634 665 664 634 635 666 665 
635 636 667 666 636 637 668 667 637 
638 669 668 638 639 670 669 639 640 
671 670 640 641 672 671 641 642 673 
672 642 643 674 673 643 644 675 674 
644 645 676 675 645 646 677 676 646 
647 678 677 647 648 679 678 648 649 
680 679 649 650 681 680 651 652 683 
682 652 653 684 683 653 654 685 684 
654 655 686 685 655 656 687 686 656 
657 688 687 657 658 689 688 658 659 
690 689 659 660 691 690 660 661 692 
691 661 662 693 692 662 663 694 693 
663 664 695 694 664 665 696 695 665 
666 697 696 666 667 698 697 667 668 
699 698 668 669 700 699 669 670 701 
700 670 671 702 701 671 672 703 702 
672 673 704 703 673 674 705 704 674 
675 706 705 675 676 707 706 676 677 
708 707 677 678 709 708 678 679 710 
709 679 680 711 710 680 681 712 711 
682 683 714 713 683 684 715 714 684 
685 716 715 685 686 717 716 686 687 
718 717 687 688 719 718 688 689 720 
719 689 690 721 720 690 691 722 721 
691 692 723 722 692 693 724 723 693 
694 725 724 694 695 726 725 695 696 
727 726 696 697 728 727 697 698 729 
728 698 699 730 729 699 700 731 730 
700 701 732 731 701 702 733 732 702 
703 734 733 703 704 735 734 704 705 
736 735 705 706 737 736 706 707 738 
737 707 708 739 738 708 709 740 739 
709 710 741 740 710 711 742 741 711 
712 743 742 713 714 745 744 714 715 
746 745 715 716 747 746 716 717 748 
747 717 718 749 748 718 719 750 749 
719 720 751 750 720 721 752 751 721 
722 753 752 722 723 754 753 723 724 
755 754 724 725 756 755 725 726 757 
756 726 727 758 757 727 728 759 758 
728 729 760 759 729 730 761 760 730 
731 762 761 731 732 763 762 732 733 
764 763 733 734 765 764 734 735 766 
765 735 736 767 766 736 737 768 767 
737 738 769 768 738 739 770 769 739 
740 771 770 740 741 772 771 741 742 
773 772 742 743 774 773 744 745 776 
775 745 746 777 776 746 747 778 777 
747 748 779 778 748 749 780 779 749 
750 781 780 750 751 782 781 751 752 
783 782 752 753 784 783 753 754 785 
784 754 755 786 785 755 756 787 786 
756 757 788 787 757 758 789 788 758 
759 790 789 759 760 791 790 760 761 
792 791 761 762 793 792 762 763 794 
793 763 764 795 794 764 765 796 795 
765 766 797 796 766 767 798 797 767 
768 799 798 768 769 800 799 769 770 
801 800 770 771 802 801 771 772 803 
802 772 773 804 803 773 774 805 804 
775 776 807 806 776 777 808 807 777 
778 809 808 778 779 810 809 779 780 
811 810 780 781 812 811 781 782 813 
812 782 783 814 813 783 784 815 814 
784 785 816 815 785 786 817 816 786 
787 818 817 787 788 819 818 788 789 
820 819 789 790 821 820 790 791 822 
821 791 792 823 822 792 793 824 823 
793 794 825 824 794 795 826 825 795 
796 827 826 796 797 828 827 797 798 
829 828 798 799 830 829 799 800 831 
830 800 801 832 831 801 802 833 832 
802 803 834 833 803 804 835 834 804 
805 836 835 806 807 838 837 807 808 
839 838 808 809 840 839 809 810 841 
840 810 811 842 841 811 812 843 842 
812 813 844 843 813 814 845 844 814 
815 846 845 815 816 847 846 816 817 
848 847 817 818 849 848 818 819 850 
849 819 820 851 850 820 821 852 851 
821 822 853 852 822 823 854 853 823 
824 855 854 824 825 856 855 825 826 
857 856 826 827 858 857 827 828 859 
858 828 829 860 859 829 830 861 860 
830 831 862 861 831 832 863 862 832 
833 864 863 833 834 865 864 834 835 
866 865 835 836 867 866 837 838 869 
868 838 839 870 869 839 840 871 870 
840 841 872 871 841 842 873 872 842 
843 874 873 843 844 875 874 844 845 
876 875 845 846 877 876 846 847 878 
877 847 848 879 878 848 849 880 879 
849 850 881 880 850 851 882 881 851 
852 883 882 852 853 884 883 853 854 
885 884 854 855 886 885 855 856 887 
886 856 857 888 887 857 858 889 888 
858 859 890 889 859 860 891 890 860 
861 892 891 861 862 893 892 862 863 
894 893 863 864 895 894 864 865 896 
895 865 866 897 896 866 867 898 897 
868 869 900 899 869 870 901 900 870 
871 902 901 871 872 903 902 872 873 
904 903 873 874 905 904 874 875 906 
905 875 876 907 906 876 877 908 907 
877 878 909 908 878 879 910 909 879 
880 911 910 880 881 912 911 881 882 
913 912 882 883 914 913 883 884 915 
914 884 885 916 915 885 886 917 916 
886 887 918 917 887 888 919 918 888 
889 920 919 889 890 921 920 890 891 
922 921 891 892 923 922 892 893 924 
923 893 894 925 924 894 895 926 925 
895 896 927 926 896 897 928 927 897 
898 929 928 899 900 931 930 900 901 
932 931 901 902 933 932 902 903 934 
933 903 904 935 934 904 905 936 935 
905 906 937 936 906 907 938 937 907 
908 939 938 908 909 940 939 909 910 
941 940 910 911 942 941 911 912 943 
942 912 913 944 943 913 914 945 944 
914 915 946 945 915 916 947 946 916 
917 948 947 917 918 949 948 918 919 
950 949 919 920 951 950 920 921 952 
951 921 922 953 952 922 923 954 953 
923 924 955 954 924 925 956 955 925 
926 957 956 926 927 958 957 927 928 
959 958 928 929 960 959 930 931 962 
961 931 932 963 962 932 933 964 963 
933 934 965 964 934 935 966 965 935 
936 967 966 936 937 968 967 937 938 
969 968 938 939 970 969 939 940 971 
970 940 941 972 971 941 942 973 972 
942 943 974 973 943 944 975 974 944 
945 976 975 945 946 977 976 946 947 
978 977 947 948 979 978 948 949 980 
979 949 950 981 980 950 951 982 981 
951 952 983 982 952 953 984 983 953 
954 985 984 954 955 986 985 955 956 
987 986 956 957 988 987 957 958 989 
988 958 959 990 989 959 960 991 990 
961 962 993 992 962 963 994 993 963 
964 995 994 964 965 996 995 965 966 
997 996 966 967 998 997 967 968 999 
998 968 969 1000 999 969 970 1001 1000 
970 971 1002 1001 971 972 1003 1002 972 
973 1004 1003 973 974 1005 1004 974 975 
1006 1005 975 976 1007 1006 976 977 1008 
1007 977 978 1009 1008 978 979 1010 1009 
979 980 1011 1010 980 981 1012 1011 981 
982 1013 1012 982 983 1014 1013 983 984 
1015 1014 984 985 1016 1015 985 986 1017 
1016 986 987 1018 1017 987 988 1019 1018 
988 989 1020 1019 989 990 1021 1020 990 
991 1022 1021 992 993 1024 1023 993 994 
1025 1024 994 995 1026 1025 995 996 1027 
1026 996 997 1028 1027 997 998 1029 1028 
998 999 1030 1029 999 1000 1031 1030 1000 
1001 1032 1031 1001 1002 1033 1032 1002 1003 
1034 1033 1003 1004 1035 1034 1004 1005 1036 
1035 1005 1006 1037 1036 1006 1007 1038 1037 
1007 1008 1039 1038 1008 1009 1040 1039 1009 
1010 1041 1040 1010 1011 1042 1041 1011 1012 
1043 1042 1012 1013 1044 1043 1013 1014 1045 
1044 1014 1015 1046 1045 1015 1016 1047 1046 
1016 1017 1048 1047 1017 1018 1049 1048 1018 
1019 1050 1049 1019 1020 1051 1050 1020 1021 
1052 1051 1021 1022 1053 1052 1023 1024 1055 
1054 1024 1025 1056 1055 1025 1026 1057 1056 
1026 1027 1058 1057 1027 1028 1059 1058 1028 
1029 1060 1059 1029 1030 1061 1060 1030 1031 
1062 1061 1031 1032 1063 1062 1032 1033 1064 
1063 1033 1034 1065 1064 1034 1035 1066 1065 
1035 1036 1067 1066 1036 1037 1068 1067 1037 
1038 1069 1068 1038 1039 1070 1069 1039 1040 
1071 1070 1040 1041 1072 1071 1041 1042 1073 
1072 1042 1043 1074 1073 1043 1044 1075 1074 
1044 1045 1076 1075 1045 1046 1077 1076 1046 
1047 1078 1077 1047 1048 1079 1078 1048 1049 
1080 1079 1049 1050 1081 1080 1050 1051 1082 
1081 1051 1052 1083 1082 1052 1053 1084 1083 
1054 1055 1086 1085 1055 1056 1087 1086 1056 
1057 1088 1087 1057 1058 1089 1088 1058 1059 
1090 1089 1059 1060 1091 1090 1060 1061 1092 
1091 1061 1062 1093 1092 1062 1063 1094 1093 
1063 1064 1095 1094 1064 1065 1096 1095 1065 
1066 1097 1096 1066 1067 1098 1097 1067 1068 
1099 1098 1068 1069 1100 1099 1069 1070 1101 
1100 1070 1071 1102 1101 1071 1072 1103 1102 
1072 1073 1104 1103 1073 1074 1105 1104 1074 
1075 1106 1105 1075 1076 1107 1106 1076 1077 
1108 1107 1077 1078 1109 1108 1078 1079 1110 
1109 1079 1080 1111 1110 1080 1081 1112 1111 
1081 1082 1113 1112 1082 1083 1114 1113 1083 
1084 1115 1114 1085 1086 1117 1116 1086 1087 
1118 1117 1087 1088 1119 1118 1088 1089 1120 
1119 1089 1090 1121 1120 1090 1091 1122 1121 
1091 1092 1123 1122 1092 1093 1124 1123 1093 
1094 1125 1124 1094 1095 1126 1125 1095 1096 
1127 1126 1096 1097 1128 1127 1097 1098 1129 
1128 1098 1099 1130 1129 1099 1100 1131 1130 
1100 1101 1132 1131 1101 1102 1133 1132 1102 
1103 1134 1133 1103 1104 1135 1134 1104 1105 
1136 1135 1105 1106 1137 1136 1106 1107 1138 
1137 1107 1108 1139 1138 1108 1109 1140 1139 
1109 1110 1141 1140 1110 1111 1142 1141 1111 
1112 1143 1142 1112 1113 1144 1143 1113 1114 
1145 1144 1114 1115 1146 1145 1116 1117 1148 
1147 1117 1118 1149 1148 1118 1119 1150 1149 
1119 1120 1151 1150 1120 1121 1152 1151 1121 
1122 1153 1152 1122 1123 1154 1153 1123 1124 
1155 1154 1124 1125 1156 1155 1125 1126 1157 
1156 1126 1127 1158 1157 1127 1128 1159 1158 
1128 1129 1160 1159 1129 1130 1161 1160 1130 
1131 1162 1161 1131 1132 1163 1162 1132 1133 
1164 1163 1133 1134 1165 1164 1134 1135 1166 
1165 1135 1136 1167 1166 1136 1137 1168 1167 
1137 1138 1169 1168 1138 1139 1170 1169 1139 
1140 1171 1170 1140 1141 1172 1171 1141 1142 
1173 1172 1142 1143 1174 1173 1143 1144 1175 
1174 1144 1145 1176 1175 1145 1146 1177 1176 
1147 1148 1179 1178 1148 1149 1180 1179 1149 
1150 1181 1180 1150 1151 1182 1181 1151 1152 
1183 1182 1152 1153 1184 1183 1153 1154 1185 
1184 1154 1155 1186 1185 1155 1156 1187 1186 
1156 1157 1188 1187 1157 1158 1189 1188 1158 
1159 1190 1189 1159 1160 1191 1190 1160 1161 
1192 1191 1161 1162 1193 1192 1162 1163 1194 
1193 1163 1164 1195 1194 1164 1165 1196 1195 
1165 1166 1197 1196 1166 1167 1198 1197 1167 
1168 1199 1198 1168 1169 1200 1199 1169 1170 
1201 1200 1170 1171 1202 1201 1171 1172 1203 
1202 1172 1173 1204 1203 1173 1174 1205 1204 
1174 1175 1206 1205 1175 1176 1207 1206 1176 
1177 1208 1207 1178 1179 1210 1209 1179 1180 
1211 1210 1180 1181 1212 1211 1181 1182 1213 
1212 1182 1183 1214 1213 1183 1184 1215 1214 
1184 1185 1216 1215 1185 1186 1217 1216 1186 
1187 1218 1217 1187 1188 1219 1218 1188 1189 
1220 1219 1189 1190 1221 1220 1190 1191 1222 
1221 1191 1192 1223 1222 1192 1193 1224 1223 
1193 1194 1225 1224 1194 1195 1226 1225 1195 
1196 1227 1226 1196 1197 1228 1227 1197 1198 
1229 1228 1198 1199 1230 1229 1199 1200 1231 
1230 1200 1201 1232 1231 1201 1202 1233 1232 
1202 1203 1234 1233 1203 1204 1235 1234 1204 
1205 1236 1235 1205 1206 1237 1236 1206 1207 
1238 1237 1207 1208 1239 1238 1209 1210 1241 
1240 1210 1211 1242 1241 1211 1212 1243 1242 
1212 1213 1244 1243 1213 1214 1245 1244 1214 
1215 1246 1245 1215 1216 1247 1246 1216 1217 
1248 1247 1217 1218 1249 1248 1218 1219 1250 
1249 1219 1220 1251 1250 1220 1221 1252 1251 
1221 1222 1253 1252 1222 1223 1254 1253 1223 
1224 1255 1254 1224 1225 1256 1255 1225 1226 
1257 1256 1226 1227 1258 1257 1227 1228 1259 
1258 1228 1229 1260 1259 1229 1230 1261 1260 
1230 1231 1262 1261 1231 1232 1263 1262 1232 
1233 1264 1263 1233 1234 1265 1264 1234 1235 
1266 1265 1235 1236 1267 1266 1236 1237 1268 
1267 1237 1238 1269 1268 1238 1239 1270 1269 
1240 1241 1272 1271 1241 1242 1273 1272 1242 
1243 1274 1273 1243 1244 1275 1274 1244 1245 
1276 1275 1245 1246 1277 1276 1246 1247 1278 
1277 1247 1248 1279 1278 1248 1249 1280 1279 
1249 1250 1281 1280 1250 1251 1282 1281 1251 
1252 1283 1282 1252 1253 1284 1283 1253 1254 
1285 1284 1254 1255 1286 1285 1255 1256 1287 
1286 1256 1257 1288 1287 1257 1258 1289 1288 
1258 1259 1290 1289 1259 1260 1291 1290 1260 
1261 1292 1291 1261 1262 1293 1292 1262 1263 
1294 1293 1263 1264 1295 1294 1264 1265 1296 
1295 1265 1266 1297 1296 1266 1267 1298 1297 
1267 1268 1299 1298 1268 1269 1300 1299 1269 
1270 1301 1300 1271 1272 1303 1302 1272 1273 
1304 1303 1273 1274 1305 1304 1274 1275 1306 
1305 1275 1276 1307 1306 1276 1277 1308 1307 
1277 1278 1309 1308 1278 1279 1310 1309 1279 
1280 1311 1310 1280 1281 1312 1311 1281 1282 
1313 1312 1282 1283 1314 1313 1283 1284 1315 
1314 1284 1285 1316 1315 1285 1286 1317 1316 
1286 1287 1318 1317 1287 1288 1319 1318 1288 
1289 1320 1319 1289 1290 1321 1320 1290 1291 
1322 1321 1291 1292 1323 1322 1292 1293 1324 
1323 1293 1294 1325 1324 1294 1295 1326 1325 
1295 1296 1327 1326 1296 1297 1328 1327 1297 
1298 1329 1328 1298 1299 1330 1329 1299 1300 
1331 1330 1300 1301 1332 1331 1302 1303 1334 
1333 1303 1304 1335 1334 1304 1305 1336 1335 
1305 1306 1337 1336 1306 1307 1338 1337 1307 
1308 1339 1338 1308 1309 1340 1339 1309 1310 
1341 1340 1310 1311 1342 1341 1311 1312 1343 
1342 1312 1313 1344 1343 1313 1314 1345 1344 
1314 1315 1346 1345 1315 1316 1347 1346 1316 
1317 1348 1347 1317 1318 1349 1348 1318 1319 
1350 1349 1319 1320 1351 1350 1320 1321 1352 
1351 1321 1322 1353 1352 1322 1323 1354 1353 
1323 1324 1355 1354 1324 1325 1356 1355 1325 
1326 1357 1356 1326 1327 1358 1357 1327 1328 
1359 1358 1328 1329 1360 1359 1329 1330 1361 
1360 1330 1331 1362 1361 1331 1332 1363 1362 
1333 1334 1365 1364 1334 1335 1366 1365 1335 
1336 1367 1366 1336 1337 1368 1367 1337 1338 
1369 1368 1338 1339 1370 1369 1339 1340 1371 
1370 1340 1341 1372 1371 1341 1342 1373 1372 
1342 1343 1374 1373 1343 1344 1375 1374 1344 
1345 1376 1375 1345 1346 1377 1376 1346 1347 
1378 1377 1347 1348 1379 1378 1348 1349 1380 
1379 1349 1350 1381 1380 1350 1351 1382 1381 
1351 1352 1383 1382 1352 1353 1384 1383 1353 
1354 1385 1384 1354 1355 1386 1385 1355 1356 
1387 1386 1356 1357 1388 1387 1357 1358 1389 
1388 1358 1359 1390 1389 1359 1360 1391 1390 
1360 1361 1392 1391 1361 1362 1393 1392 1362 
1363 1394 1393 1364 1365 1396 1395 1365 1366 
1397 1396 1366 1367 1398 1397 1367 1368 1399 
1398 1368 1369 1400 1399 1369 1370 1401 1400 
1370 1371 1402 1401 1371 1372 1403 1402 1372 
1373 1404 1403 1373 1374 1405 1404 1374 1375 
1406 1405 1375 1376 1407 1406 1376 1377 1408 
1407 1377 1378 1409 1408 1378 1379 1410 1409 
1379 1380 1411 1410 1380 1381 1412 1411 1381 
1382 1413 1412 1382 1383 1414 1413 1383 1384 
1415 1414 1384 1385 1416 1415 1385 1386 1417 
1416 1386 1387 1418 1417 1387 1388 1419 1418 
1388 1389 1420 1419 1389 1390 1421 1420 1390 
1391 1422 1421 1391 1392 1423 1422 1392 1393 
1424 1423 1393 1394 1425 1424 1395 1396 1427 
1426 1396 1397 1428 1427 1397 1398 1429 1428 
1398 1399 1430 1429 1399 1400 1431 1430 1400 
1401 1432 1431 1401 1402 1433 1432 1402 1403 
1434 1433 1403 1404 1435 1434 1404 1405 1436 
1435 1405 1406 1437 1436 1406 1407 1438 1437 
1407 1408 1439 1438 1408 1409 1440 1439 1409 
1410 1441 1440 1410 1411 1442 1441 1411 1412 
1443 1442 1412 1413 1444 1443 1413 1414 1445 
1444 1414 1415 1446 1445 1415 1416 1447 1446 
1416 1417 1448 1447 1417 1418 1449 1448 1418 
1419 1450 1449 1419 1420 1451 1450 1420 1421 
1452 1451 1421 1422 1453 1452 1422 1423 1454 
1453 1423 1424 1455 1454 1424 1425 1456 1455 
1426 1427 1458 1457 1427 1428 1459 1458 1428 
1429 1460 1459 1429 1430 1461 1460 1430 1431 
1462 1461 1431 1432 1463 1462 1432 1433 1464 
1463 1433 1434 1465 1464 1434 1435 1466 1465 
1435 1436 1467 1466 1436 1437 1468 1467 1437 
1438 1469 1468 1438 1439 1470 1469 1439 1440 
1471 1470 1440 1441 1472 1471 1441 1442 1473 
1472 1442 1443 1474 1473 1443 1444 1475 1474 
1444 1445 1476 1475 1445 1446 1477 1476 1446 
1447 1478 1477 1447 1448 1479 1478 1448 1449 
1480 1479 1449 1450 1481 1480 1450 1451 1482 
1481 1451 1452 1483 1482 1452 1453 1484 1483 
1453 1454 1485 1484 1454 1455 1486 1485 1455 
1456 1487 1486 1457 1458 1489 1488 1458 1459 
1490 1489 1459 1460 1491 1490 1460 1461 1492 
1491 1461 1462 1493 1492 1462 1463 1494 1493 
1463 1464 1495 1494 1464 1465 1496 1495 1465 
1466 1497 1496 1466 1467 1498 1497 1467 1468 
1499 1498 1468 1469 1500 1499 1469 1470 1501 
1500 1470 1471 1502 1501 1471 1472 1503 1502 
1472 1473 1504 1503 1473 1474 1505 1504 1474 
1475 1506 1505 1475 1476 1507 1506 1476 1477 
1508 1507 1477 1478 1509 1508 1478 1479 1510 
1509 1479 1480 1511 1510 1480 1481 1512 1511 
1481 1482 1513 1512 1482 1483 1514 1513 1483 
1484 1515 1514 1484 1485 1516 1515 1485 1486 
1517 1516 1486 1487 1518 1517 1488 1489 1520 
1519 1489 1490 1521 1520 1490 1491 1522 1521 
1491 1492 1523 1522 1492 1493 1524 1523 1493 
1494 1525 1524 1494 1495 1526 1525 1495 1496 
1527 1526 1496 1497 1528 1527 1497 1498 1529 
1528 1498 1499 1530 1529 1499 1500 1531 1530 
1500 1501 1532 1531 1501 1502 1533 1532 1502 
1503 1534 1533 1503 1504 1535 1534 1504 1505 
1536 1535 1505 1506 1537 1536 1506 1507 1538 
1537 1507 1508 1539 1538 1508 1509 1540 1539 
1509 1510 1541 1540 1510 1511 1542 1541 1511 
1512 1543 1542 1512 1513 1544 1543 1513 1514 
1545 1544 1514 1515 1546 1545 1515 1516 1547 
1546 1516 1517 1548 1547 1517 1518 1549 1548 
1519 1520 1551 1550 1520 1521 1552 1551 1521 
1522 1553 1552 1522 1523 1554 1553 1523 1524 
1555 1554 1524 1525 1556 1555 1525 1526 1557 
1556 1526 1527 1558 1557 1527 1528 1559 1558 
1528 1529 1560 1559 1529 1530 1561 1560 1530 
1531 1562 1561 1531 1532 1563 1562 1532 1533 
1564 1563 1533 1534 1565 1564 1534 1535 1566 
1565 1535 1536 1567 1566 1536 1537 1568 1567 
1537 1538 1569 1568 1538 1539 1570 1569 1539 
1540 1571 1570 1540 1541 1572 1571 1541 1542 
1573 1572 1542 1543 1574 1573 1543 1544 1575 
1574 1544 1545 1576 1575 1545 1546 1577 1576 
1546 1547 1578 1577 1547 1548 1579 1578 1548 
1549 1580 1579 1550 1551 1582 1581 1551 1552 
1583 1582 1552 1553 1584 1583 1553 1554 1585 
1584 1554 1555 1586 1585 1555 1556 1587 1586 
1556 1557 1588 1587 1557 1558 1589 1588 1558 
1559 1590 1589 1559 1560 1591 1590 1560 1561 
1592 1591 1561 1562 1593 1592 1562 1563 1594 
1593 1563 1564 1595 1594 1564 1565 1596 1595 
1565 1566 1597 1596 1566 1567 1598 1597 1567 
1568 1599 1598 1568 1569 1600 1599 1569 1570 
1601 1600 1570 1571 1602 1601 1571 1572 1603 
1602 1572 1573 1604 1603 1573 1574 1605 1604 
1574 1575 1606 1605 1575 1576 1607 1606 1576 
1577 1608 1607 1577 1578 1609 1608 1578 1579 
1610 1609 1579 1580 1611 1610 1581 1582 1613 
1612 1582 1583 1614 1613 1583 1584 1615 1614 
1584 1585 1616 1615 1585 1586 1617 1616 1586 
1587 1618 1617 1587 1588 1619 1618 1588 1589 
1620 1619 1589 1590 1621 1620 1590 1591 1622 
1621 1591 1592 1623 1622 1592 1593 1624 1623 
1593 1594 1625 1624 1594 1595 1626 1625 1595 
1596 1627 1626 1596 1597 1628 1627 1597 1598 
1629 1628 1598 1599 1630 1629 1599 1600 1631 
1630 1600 1601 1632 1631 1601 1602 1633 1632 
1602 1603 1634 1633 1603 1604 1635 1634 1604 
1605 1636 1635 1605 1606 1637 1636 1606 1607 
1638 1637 1607 1608 1639 1638 1608 1609 1640 
1639 1609 1610 1641 1640 1610 1611 1642 1641 
1612 1613 1644 1643 1613 1614 1645 1644 1614 
1615 1646 1645 1615 1616 1647 1646 1616 1617 
1648 1647 1617 1618 1649 1648 1618 1619 1650 
1649 1619 1620 1651 1650 1620 1621 1652 1651 
1621 1622 1653 1652 1622 1623 1654 1653 1623 
1624 1655 1654 1624 1625 1656 1655 1625 1626 
1657 1656 1626 1627 1658 1657 1627 1628 1659 
1658 1628 1629 1660 1659 1629 1630 1661 1660 
1630 1631 1662 1661 1631 1632 1663 1662 1632 
1633 1664 1663 1633 1634 1665 1664 1634 1635 
1666 1665 1635 1636 1667 1666 1636 1637 1668 
1667 1637 1638 1669 1668 1638 1639 1670 1669 
1639 1640 1671 1670 1640 1641 1672 1671 1641 
1642 1673 1672 1643 1644 1675 1674 1644 1645 
1676 1675 1645 1646 1677 1676 1646 1647 1678 
1677 1647 1648 1679 1678 1648 1649 1680 1679 
1649 1650 1681 1680 1650 1651 1682 1681 1651 
1652 1683 1682 1652 1653 1684 1683 1653 1654 
1685 1684 1654 1655 1686 1685 1655 1656 1687 
1686 1656 1657 1688 1687 1657 1658 1689 1688 
1658 1659 1690 1689 1659 1660 1691 1690 1660 
1661 1692 1691 1661 1662 1693 1692 1662 1663 
1694 1693 1663 1664 1695 1694 1664 1665 1696 
1695 1665 1666 1697 1696 1666 1667 1698 1697 
1667 1668 1699 1698 1668 1669 1700 1699 1669 
1670 1701 1700 1670 1671 1702 1701 1671 1672 
1703 1702 1672 1673 1704 1703 1674 1675 1706 
1705 1675 1676 1707 1706 1676 1677 1708 1707 
1677 1678 1709 1708 1678 1679 1710 1709 1679 
1680 1711 1710 1680 1681 1712 1711 1681 1682 
1713 1712 1682 1683 1714 1713 1683 1684 1715 
1714 1684 1685 1716 1715 1685 1686 1717 1716 
1686 1687 1718 1717 1687 1688 1719 1718 1688 
1689 1720 1719 1689 1690 1721 1720 1690 1691 
1722 1721 1691 1692 1723 1722 1692 1693 1724 
1723 1693 1694 1725 1724 1694 1695 1726 1725 
1695 1696 1727 1726 1696 1697 1728 1727 1697 
1698 1729 1728 1698 1699 1730 1729 1699 1700 
1731 1730 1700 1701 1732 1731 1701 1702 1733 
1732 1702 1703 1734 1733 1703 1704 1735 1734 
1705 1706 1737 1736 1706 1707 1738 1737 1707 
1708 1739 1738 1708 1709 1740 1739 1709 1710 
1741 1740 1710 1711 1742 1741 1711 1712 1743 
1742 1712 1713 1744 1743 1713 1714 1745 1744 
1714 1715 1746 1745 1715 1716 1747 1746 1716 
1717 1748 1747 1717 1718 1749 1748 1718 1719 
1750 1749 1719 1720 1751 1750 1720 1721 1752 
1751 1721 1722 1753 1752 1722 1723 1754 1753 
1723 1724 1755 1754 1724 1725 1756 1755 1725 
1726 1757 1756 1726 1727 1758 1757 1727 1728 
1759 1758 1728 1729 1760 1759 1729 1730 1761 
1760 1730 1731 1762 1761 1731 1732 1763 1762 
1732 1733 1764 1763 1733 1734 1765 1764 1734 
1735 1766 1765 1736 1737 1768 1767 1737 1738 
1769 1768 1738 1739 1770 1769 1739 1740 1771 
1770 1740 1741 1772 1771 1741 1742 1773 1772 
1742 1743 1774 1773 1743 1744 1775 1774 1744 
1745 1776 1775 1745 1746 1777 1776 1746 1747 
1778 1777 1747 1748 1779 1778 1748 1749 1780 
1779 1749 1750 1781 1780 1750 1751 1782 1781 
1751 1752 1783 1782 1752 1753 1784 1783 1753 
1754 1785 1784 1754 1755 1786 1785 1755 1756 
1787 1786 1756 1757 1788 1787 1757 1758 1789 
1788 1758 1759 1790 1789 1759 1760 1791 1790 
1760 1761 1792 1791 1761 1762 1793 1792 1762 
1763 1794 1793 1763 1764 1795 1794 1764 1765 
1796 1795 1765 1766 1797 1796 1767 1768 1799 
1798 1768 1769 1800 1799 1769 1770 1801 1800 
1770 1771 1802 1801 1771 1772 1803 1802 1772 
1773 1804 1803 1773 1774 1805 1804 1774 1775 
1806 1805 1775 1776 1807 1806 1776 1777 1808 
1807 1777 1778 1809 1808 1778 1779 1810 1809 
1779 1780 1811 1810 1780 1781 1812 1811 1781 
1782 1813 1812 1782 1783 1814 1813 1783 1784 
1815 1814 1784 1785 1816 1815 1785 1786 1817 
1816 1786 1787 1818 1817 1787 1788 1819 1818 
1788 1789 1820 1819 1789 1790 1821 1820 1790 
1791 1822 1821 1791 1792 1823 1822 1792 1793 
1824 1823 1793 1794 1825 1824 1794 1795 1826 
1825 1795 1796 1827 1826 1796 1797 1828 1827 
1798 1799 1830 1829 1799 1800 1831 1830 1800 
1801 1832 1831 1801 1802 1833 1832 1802 1803 
1834 1833 1803 1804 1835 1834 1804 1805 1836 
1835 1805 1806 1837 1836 1806 1807 1838 1837 
1807 1808 1839 1838 1808 1809 1840 1839 1809 
1810 1841 1840 1810 1811 1842 1841 1811 1812 
1843 1842 1812 1813 1844 1843 1813 1814 1845 
1844 1814 1815 1846 1845 1815 1816 1847 1846 
1816 1817 1848 1847 1817 1818 1849 1848 1818 
1819 1850 1849 1819 1820 1851 1850 1820 1821 
1852 1851 1821 1822 1853 1852 1822 1823 1854 
1853 1823 1824 1855 1854 1824 1825 1856 1855 
1825 1826 1857 1856 1826 1827 1858 1857 1827 
1828 1859 1858 1829 1830 1861 1860 1830 1831 
1862 1861 1831 1832 1863 1862 1832 1833 1864 
1863 1833 1834 1865 1864 1834 1835 1866 1865 
1835 1836 1867 1866 1836 1837 1868 1867 1837 
1838 1869 1868 1838 1839 1870 1869 1839 1840 
1871 1870 1840 1841 1872 1871 1841 1842 1873 
1872 1842 1843 1874 1873 1843 1844 1875 1874 
1844 1845 1876 1875 1845 1846 1877 1876 1846 
1847 1878 1877 1847 1848 1879 1878 1848 1849 
1880 1879 1849 1850 1881 1880 1850 1851 1882 
1881 1851 1852 1883 1882 1852 1853 1884 1883 
1853 1854 1885 1884 1854 1855 1886 1885 1855 
1856 1887 1886 1856 1857 1888 1887 1857 1858 
1889 1888 1858 1859 1890 1889 1860 1861 1892 
1891 1861 1862 1893 1892 1862 1863 1894 1893 
1863 1864 1895 1894 1864 1865 1896 1895 1865 
1866 1897 1896 1866 1867 1898 1897 1867 1868 
1899 1898 1868 1869 1900 1899 1869 1870 1901 
1900 1870 1871 1902 1901 1871 1872 1903 1902 
1872 1873 1904 1903 1873 1874 1905 1904 1874 
1875 1906 1905 1875 1876 1907 1906 1876 1877 
1908 1907 1877 1878 1909 1908 1878 1879 1910 
1909 1879 1880 1911 1910 1880 1881 1912 1911 
1881 1882 1913 1912 1882 1883 1914 1913 1883 
1884 1915 1914 1884 1885 1916 1915 1885 1886 
1917 1916 1886 1887 1918 1917 1887 1888 1919 
1918 1888 1889 1920 1919 1889 1890 1921 1920 
1891 1892 1923 1922 1892 1893 1924 1923 1893 
1894 1925 1924 1894 1895 1926 1925 1895 1896 
1927 1926 1896 1897 1928 1927 1897 1898 1929 
1928 1898 1899 1930 1929 1899 1900 1931 1930 
1900 1901 1932 1931 1901 1902 1933 1932 1902 
1903 1934 1933 1903 1904 1935 1934 1904 1905 
1936 1935 1905 1906 1937 1936 1906 1907 1938 
1937 1907 1908 1939 1938 1908 1909 1940 1939 
1909 1910 1941 1940 1910 1911 1942 1941 1911 
1912 1943 1942 1912 1913 1944 1943 1913 1914 
1945 1944 1914 1915 1946 1945 1915 1916 1947 
1946 1916 1917 1948 1947 1917 1918 1949 1948 
1918 1919 1950 1949 1919 1920 1951 1950 1920 
1921 1952 1951 1922 1923 1954 1953 1923 1924 
1955 1954 1924 1925 1956 1955 1925 1926 1957 
1956 1926 1927 1958 1957 1927 1928 1959 1958 
1928 1929 1960 1959 1929 1930 1961 1960 1930 
1931 1962 1961 1931 1932 1963 1962 1932 1933 
1964 1963 1933 1934 1965 1964 1934 1935 1966 
1965 1935 1936 1967 1966 1936 1937 1968 1967 
1937 1938 1969 1968 1938 1939 1970 1969 1939 
1940 1971 1970 1940 1941 1972 1971 1941 1942 
1973 1972 1942 1943 1974 1973 1943 1944 1975 
1974 1944 1945 1976 1975 1945 1946 1977 1976 
1946 1947 1978 1977 1947 1948 1979 1978 1948 
1949 1980 1979 1949 1950 1981 1980 1950 1951 
1982 1981 1951 1952 1983 1982 1953 1954 1985 
1984 1954 1955 1986 1985 1955 1956 1987 1986 
1956 1957 1988 1987 1957 1958 1989 1988 1958 
1959 1990 1989 1959 1960 1991 1990 1960 1961 
1992 1991 1961 1962 1993 1992 1962 1963 1994 
1993 1963 1964 1995 1994 1964 1965 1996 1995 
1965 1966 1997 1996 1966 1967 1998 1997 1967 
1968 1999 1998 1968 1969 2000 1999 1969 1970 
2001 2000 1970 1971 2002 2001 1971 1972 2003 
2002 1972 1973 2004 2003 1973 1974 2005 2004 
1974 1975 2006 2005 1975 1976 2007 2006 1976 
1977 2008 2007 1977 1978 2009 2008 1978 1979 
2010 2009 1979 1980 2011 2010 1980 1981 2012 
2011 1981 1982 2013 2012 1982 1983 2014 2013 
1984 1985 2016 2015 1985 1986 2017 2016 1986 
1987 2018 2017 1987 1988 2019 2018 1988 1989 
2020 2019 1989 1990 2021 2020 1990 1991 2022 
2021 1991 1992 2023 2022 1992 1993 2024 2023 
1993 1994 2025 2024 1994 1995 2026 2025 1995 
1996 2027 2026 1996 1997 2028 2027 1997 1998 
2029 2028 1998 1999 2030 2029 1999 2000 2031 
2030 2000 2001 2032 2031 2001 2002 2033 2032 
2002 2003 2034 2033 2003 2004 2035 2034 2004 
2005 2036 2035 2005 2006 2037 2036 2006 2007 
2038 2037 2007 2008 2039 2038 2008 2009 2040 
2039 2009 2010 2041 2040 2010 2011 2042 2041 
2011 2012 2043 2042 2012 2013 2044 2043 2013 
2014 2045 2044 2015 2016 2047 2046 2016 2017 
2048 2047 2017 2018 2049 2048 2018 2019 2050 
2049 2019 2020 2051 2050 2020 2021 2052 2051 
2021 2022 2053 2052 2022 2023 2054 2053 2023 
2024 2055 2054 2024 2025 2056 2055 2025 2026 
2057 2056 2026 2027 2058 2057 2027 2028 2059 
2058 2028 2029 2060 2059 2029 2030 2061 2060 
2030 2031 2062 2061 2031 2032 2063 2062 2032 
2033 2064 2063 2033 2034 2065 2064 2034 2035 
2066 2065 2035 2036 2067 2066 2036 2037 2068 
2067 2037 2038 2069 2068 2038 2039 2070 2069 
2039 2040 2071 2070 2040 2041 2072 2071 2041 
2042 2073 2072 2042 2043 2074 2073 2043 2044 
2075 2074 2044 2045 2076 2075 2046 2047 2078 
2077 2047 2048 2079 2078 2048 2049 2080 2079 
2049 2050 2081 2080 2050 2051 2082 2081 2051 
2052 2083 2082 2052 2053 2084 2083 2053 2054 
2085 2084 2054 2055 2086 2085 2055 2056 2087 
2086 2056 2057 2088 2087 2057 2058 2089 2088 
2058 2059 2090 2089 2059 2060 2091 2090 2060 
2061 2092 2091 2061 2062 2093 2092 2062 2063 
2094 2093 2063 2064 2095 2094 2064 2065 2096 
2095 2065 2066 2097 2096 2066 2067 2098 2097 
2067 2068 2099 2098 2068 2069 2100 2099 2069 
2070 2101 2100 2070 2071 2102 2101 2071 2072 
2103 2102 2072 2073 2104 2103 2073 2074 2105 
2104 2074 2075 2106 2105 2075 2076 2107 2106 
2077 2078 2109 2108 2078 2079 2110 2109 2079 
2080 2111 2110 2080 2081 2112 2111 2081 2082 
2113 2112 2082 2083 2114 2113 2083 2084 2115 
2114 2084 2085 2116 2115 2085 2086 2117 2116 
2086 2087 2118 2117 2087 2088 2119 2118 2088 
2089 2120 2119 2089 2090 2121 2120 2090 2091 
2122 2121 2091 2092 2123 2122 2092 2093 2124 
2123 2093 2094 2125 2124 2094 2095 2126 2125 
2095 2096 2127 2126 2096 2097 2128 2127 2097 
2098 2129 2128 2098 2099 2130 2129 2099 2100 
2131 2130 2100 2101 2132 2131 2101 2102 2133 
2132 2102 2103 2134 2133 2103 2104 2135 2134 
2104 2105 2136 2135 2105 2106 2137 2136 2106 
2107 2138 2137 2108 2109 2140 2139 2109 2110 
2141 2140 2110 2111 2142 2141 2111 2112 2143 
2142 2112 2113 2144 2143 2113 2114 2145 2144 
2114 2115 2146 2145 2115 2116 2147 2146 2116 
2117 2148 2147 2117 2118 2149 2148 2118 2119 
2150 2149 2119 2120 2151 2150 2120 2121 2152 
2151 2121 2122 2153 2152 2122 2123 2154 2153 
2123 2124 2155 2154 2124 2125 2156 2155 2125 
2126 2157 2156 2126 2127 2158 2157 2127 2128 
2159 2158 2128 2129 2160 2159 2129 2130 2161 
2160 2130 2131 2162 2161 2131 2132 2163 2162 
2132 2133 2164 2163 2133 2134 2165 2164 2134 
2135 2166 2165 2135 2136 2167 2166 2136 2137 
2168 2167 2137 2138 2169 2168 2139 2140 2171 
2170 2140 2141 2172 2171 2141 2142 2173 2172 
2142 2143 2174 2173 2143 2144 2175 2174 2144 
2145 2176 2175 2145 2146 2177 2176 2146 2147 
2178 2177 2147 2148 2179 2178 2148 2149 2180 
2179 2149 2150 2181 2180 2150 2151 2182 2181 
2151 2152 2183 2182 2152 2153 2184 2183 2153 
2154 2185 2184 2154 2155 2186 2185 2155 2156 
2187 2186 2156 2157 2188 2187 2157 2158 2189 
2188 2158 2159 2190 2189 2159 2160 2191 2190 
2160 2161 2192 2191 2161 2162 2193 2192 2162 
2163 2194 2193 2163 2164 2195 2194 2164 2165 
2196 2195 2165 2166 2197 2196 2166 2167 2198 
2197 2167 2168 2199 2198 2168 2169 2200 2199 
2170 2171 2202 2201 2171 2172 2203 2202 2172 
2173 2204 2203 2173 2174 2205 2204 2174 2175 
2206 2205 2175 2176 2207 2206 2176 2177 2208 
2207 2177 2178 2209 2208 2178 2179 2210 2209 
2179 2180 2211 2210 2180 2181 2212 2211 2181 
2182 2213 2212 2182 2183 2214 2213 2183 2184 
2215 2214 2184 2185 2216 2215 2185 2186 2217 
2216 2186 2187 2218 2217 2187 2188 2219 2218 
2188 2189 2220 2219 2189 2190 2221 2220 2190 
2191 2222 2221 2191 2192 2223 2222 2192 2193 
2224 2223 2193 2194 2225 2224 2194 2195 2226 
2225 2195 2196 2227 2226 2196 2197 2228 2227 
2197 2198 2229 2228 2198 2199 2230 2229 2199 
2200 2231 2230 2201 2202 2233 2232 2202 2203 
2234 2233 2203 2204 2235 2234 2204 2205 2236 
2235 2205 2206 2237 2236 2206 2207 2238 2237 
2207 2208 2239 2238 2208 2209 2240 2239 2209 
2210 2241 2240 2210 2211 2242 2241 2211 2212 
2243 2242 2212 2213 2244 2243 2213 2214 2245 
2244 2214 2215 2246 2245 2215 2216 2247 2246 
2216 2217 2248 2247 2217 2218 2249 2248 2218 
2219 2250 2249 2219 2220 2251 2250 2220 2221 
2252 2251 2221 2222 2253 2252 2222 2223 2254 
2253 2223 2224 2255 2254 2224 2225 2256 2255 
2225 2226 2257 2256 2226 2227 2258 2257 2227 
2228 2259 2258 2228 2229 2260 2259 2229 2230 
2261 2260 2230 2231 2262 2261 2232 2233 2264 
2263 2233 2234 2265 2264 2234 2235 2266 2265 
2235 2236 2267 2266 2236 2237 2268 2267 2237 
2238 2269 2268 2238 2239 2270 2269 2239 2240 
2271 2270 2240 2241 2272 2271 2241 2242 2273 
2272 2242 2243 2274 2273 2243 2244 2275 2274 
2244 2245 2276 2275 2245 2246 2277 2276 2246 
2247 2278 2277 2247 2248 2279 2278 2248 2249 
2280 2279 2249 2250 2281 2280 2250 2251 2282 
2281 2251 2252 2283 2282 2252 2253 2284 2283 
2253 2254 2285 2284 2254 2255 2286 2285 2255 
2256 2287 2286 2256 2257 2288 2287 2257 2258 
2289 2288 2258 2259 2290 2289 2259 2260 2291 
2290 2260 2261 2292 2291 2261 2262 2293 2292 
2263 2264 2295 2294 2264 2265 2296 2295 2265 
2266 2297 2296 2266 2267 2298 2297 2267 2268 
2299 2298 2268 2269 2300 2299 2269 2270 2301 
2300 2270 2271 2302 2301 2271 2272 2303 2302 
2272 2273 2304 2303 2273 2274 2305 2304 2274 
2275 2306 2305 2275 2276 2307 2306 2276 2277 
2308 2307 2277 2278 2309 2308 2278 2279 2310 
2309 2279 2280 2311 2310 2280 2281 2312 2311 
2281 2282 2313 2312 2282 2283 2314 2313 2283 
2284 2315 2314 2284 2285 2316 2315 2285 2286 
2317 2316 2286 2287 2318 2317 2287 2288 2319 
2318 2288 2289 2320 2319 2289 2290 2321 2320 
2290 2291 2322 2321 2291 2292 2323 2322 2292 
2293 2324 2323 2294 2295 2326 2325 2295 2296 
2327 2326 2296 2297 2328 2327 2297 2298 2329 
2328 2298 2299 2330 2329 2299 2300 2331 2330 
2300 2301 2332 2331 2301 2302 2333 2332 2302 
2303 2334 2333 2303 2304 2335 2334 2304 2305 
2336 2335 2305 2306 2337 2336 2306 2307 2338 
2337 2307 2308 2339 2338 2308 2309 2340 2339 
2309 2310 2341 2340 2310 2311 2342 2341 2311 
2312 2343 2342 2312 2313 2344 2343 2313 2314 
2345 2344 2314 2315 2346 2345 2315 2316 2347 
2346 2316 2317 2348 2347 2317 2318 2349 2348 
2318 2319 2350 2349 2319 2320 2351 2350 2320 
2321 2352 2351 2321 2322 2353 2352 2322 2323 
2354 2353 2323 2324 2355 2354 2325 2326 2357 
2356 2326 2327 2358 2357 2327 2328 2359 2358 
2328 2329 2360 2359 2329 2330 2361 2360 2330 
2331 2362 2361 2331 2332 2363 2362 2332 2333 
2364 2363 2333 2334 2365 2364 2334 2335 2366 
2365 2335 2336 2367 2366 2336 2337 2368 2367 
2337 2338 2369 2368 2338 2339 2370 2369 2339 
2340 2371 2370 2340 2341 2372 2371 2341 2342 
2373 2372 2342 2343 2374 2373 2343 2344 2375 
2374 2344 2345 2376 2375 2345 2346 2377 2376 
2346 2347 2378 2377 2347 2348 2379 2378 2348 
2349 2380 2379 2349 2350 2381 2380 2350 2351 
2382 2381 2351 2352 2383 2382 2352 2353 2384 
2383 2353 2354 2385 2384 2354 2355 2386 2385 
2356 2357 2388 2387 2357 2358 2389 2388 2358 
2359 2390 2389 2359 2360 2391 2390 2360 2361 
2392 2391 2361 2362 2393 2392 2362 2363 2394 
2393 2363 2364 2395 2394 2364 2365 2396 2395 
2365 2366 2397 2396 2366 2367 2398 2397 2367 
2368 2399 2398 2368 2369 2400 2399 2369 2370 
2401 2400 2370 2371 2402 2401 2371 2372 2403 
2402 2372 2373 2404 2403 2373 2374 2405 2404 
2374 2375 2406 2405 2375 2376 2407 2406 2376 
2377 2408 2407 2377 2378 2409 2408 2378 2379 
2410 2409 2379 2380 2411 2410 2380 2381 2412 
2411 2381 2382 2413 2412 2382 2383 2414 2413 
2383 2384 2415 2414 2384 2385 2416 2415 2385 
2386 2417 2416 2387 2388 2419 2418 2388 2389 
2420 2419 2389 2390 2421 2420 2390 2391 2422 
2421 2391 2392 2423 2422 2392 2393 2424 2423 
2393 2394 2425 2424 2394 2395 2426 2425 2395 
2396 2427 2426 2396 2397 2428 2427 2397 2398 
2429 2428 2398 2399 2430 2429 2399 2400 2431 
2430 2400 2401 2432 2431 2401 2402 2433 2432 
2402 2403 2434 2433 2403 2404 2435 2434 2404 
2405 2436 2435 2405 2406 2437 2436 2406 2407 
2438 2437 2407 2408 2439 2438 2408 2409 2440 
2439 2409 2410 2441 2440 2410 2411 2442 2441 
2411 2412 2443 2442 2412 2413 2444 2443 2413 
2414 2445 2444 2414 2415 2446 2445 2415 2416 
2447 2446 2416 2417 2448 2447 2418 2419 2450 
2449 2419 2420 2451 2450 2420 2421 2452 2451 
2421 2422 2453 2452 2422 2423 2454 2453 2423 
2424 2455 2454 2424 2425 2456 2455 2425 2426 
2457 2456 2426 2427 2458 2457 2427 2428 2459 
2458 2428 2429 2460 2459 2429 2430 2461 2460 
2430 2431 2462 2461 2431 2432 2463 2462 2432 
2433 2464 2463 2433 2434 2465 2464 2434 2435 
2466 2465 2435 2436 2467 2466 2436 2437 2468 
2467 2437 2438 2469 2468 2438 2439 2470 2469 
2439 2440 2471 2470 2440 2441 2472 2471 2441 
2442 2473 2472 2442 2443 2474 2473 2443 2444 
2475 2474 2444 2445 2476 2475 2445 2446 2477 
2476 2446 2447 2478 2477 2447 2448 2479 2478 
2449 2450 2481 2480 2450 2451 2482 2481 2451 
2452 2483 2482 2452 2453 2484 2483 2453 2454 
2485 2484 2454 2455 2486 2485 2455 2456 2487 
2486 2456 2457 2488 2487 2457 2458 2489 2488 
2458 2459 2490 2489 2459 2460 2491 2490 2460 
2461 2492 2491 2461 2462 2493 2492 2462 2463 
2494 2493 2463 2464 2495 2494 2464 2465 2496 
2495 2465 2466 2497 2496 2466 2467 2498 2497 
2467 2468 2499 2498 2468 2469 2500 2499 2469 
2470 2501 2500 2470 2471 2502 2501 2471 2472 
2503 2502 2472 2473 2504 2503 2473 2474 2505 
2504 2474 2475 2506 2505 2475 2476 2507 2506 
2476 2477 2508 2507 2477 2478 2509 2508 2478 
2479 2510 2509 2480 2481 2512 2511 2481 2482 
2513 2512 2482 2483 2514 2513 2483 2484 2515 
2514 2484 2485 2516 2515 2485 2486 2517 2516 
2486 2487 2518 2517 2487 2488 2519 2518 2488 
2489 2520 2519 2489 2490 2521 2520 2490 2491 
2522 2521 2491 2492 2523 2522 2492 2493 2524 
2523 2493 2494 2525 2524 2494 2495 2526 2525 
2495 2496 2527 2526 2496 2497 2528 2527 2497 
2498 2529 2528 2498 2499 2530 2529 2499 2500 
2531 2530 2500 2501 2532 2531 2501 2502 2533 
2532 2502 2503 2534 2533 2503 2504 2535 2534 
2504 2505 2536 2535 2505 2506 2537 2536 2506 
2507 2538 2537 2507 2508 2539 2538 2508 2509 
2540 2539 2509 2510 2541 2540 2511 2512 2543 
2542 2512 2513 2544 2543 2513 2514 2545 2544 
2514 2515 2546 2545 2515 2516 2547 2546 2516 
2517 2548 2547 2517 2518 2549 2548 2518 2519 
2550 2549 2519 2520 2551 2550 2520 2521 2552 
2551 2521 2522 2553 2552 2522 2523 2554 2553 
2523 2524 2555 2554 2524 2525 2556 2555 2525 
2526 2557 2556 2526 2527 2558 2557 2527 2528 
2559 2558 2528 2529 2560 2559 2529 2530 2561 
2560 2530 2531 2562 2561 2531 2532 2563 2562 
2532 2533 2564 2563 2533 2534 2565 2564 2534 
2535 2566 2565 2535 2536 2567 2566 2536 2537 
2568 2567 2537 2538 2569 2568 2538 2539 2570 
2569 2539 2540 2571 2570 2540 2541 2572 2571 
2542 2543 2574 2573 2543 2544 2575 2574 2544 
2545 2576 2575 2545 2546 2577 2576 2546 2547 
2578 2577 2547 2548 2579 2578 2548 2549 2580 
2579 2549 2550 2581 2580 2550 2551 2582 2581 
2551 2552 2583 2582 2552 2553 2584 2583 2553 
2554 2585 2584 2554 2555 2586 2585 2555 2556 
2587 2586 2556 2557 2588 2587 2557 2558 2589 
2588 2558 2559 2590 2589 2559 2560 2591 2590 
2560 2561 2592 2591 2561 2562 2593 2592 2562 
2563 2594 2593 2563 2564 2595 2594 2564 2565 
2596 2595 2565 2566 2597 2596 2566 2567 2598 
2597 2567 2568 2599 2598 2568 2569 2600 2599 
2569 2570 2601 2600 2570 2571 2602 2601 2571 
2572 2603 2602 2573 2574 2605 2604 2574 2575 
2606 2605 2575 2576 2607 2606 2576 2577 2608 
2607 2577 2578 2609 2608 2578 2579 2610 2609 
2579 2580 2611 2610 2580 2581 2612 2611 2581 
2582 2613 2612 2582 2583 2614 2613 2583 2584 
2615 2614 2584 2585 2616 2615 2585 2586 2617 
2616 2586 2587 2618 2617 2587 2588 2619 2618 
2588 2589 2620 2619 2589 2590 2621 2620 2590 
2591 2622 2621 2591 2592 2623 2622 2592 2593 
2624 2623 2593 2594 2625 2624 2594 2595 2626 
2625 2595 2596 2627 2626 2596 2597 2628 2627 
2597 2598 2629 2628 2598 2599 2630 2629 2599 
2600 2631 2630 2600 2601 2632 2631 2601 2602 
2633 2632 2602 2603 2634 2633 2604 2605 2636 
2635 2605 2606 2637 2636 2606 2607 2638 2637 
2607 2608 2639 2638 2608 2609 2640 2639 2609 
2610 2641 2640 2610 2611 2642 2641 2611 2612 
2643 2642 2612 2613 2644 2643 2613 2614 2645 
2644 2614 2615 2646 2645 2615 2616 2647 2646 
2616 2617 2648 2647 2617 2618 2649 2648 2618 
2619 2650 2649 2619 2620 2651 2650 2620 2621 
2652 2651 2621 2622 2653 2652 2622 2623 2654 
2653 2623 2624 2655 2654 2624 2625 2656 2655 
2625 2626 2657 2656 2626 2627 2658 2657 2627 
2628 2659 2658 2628 2629 2660 2659 2629 2630 
2661 2660 2630 2631 2662 2661 2631 2632 2663 
2662 2632 2633 2664 2663 2633 2634 2665 2664 
2635 2636 2667 2666 2636 2637 2668 2667 2637 
2638 2669 2668 2638 2639 2670 2669 2639 2640 
2671 2670 2640 2641 2672 2671 2641 2642 2673 
2672 2642 2643 2674 2673 2643 2644 2675 2674 
2644 2645 2676 2675 2645 2646 2677 2676 2646 
2647 2678 2677 2647 2648 2679 2678 2648 2649 
2680 2679 2649 2650 2681 2680 2650 2651 2682 
2681 2651 2652 2683 2682 2652 2653 2684 2683 
2653 2654 2685 2684 2654 2655 2686 2685 2655 
2656 2687 2686 2656 2657 2688 2687 2657 2658 
2689 2688 2658 2659 2690 2689 2659 2660 2691 
2690 2660 2661 2692 2691 2661 2662 2693 2692 
2662 2663 2694 2693 2663 2664 2695 2694 2664 
2665 2696 2695 2666 2667 2698 2697 2667 2668 
2699 2698 2668 2669 2700 2699 2669 2670 2701 
2700 2670 2671 2702 2701 2671 2672 2703 2702 
2672 2673 2704 2703 2673 2674 2705 2704 2674 
2675 2706 2705 2675 2676 2707 2706 2676 2677 
2708 2707 2677 2678 2709 2708 2678 2679 2710 
2709 2679 2680 2711 2710 2680 2681 2712 2711 
2681 2682 2713 2712 2682 2683 2714 2713 2683 
2684 2715 2714 2684 2685 2716 2715 2685 2686 
2717 2716 2686 2687 2718 2717 2687 2688 2719 
2718 2688 2689 2720 2719 2689 2690 2721 2720 
2690 2691 2722 2721 2691 2692 2723 2722 2692 
2693 2724 2723 2693 2694 2725 2724 2694 2695 
2726 2725 2695 2696 2727 2726 2697 2698 2729 
2728 2698 2699 2730 2729 2699 2700 2731 2730 
2700 2701 2732 2731 2701 2702 2733 2732 2702 
2703 2734 2733 2703 2704 2735 2734 2704 2705 
2736 2735 2705 2706 2737 2736 2706 2707 2738 
2737 2707 2708 2739 2738 2708 2709 2740 2739 
2709 2710 2741 2740 2710 2711 2742 2741 2711 
2712 2743 2742 2712 2713 2744 2743 2713 2714 
2745 2744 2714 2715 2746 2745 2715 2716 2747 
2746 2716 2717 2748 2747 2717 2718 2749 2748 
2718 2719 2750 2749 2719 2720 2751 2750 2720 
2721 2752 2751 2721 2722 2753 2752 2722 2723 
2754 2753 2723 2724 2755 2754 2724 2725 2756 
2755 2725 2726 2757 2756 2726 2727 2758 2757 
2728 2729 2760 2759 2729 2730 2761 2760 2730 
2731 2762 2761 2731 2732 2763 2762 2732 2733 
2764 2763 2733 2734 2765 2764 2734 2735 2766 
2765 2735 2736 2767 2766 2736 2737 2768 2767 
2737 2738 2769 2768 2738 2739 2770 2769 2739 
2740 2771 2770 2740 2741 2772 2771 2741 2742 
2773 2772 2742 2743 2774 2773 2743 2744 2775 
2774 2744 2745 2776 2775 2745 2746 2777 2776 
2746 2747 2778 2777 2747 2748 2779 2778 2748 
2749 2780 2779 2749 2750 2781 2780 2750 2751 
2782 2781 2751 2752 2783 2782 2752 2753 2784 
2783 2753 2754 2785 2784 2754 2755 2786 2785 
2755 2756 2787 2786 2756 2757 2788 2787 2757 
2758 2789 2788 2759 2760 2791 2790 2760 2761 
2792 2791 2761 2762 2793 2792 2762 2763 2794 
2793 2763 2764 2795 2794 2764 2765 2796 2795 
2765 2766 2797 2796 2766 2767 2798 2797 2767 
2768 2799 2798 2768 2769 2800 2799 2769 2770 
2801 2800 2770 2771 2802 2801 2771 2772 2803 
2802 2772 2773 2804 2803 2773 2774 2805 2804 
2774 2775 2806 2805 2775 2776 2807 2806 2776 
2777 2808 2807 2777 2778 2809 2808 2778 2779 
2810 2809 2779 2780 2811 2810 2780 2781 2812 
2811 2781 2782 2813 2812 2782 2783 2814 2813 
2783 2784 2815 2814 2784 2785 2816 2815 2785 
2786 2817 2816 2786 2787 2818 2817 2787 2788 
2819 2818 2788 2789 2820 2819 2790 2791 2822 
2821 2791 2792 2823 2822 2792 2793 2824 2823 
2793 2794 2825 2824 2794 2795 2826 2825 2795 
2796 2827 2826 2796 2797 2828 2827 2797 2798 
2829 2828 2798 2799 2830 2829 2799 2800 2831 
2830 2800 2801 2832 2831 2801 2802 2833 2832 
2802 2803 2834 2833 2803 2804 2835 2834 2804 
2805 2836 2835 2805 2806 2837 2836 2806 2807 
2838 2837 2807 2808 2839 2838 2808 2809 2840 
2839 2809 2810 2841 2840 2810 2811 2842 2841 
2811 2812 2843 2842 2812 2813 2844 2843 2813 
2814 2845 2844 2814 2815 2846 2845 2815 2816 
2847 2846 2816 2817 2848 2847 2817 2818 2849 
2848 2818 2819 2850 2849 2819 2820 2851 2850 
2821 2822 2853 2852 2822 2823 2854 2853 2823 
2824 2855 2854 2824 2825 2856 2855 2825 2826 
2857 2856 2826 2827 2858 2857 2827 2828 2859 
2858 2828 2829 2860 2859 2829 2830 2861 2860 
2830 2831 2862 2861 2831 2832 2863 2862 2832 
2833 2864 2863 2833 2834 2865 2864 2834 2835 
2866 2865 2835 2836 2867 2866 2836 2837 2868 
2867 2837 2838 2869 2868 2838 2839 2870 2869 
2839 2840 2871 2870 2840 2841 2872 2871 2841 
2842 2873 2872 2842 2843 2874 2873 2843 2844 
2875 2874 2844 2845 2876 2875 2845 2846 2877 
2876 2846 2847 2878 2877 2847 2848 2879 2878 
2848 2849 2880 2879 2849 2850 2881 2880 2850 
2851 2882 2881 2852 2853 2884 2883 2853 2854 
2885 2884 2854 2855 2886 2885 2855 2856 2887 
2886 2856 2857 2888 2887 2857 2858 2889 2888 
2858 2859 2890 2889 2859 2860 2891 2890 2860 
2861 2892 2891 2861 2862 2893 2892 2862 2863 
2894 2893 2863 2864 2895 2894 2864 2865 2896 
2895 2865 2866 2897 2896 2866 2867 2898 2897 
2867 2868 2899 2898 2868 2869 2900 2899 2869 
2870 2901 2900 2870 2871 2902 2901 2871 2872 
2903 2902 2872 2873 2904 2903 2873 2874 2905 
2904 2874 2875 2906 2905 2875 2876 2907 2906 
2876 2877 2908 2907 2877 2878 2909 2908 2878 
2879 2910 2909 2879 2880 2911 2910 2880 2881 
2912 2911 2881 2882 2913 2912 2883 2884 2915 
2914 2884 2885 2916 2915 2885 2886 2917 2916 
2886 2887 2918 2917 2887 2888 2919 2918 2888 
2889 2920 2919 2889 2890 2921 2920 2890 2891 
2922 2921 2891 2892 2923 2922 2892 2893 2924 
2923 2893 2894 2925 2924 2894 2895 2926 2925 
2895 2896 2927 2926 2896 2897 2928 2927 2897 
2898 2929 2928 2898 2899 2930 2929 2899 2900 
2931 2930 2900 2901 2932 2931 2901 2902 2933 
2932 2902 2903 2934 2933 2903 2904 2935 2934 
2904 2905 2936 2935 2905 2906 2937 2936 2906 
2907 2938 2937 2907 2908 2939 2938 2908 2909 
2940 2939 2909 2910 2941 2940 2910 2911 2942 
2941 2911 2912 2943 2942 2912 2913 2944 2943 
2914 2915 2946 2945 2915 2916 2947 2946 2916 
2917 2948 2947 2917 2918 2949 2948 2918 2919 
2950 2949 2919 2920 2951 2950 2920 2921 2952 
2951 2921 2922 2953 2952 2922 2923 2954 2953 
2923 2924 2955 2954 2924 2925 2956 2955 2925 
2926 2957 2956 2926 2927 2958 2957 2927 2928 
2959 2958 2928 2929 2960 2959 2929 2930 2961 
2960 2930 2931 2962 2961 2931 2932 2963 2962 
2932 2933 2964 2963 2933 2934 2965 2964 2934 
2935 2966 2965 2935 2936 2967 2966 2936 2937 
2968 2967 2937 2938 2969 2968 2938 2939 2970 
2969 2939 2940 2971 2970 2940 2941 2972 2971 
2941 2942 2973 2972 2942 2943 2974 2973 2943 
2944 2975 2974 2945 2946 2977 2976 2946 2947 
2978 2977 2947 2948 2979 2978 2948 2949 2980 
2979 2949 2950 2981 2980 2950 2951 2982 2981 
2951 2952 2983 2982 2952 2953 2984 2983 2953 
2954 2985 2984 2954 2955 2986 2985 2955 2956 
2987 2986 2956 2957 2988 2987 2957 2958 2989 
2988 2958 2959 2990 2989 2959 2960 2991 2990 
2960 2961 2992 2991 2961 2962 2993 2992 2962 
2963 2994 2993 2963 2964 2995 2994 2964 2965 
2996 2995 2965 2966 2997 2996 2966 2967 2998 
2997 2967 2968 2999 2998 2968 2969 3000 2999 
2969 2970 3001 3000 2970 2971 3002 3001 2971 
2972 3003 3002 2972 2973 3004 3003 2973 2974 
3005 3004 2974 2975 3006 3005 2976 2977 3008 
3007 2977 2978 3009 3008 2978 2979 3010 3009 
2979 2980 3011 3010 2980 2981 3012 3011 2981 
2982 3013 3012 2982 2983 3014 3013 2983 2984 
3015 3014 2984 2985 3016 3015 2985 2986 3017 
3016 2986 2987 3018 3017 2987 2988 3019 3018 
2988 2989 3020 3019 2989 2990 3021 3020 2990 
2991 3022 3021 2991 2992 3023 3022 2992 2993 
3024 3023 2993 2994 3025 3024 2994 2995 3026 
3025 2995 2996 3027 3026 2996 2997 3028 3027 
2997 2998 3029 3028 2998 2999 3030 3029 2999 
3000 3031 3030 3000 3001 3032 3031 3001 3002 
3033 3032 3002 3003 3034 3033 3003 3004 3035 
3034 3004 3005 3036 3035 3005 3006 3037 3036 
3007 3008 3039 3038 3008 3009 3040 3039 3009 
3010 3041 3040 3010 3011 3042 3041 3011 3012 
3043 3042 3012 3013 3044 3043 3013 3014 3045 
3044 3014 3015 3046 3045 3015 3016 3047 3046 
3016 3017 3048 3047 3017 3018 3049 3048 3018 
3019 3050 3049 3019 3020 3051 3050 3020 3021 
3052 3051 3021 3022 3053 3052 3022 3023 3054 
3053 3023 3024 3055 3054 3024 3025 3056 3055 
3025 3026 3057 3056 3026 3027 3058 3057 3027 
3028 3059 3058 3028 3029 3060 3059 3029 3030 
3061 3060 3030 3031 3062 3061 3031 3032 3063 
3062 3032 3033 3064 3063 3033 3034 3065 3064 
3034 3035 3066 3065 3035 3036 3067 3066 3036 
3037 3068 3067 3038 3039 3070 3069 3039 3040 
3071 3070 3040 3041 3072 3071 3041 3042 3073 
3072 3042 3043 3074 3073 3043 3044 3075 3074 
3044 3045 3076 3075 3045 3046 3077 3076 3046 
3047 3078 3077 3047 3048 3079 3078 3048 3049 
3080 3079 3049 3050 3081 3080 3050 3051 3082 
3081 3051 3052 3083 3082 3052 3053 3084 3083 
3053 3054 3085 3084 3054 3055 3086 3085 3055 
3056 3087 3086 3056 3057 3088 3087 3057 3058 
3089 3088 3058 3059 3090 3089 3059 3060 3091 
3090 3060 3061 3092 3091 3061 3062 3093 3092 
3062 3063 3094 3093 3063 3064 3095 3094 3064 
3065 3096 3095 3065 3066 3097 3096 3066 3067 
3098 3097 3067 3068 3099 3098 3069 3070 3101 
3100 3070 3071 3102 3101 3071 3072 3103 3102 
3072 3073 3104 3103 3073 3074 3105 3104 3074 
3075 3106 3105 3075 3076 3107 3106 3076 3077 
3108 3107 3077 3078 3109 3108 3078 3079 3110 
3109 3079 3080 3111 3110 3080 3081 3112 3111 
3081 3082 3113 3112 3082 3083 3114 3113 3083 
3084 3115 3114 3084 3085 3116 3115 3085 3086 
3117 3116 3086 3087 3118 3117 3087 3088 3119 
3118 3088 3089 3120 3119 3089 3090 3121 3120 
3090 3091 3122 3121 3091 3092 3123 3122 3092 
3093 3124 3123 3093 3094 3125 3124 3094 3095 
3126 3125 3095 3096 3127 3126 3096 3097 3128 
3127 3097 3098 3129 3128 3098 3099 3130 3129 
3100 3101 32 31 3101 3102 33 32 3102 
3103 34 33 3103 3104 35 34 3104 3105 
36 35 3105 3106 37 36 3106 3107 38 
37 3107 3108 39 38 3108 3109 40 39 
3109 3110 41 40 3110 3111 42 41 3111 
3112 43 42 3112 3113 44 43 3113 3114 
45 44 3114 3115 46 45 3115 3116 47 
46 3116 3117 48 47 3117 3118 49 48 
3118 3119 50 49 3119 3120 51 50 3120 
3121 52 51 3121 3122 53 52 3122 3123 
54 53 3123 3124 55 54 3124 3125 56 
55 3125 3126 57 56 3126 3127 58 57 
3127 3128 59 58 3128 3129 60 59 3129 
3130 61 60 3131 3132 3163 3162 3132 3133 
3164 3163 3133 3134 3165 3164 3134 3135 3166 
3165 3135 3136 3167 3166 3136 3137 3168 3167 
3137 3138 3169 3168 3138 3139 3170 3169 3139 
3140 3171 3170 3140 3141 3172 3171 3141 3142 
3173 3172 3142 3143 3174 3173 3143 3144 3175 
3174 3144 3145 3176 3175 3145 3146 3177 3176 
3146 3147 3178 3177 3147 3148 3179 3178 3148 
3149 3180 3179 3149 3150 3181 3180 3150 3151 
3182 3181 3151 3152 3183 3182 3152 3153 3184 
3183 3153 3154 3185 3184 3154 3155 3186 3185 
3155 3156 3187 3186 3156 3157 3188 3187 3157 
3158 3189 3188 3158 3159 3190 3189 3159 3160 
3191 3190 3160 3161 3192 3191 3162 3163 3194 
3193 3163 3164 3195 3194 3164 3165 3196 3195 
3165 3166 3197 3196 3166 3167 3198 3197 3167 
3168 3199 3198 3168 3169 3200 3199 3169 3170 
3201 3200 3170 3171 3202 3201 3171 3172 3203 
3202 3172 3173 3204 3203 3173 3174 3205 3204 
3174 3175 3206 3205 3175 3176 3207 3206 3176 
3177 3208 3207 3177 3178 3209 3208 3178 3179 
3210 3209 3179 3180 3211 3210 3180 3181 3212 
3211 3181 3182 3213 3212 3182 3183 3214 3213 
3183 3184 3215 3214 3184 3185 3216 3215 3185 
3186 3217 3216 3186 3187 3218 3217 3187 3188 
3219 3218 3188 3189 3220 3219 3189 3190 3221 
3220 3190 3191 3222 3221 3191 3192 3223 3222 
3193 3194 3225 3224 3194 3195 3226 3225 3195 
3196 3227 3226 3196 3197 3228 3227 3197 3198 
3229 3228 3198 3199 3230 3229 3199 3200 3231 
3230 3200 3201 3232 3231 3201 3202 3233 3232 
3202 3203 3234 3233 3203 3204 3235 3234 3204 
3205 3236 3235 3205 3206 3237 3236 3206 3207 
3238 3237 3207 3208 3239 3238 3208 3209 3240 
3239 3209 3210 3241 3240 3210 3211 3242 3241 
3211 3212 3243 3242 3212 3213 3244 3243 3213 
3214 3245 3244 3214 3215 3246 3245 3215 3216 
3247 3246 3216 3217 3248 3247 3217 3218 3249 
3248 3218 3219 3250 3249 3219 3220 3251 3250 
3220 3221 3252 3251 3221 3222 3253 3252 3222 
3223 3254 3253 3224 3225 3256 3255 3225 3226 
3257 3256 3226 3227 3258 3257 3227 3228 3259 
3258 3228 3229 3260 3259 3229 3230 3261 3260 
3230 3231 3262 3261 3231 3232 3263 3262 3232 
3233 3264 3263 3233 3234 3265 3264 3234 3235 
3266 3265 3235 3236 3267 3266 3236 3237 3268 
3267 3237 3238 3269 3268 3238 3239 3270 3269 
3239 3240 3271 3270 3240 3241 3272 3271 3241 
3242 3273 3272 3242 3243 3274 3273 3243 3244 
3275 3274 3244 3245 3276 3275 3245 3246 3277 
3276 3246 3247 3278 3277 3247 3248 3279 3278 
3248 3249 3280 3279 3249 3250 3281 3280 3250 
3251 3282 3281 3251 3252 3283 3282 3252 3253 
3284 3283 3253 3254 3285 3284 3255 3256 3287 
3286 3256 3257 3288 3287 3257 3258 3289 3288 
3258 3259 3290 3289 3259 3260 3291 3290 3260 
3261 3292 3291 3261 3262 3293 3292 3262 3263 
3294 3293 3263 3264 3295 3294 3264 3265 3296 
3295 3265 3266 3297 3296 3266 3267 3298 3297 
3267 3268 3299 3298 3268 3269 3300 3299 3269 
3270 3301 3300 3270 3271 3302 3301 3271 3272 
3303 3302 3272 3273 3304 3303 3273 3274 3305 
3304 3274 3275 3306 3305 3275 3276 3307 3306 
3276 3277 3308 3307 3277 3278 3309 3308 3278 
3279 3310 3309 3279 3280 3311 3310 3280 3281 
3312 3311 3281 3282 3313 3312 3282 3283 3314 
3313 3283 3284 3315 3314 3284 3285 3316 3315 
3286 3287 3318 3317 3287 3288 3319 3318 3288 
3289 3320 3319 3289 3290 3321 3320 3290 3291 
3322 3321 3291 3292 3323 3322 3292 3293 3324 
3323 3293 3294 3325 3324 3294 3295 3326 3325 
3295 3296 3327 3326 3296 3297 3328 3327 3297 
3298 3329 3328 3298 3299 3330 3329 3299 3300 
3331 3330 3300 3301 3332 3331 3301 3302 3333 
3332 3302 3303 3334 3333 3303 3304 3335 3334 
3304 3305 3336 3335 3305 3306 3337 3336 3306 
3307 3338 3337 3307 3308 3339 3338 3308 3309 
3340 3339 3309 3310 3341 3340 3310 3311 3342 
3341 3311 3312 3343 3342 3312 3313 3344 3343 
3313 3314 3345 3344 3314 3315 3346 3345 3315 
3316 3347 3346 3317 3318 3349 3348 3318 3319 
3350 3349 3319 3320 3351 3350 3320 3321 3352 
3351 3321 3322 3353 3352 3322 3323 3354 3353 
3323 3324 3355 3354 3324 3325 3356 3355 3325 
3326 3357 3356 3326 3327 3358 3357 3327 3328 
3359 3358 3328 3329 3360 3359 3329 3330 3361 
3360 3330 3331 3362 3361 3331 3332 3363 3362 
3332 3333 3364 3363 3333 3334 3365 3364 3334 
3335 3366 3365 3335 3336 3367 3366 3336 3337 
3368 3367 3337 3338 3369 3368 3338 3339 3370 
3369 3339 3340 3371 3370 3340 3341 3372 3371 
3341 3342 3373 3372 3342 3343 3374 3373 3343 
3344 3375 3374 3344 3345 3376 3375 3345 3346 
3377 3376 3346 3347 3378 3377 3348 3349 1 
0 3349 3350 2 1 3350 3351 3 2 
3351 3352 4 3 3352 3353 5 4 3353 
3354 6 5 3354 3355 7 6 3355 3356 
8 7 3356 3357 9 8 3357 3358 10 
9 3358 3359 11 10 3359 3360 12 11 
3360 3361 13 12 3361 3362 14 13 3362 
3363 15 14 3363 3364 16 15 3364 3365 
17 16 3365 3366 18 17 3366 3367 19 
18 3367 3368 20 19 3368 3369 21 20 
3369 3370 22 21 3370 3371 23 22 3371 
3372 24 23 3372 3373 25 24 3373 3374 
26 25 3374 3375 27 26 3375 3376 28 
27 3376 3377 29 28 3377 3378 30 29 
3379 3380 3411 3410 3380 3381 3412 3411 3381 
3382 3413 3412 3382 3383 3414 3413 3383 3384 
3415 3414 3384 3385 3416 3415 3385 3386 3417 
3416 3386 3387 3418 3417 3387 3388 3419 3418 
3388 3389 3420 3419 3389 3390 3421 3420 3390 
3391 3422 3421 3391 3392 3423 3422 3392 3393 
3424 3423 3393 3394 3425 3424 3394 3395 3426 
3425 3395 3396 3427 3426 3396 3397 3428 3427 
3397 3398 3429 3428 3398 3399 3430 3429 3399 
3400 3431 3430 3400 3401 3432 3431 3401 3402 
3433 3432 3402 3403 3434 3433 3403 3404 3435 
3434 3404 3405 3436 3435 3405 3406 3437 3436 
3406 3407 3438 3437 3407 3408 3439 3438 3408 
3409 3440 3439 3410 3411 3442 3441 3411 3412 
3443 3442 3412 3413 3444 3443 3413 3414 3445 
3444 3414 3415 3446 3445 3415 3416 3447 3446 
3416 3417 3448 3447 3417 3418 3449 3448 3418 
3419 3450 3449 3419 3420 3451 3450 3420 3421 
3452 3451 3421 3422 3453 3452 3422 3423 3454 
3453 3423 3424 3455 3454 3424 3425 3456 3455 
3425 3426 3457 3456 3426 3427 3458 3457 3427 
3428 3459 3458 3428 3429 3460 3459 3429 3430 
3461 3460 3430 3431 3462 3461 3431 3432 3463 
3462 3432 3433 3464 3463 3433 3434 3465 3464 
3434 3435 3466 3465 3435 3436 3467 3466 3436 
3437 3468 3467 3437 3438 3469 3468 3438 3439 
3470 3469 3439 3440 3471 3470 3441 3442 3473 
3472 3442 3443 3474 3473 3443 3444 3475 3474 
3444 3445 3476 3475 3445 3446 3477 3476 3446 
3447 3478 3477 3447 3448 3479 3478 3448 3449 
3480 3479 3449 3450 3481 3480 3450 3451 3482 
3481 3451 3452 3483 3482 3452 3453 3484 3483 
3453 3454 3485 3484 3454 3455 3486 3485 3455 
3456 3487 3486 3456 3457 3488 3487 3457 3458 
3489 3488 3458 3459 3490 3489 3459 3460 3491 
3490 3460 3461 3492 3491 3461 3462 3493 3492 
3462 3463 3494 3493 3463 3464 3495 3494 3464 
3465 3496 3495 3465 3466 3497 3496 3466 3467 
3498 3497 3467 3468 3499 3498 3468 3469 3500 
3499 3469 3470 3501 3500 3470 3471 3502 3501 
3472 3473 3504 3503 3473 3474 3505 3504 3474 
3475 3506 3505 3475 3476 3507 3506 3476 3477 
3508 3507 3477 3478 3509 3508 3478 3479 3510 
3509 3479 3480 3511 3510 3480 3481 3512 3511 
3481 3482 3513 3512 3482 3483 3514 3513 3483 
3484 3515 3514 3484 3485 3516 3515 3485 3486 
3517 3516 3486 3487 3518 3517 3487 3488 3519 
3518 3488 3489 3520 3519 3489 3490 3521 3520 
3490 3491 3522 3521 3491 3492 3523 3522 3492 
3493 3524 3523 3493 3494 3525 3524 3494 3495 
3526 3525 3495 3496 3527 3526 3496 3497 3528 
3527 3497 3498 3529 3528 3498 3499 3530 3529 
3499 3500 3531 3530 3500 3501 3532 3531 3501 
3502 3533 3532 3503 3504 3535 3534 3504 3505 
3536 3535 3505 3506 3537 3536 3506 3507 3538 
3537 3507 3508 3539 3538 3508 3509 3540 3539 
3509 3510 3541 3540 3510 3511 3542 3541 3511 
3512 3543 3542 3512 3513 3544 3543 3513 3514 
3545 3544 3514 3515 3546 3545 3515 3516 3547 
3546 3516 3517 3548 3547 3517 3518 3549 3548 
3518 3519 3550 3549 3519 3520 3551 3550 3520 
3521 3552 3551 3521 3522 3553 3552 3522 3523 
3554 3553 3523 3524 3555 3554 3524 3525 3556 
3555 3525 3526 3557 3556 3526 3527 3558 3557 
3527 3528 3559 3558 3528 3529 3560 3559 3529 
3530 3561 3560 3530 3531 3562 3561 3531 3532 
3563 3562 3532 3533 3564 3563 3534 3535 3566 
3565 3535 3536 3567 3566 3536 3537 3568 3567 
3537 3538 3569 3568 3538 3539 3570 3569 3539 
3540 3571 3570 3540 3541 3572 3571 3541 3542 
3573 3572 3542 3543 3574 3573 3543 3544 3575 
3574 3544 3545 3576 3575 3545 3546 3577 3576 
3546 3547 3578 3577 3547 3548 3579 3578 3548 
3549 3580 3579 3549 3550 3581 3580 3550 3551 
3582 3581 3551 3552 3583 3582 3552 3553 3584 
3583 3553 3554 3585 3584 3554 3555 3586 3585 
3555 3556 3587 3586 3556 3557 3588 3587 3557 
3558 3589 3588 3558 3559 3590 3589 3559 3560 
3591 3590 3560 3561 3592 3591 3561 3562 3593 
3592 3562 3563 3594 3593 3563 3564 3595 3594 
3565 3566 3597 3596 3566 3567 3598 3597 3567 
3568 3599 3598 3568 3569 3600 3599 3569 3570 
3601 3600 3570 3571 3602 3601 3571 3572 3603 
3602 3572 3573 3604 3603 3573 3574 3605 3604 
3574 3575 3606 3605 3575 3576 3607 3606 3576 
3577 3608 3607 3577 3578 3609 3608 3578 3579 
3610 3609 3579 3580 3611 3610 3580 3581 3612 
3611 3581 3582 3613 3612 3582 3583 3614 3613 
3583 3584 3615 3614 3584 3585 3616 3615 3585 
3586 3617 3616 3586 3587 3618 3617 3587 3588 
3619 3618 3588 3589 3620 3619 3589 3590 3621 
3620 3590 3591 3622 3621 3591 3592 3623 3622 
3592 3593 3624 3623 3593 3594 3625 3624 3594 
3595 3626 3625 3596 3597 3628 3627 3597 3598 
3629 3628 3598 3599 3630 3629 3599 3600 3631 
3630 3600 3601 3632 3631 3601 3602 3633 3632 
3602 3603 3634 3633 3603 3604 3635 3634 3604 
3605 3636 3635 3605 3606 3637 3636 3606 3607 
3638 3637 3607 3608 3639 3638 3608 3609 3640 
3639 3609 3610 3641 3640 3610 3611 3642 3641 
3611 3612 3643 3642 3612 3613 3644 3643 3613 
3614 3645 3644 3614 3615 3646 3645 3615 3616 
3647 3646 3616 3617 3648 3647 3617 3618 3649 
3648 3618 3619 3650 3649 3619 3620 3651 3650 
3620 3621 3652 3651 3621 3622 3653 3652 3622 
3623 3654 3653 3623 3624 3655 3654 3624 3625 
3656 3655 3625 3626 3657 3656 3627 3628 3659 
3658 3628 3629 3660 3659 3629 3630 3661 3660 
3630 3631 3662 3661 3631 3632 3663 3662 3632 
3633 3664 3663 3633 3634 3665 3664 3634 3635 
3666 3665 3635 3636 3667 3666 3636 3637 3668 
3667 3637 3638 3669 3668 3638 3639 3670 3669 
3639 3640 3671 3670 3640 3641 3672 3671 3641 
3642 3673 3672 3642 3643 3674 3673 3643 3644 
3675 3674 3644 3645 3676 3675 3645 3646 3677 
3676 3646 3647 3678 3677 3647 3648 3679 3678 
3648 3649 3680 3679 3649 3650 3681 3680 3650 
3651 3682 3681 3651 3652 3683 3682 3652 3653 
3684 3683 3653 3654 3685 3684 3654 3655 3686 
3685 3655 3656 3687 3686 3656 3657 3688 3687 
3658 3659 3690 3689 3659 3660 3691 3690 3660 
3661 3692 3691 3661 3662 3693 3692 3662 3663 
3694 3693 3663 3664 3695 3694 3664 3665 3696 
3695 3665 3666 3697 3696 3666 3667 3698 3697 
3667 3668 3699 3698 3668 3669 3700 3699 3669 
3670 3701 3700 3670 3671 3702 3701 3671 3672 
3703 3702 3672 3673 3704 3703 3673 3674 3705 
3704 3674 3675 3706 3705 3675 3676 3707 3706 
3676 3677 3708 3707 3677 3678 3709 3708 3678 
3679 3710 3709 3679 3680 3711 3710 3680 3681 
3712 3711 3681 3682 3713 3712 3682 3683 3714 
3713 3683 3684 3715 3714 3684 3685 3716 3715 
3685 3686 3717 3716 3686 3687 3718 3717 3687 
3688 3719 3718 3689 3690 3721 3720 3690 3691 
3722 3721 3691 3692 3723 3722 3692 3693 3724 
3723 3693 3694 3725 3724 3694 3695 3726 3725 
3695 3696 3727 3726 3696 3697 3728 3727 3697 
3698 3729 3728 3698 3699 3730 3729 3699 3700 
3731 3730 3700 3701 3732 3731 3701 3702 3733 
3732 3702 3703 3734 3733 3703 3704 3735 3734 
3704 3705 3736 3735 3705 3706 3737 3736 3706 
3707 3738 3737 3707 3708 3739 3738 3708 3709 
3740 3739 3709 3710 3741 3740 3710 3711 3742 
3741 3711 3712 3743 3742 3712 3713 3744 3743 
3713 3714 3745 3744 3714 3715 3746 3745 3715 
3716 3747 3746 3716 3717 3748 3747 3717 3718 
3749 3748 3718 3719 3750 3749 3720 3721 3752 
3751 3721 3722 3753 3752 3722 3723 3754 3753 
3723 3724 3755 3754 3724 3725 3756 3755 3725 
3726 3757 3756 3726 3727 3758 3757 3727 3728 
3759 3758 3728 3729 3760 3759 3729 3730 3761 
3760 3730 3731 3762 3761 3731 3732 3763 3762 
3732 3733 3764 3763 3733 3734 3765 3764 3734 
3735 3766 3765 3735 3736 3767 3766 3736 3737 
3768 3767 3737 3738 3769 3768 3738 3739 3770 
3769 3739 3740 3771 3770 3740 3741 3772 3771 
3741 3742 3773 3772 3742 3743 3774 3773 3743 
3744 3775 3774 3744 3745 3776 3775 3745 3746 
3777 3776 3746 3747 3778 3777 3747 3748 3779 
3778 3748 3749 3780 3779 3749 3750 3781 3780 
3751 3752 3783 3782 3752 3753 3784 3783 3753 
3754 3785 3784 3754 3755 3786 3785 3755 3756 
3787 3786 3756 3757 3788 3787 3757 3758 3789 
3788 3758 3759 3790 3789 3759 3760 3791 3790 
3760 3761 3792 3791 3761 3762 3793 3792 3762 
3763 3794 3793 3763 3764 3795 3794 3764 3765 
3796 3795 3765 3766 3797 3796 3766 3767 3798 
3797 3767 3768 3799 3798 3768 3769 3800 3799 
3769 3770 3801 3800 3770 3771 3802 3801 3771 
3772 3803 3802 3772 3773 3804 3803 3773 3774 
3805 3804 3774 3775 3806 3805 3775 3776 3807 
3806 3776 3777 3808 3807 3777 3778 3809 3808 
3778 3779 3810 3809 3779 3780 3811 3810 3780 
3781 3812 3811 3782 3783 3814 3813 3783 3784 
3815 3814 3784 3785 3816 3815 3785 3786 3817 
3816 3786 3787 3818 3817 3787 3788 3819 3818 
3788 3789 3820 3819 3789 3790 3821 3820 3790 
3791 3822 3821 3791 3792 3823 3822 3792 3793 
3824 3823 3793 3794 3825 3824 3794 3795 3826 
3825 3795 3796 3827 3826 3796 3797 3828 3827 
3797 3798 3829 3828 3798 3799 3830 3829 3799 
3800 3831 3830 3800 3801 3832 3831 3801 3802 
3833 3832 3802 3803 3834 3833 3803 3804 3835 
3834 3804 3805 3836 3835 3805 3806 3837 3836 
3806 3807 3838 3837 3807 3808 3839 3838 3808 
3809 3840 3839 3809 3810 3841 3840 3810 3811 
3842 3841 3811 3812 3843 3842 3813 3814 3845 
3844 3814 3815 3846 3845 3815 3816 3847 3846 
3816 3817 3848 3847 3817 3818 3849 3848 3818 
3819 3850 3849 3819 3820 3851 3850 3820 3821 
3852 3851 3821 3822 3853 3852 3822 3823 3854 
3853 3823 3824 3855 3854 3824 3825 3856 3855 
3825 3826 3857 3856 3826 3827 3858 3857 3827 
3828 3859 3858 3828 3829 3860 3859 3829 3830 
3861 3860 3830 3831 3862 3861 3831 3832 3863 
3862 3832 3833 3864 3863 3833 3834 3865 3864 
3834 3835 3866 3865 3835 3836 3867 3866 3836 
3837 3868 3867 3837 3838 3869 3868 3838 3839 
3870 3869 3839 3840 3871 3870 3840 3841 3872 
3871 3841 3842 3873 3872 3842 3843 3874 3873 
3844 3845 3876 3875 3845 3846 3877 3876 3846 
3847 3878 3877 3847 3848 3879 3878 3848 3849 
3880 3879 3849 3850 3881 3880 3850 3851 3882 
3881 3851 3852 3883 3882 3852 3853 3884 3883 
3853 3854 3885 3884 3854 3855 3886 3885 3855 
3856 3887 3886 3856 3857 3888 3887 3857 3858 
3889 3888 3858 3859 3890 3889 3859 3860 3891 
3890 3860 3861 3892 3891 3861 3862 3893 3892 
3862 3863 3894 3893 3863 3864 3895 3894 3864 
3865 3896 3895 3865 3866 3897 3896 3866 3867 
3898 3897 3867 3868 3899 3898 3868 3869 3900 
3899 3869 3870 3901 3900 3870 3871 3902 3901 
3871 3872 3903 3902 3872 3873 3904 3903 3873 
3874 3905 3904 3875 3876 3907 3906 3876 3877 
3908 3907 3877 3878 3909 3908 3878 3879 3910 
3909 3879 3880 3911 3910 3880 3881 3912 3911 
3881 3882 3913 3912 3882 3883 3914 3913 3883 
3884 3915 3914 3884 3885 3916 3915 3885 3886 
3917 3916 3886 3887 3918 3917 3887 3888 3919 
3918 3888 3889 3920 3919 3889 3890 3921 3920 
3890 3891 3922 3921 3891 3892 3923 3922 3892 
3893 3924 3923 3893 3894 3925 3924 3894 3895 
3926 3925 3895 3896 3927 3926 3896 3897 3928 
3927 3897 3898 3929 3928 3898 3899 3930 3929 
3899 3900 3931 3930 3900 3901 3932 3931 3901 
3902 3933 3932 3902 3903 3934 3933 3903 3904 
3935 3934 3904 3905 3936 3935 3906 3907 3938 
3937 3907 3908 3939 3938 3908 3909 3940 3939 
3909 3910 3941 3940 3910 3911 3942 3941 3911 
3912 3943 3942 3912 3913 3944 3943 3913 3914 
3945 3944 3914 3915 3946 3945 3915 3916 3947 
3946 3916 3917 3948 3947 3917 3918 3949 3948 
3918 3919 3950 3949 3919 3920 3951 3950 3920 
3921 3952 3951 3921 3922 3953 3952 3922 3923 
3954 3953 3923 3924 3955 3954 3924 3925 3956 
3955 3925 3926 3957 3956 3926 3927 3958 3957 
3927 3928 3959 3958 3928 3929 3960 3959 3929 
3930 3961 3960 3930 3931 3962 3961 3931 3932 
3963 3962 3932 3933 3964 3963 3933 3934 3965 
3964 3934 3935 3966 3965 3935 3936 3967 3966 
3937 3938 3969 3968 3938 3939 3970 3969 3939 
3940 3971 3970 3940 3941 3972 3971 3941 3942 
3973 3972 3942 3943 3974 3973 3943 3944 3975 
3974 3944 3945 3976 3975 3945 3946 3977 3976 
3946 3947 3978 3977 3947 3948 3979 3978 3948 
3949 3980 3979 3949 3950 3981 3980 3950 3951 
3982 3981 3951 3952 3983 3982 3952 3953 3984 
3983 3953 3954 3985 3984 3954 3955 3986 3985 
3955 3956 3987 3986 3956 3957 3988 3987 3957 
3958 3989 3988 3958 3959 3990 3989 3959 3960 
3991 3990 3960 3961 3992 3991 3961 3962 3993 
3992 3962 3963 3994 3993 3963 3964 3995 3994 
3964 3965 3996 3995 3965 3966 3997 3996 3966 
3967 3998 3997 3968 3969 4000 3999 3969 3970 
4001 4000 3970 3971 4002 4001 3971 3972 4003 
4002 3972 3973 4004 4003 3973 3974 4005 4004 
3974 3975 4006 4005 3975 3976 4007 4006 3976 
3977 4008 4007 3977 3978 4009 4008 3978 3979 
4010 4009 3979 3980 4011 4010 3980 3981 4012 
4011 3981 3982 4013 4012 3982 3983 4014 4013 
3983 3984 4015 4014 3984 3985 4016 4015 3985 
3986 4017 4016 3986 3987 4018 4017 3987 3988 
4019 4018 3988 3989 4020 4019 3989 3990 4021 
4020 3990 3991 4022 4021 3991 3992 4023 4022 
3992 3993 4024 4023 3993 3994 4025 4024 3994 
3995 4026 4025 3995 3996 4027 4026 3996 3997 
4028 4027 3997 3998 4029 4028 3999 4000 4031 
4030 4000 4001 4032 4031 4001 4002 4033 4032 
4002 4003 4034 4033 4003 4004 4035 4034 4004 
4005 4036 4035 4005 4006 4037 4036 4006 4007 
4038 4037 4007 4008 4039 4038 4008 4009 4040 
4039 4009 4010 4041 4040 4010 4011 4042 4041 
4011 4012 4043 4042 4012 4013 4044 4043 4013 
4014 4045 4044 4014 4015 4046 4045 4015 4016 
4047 4046 4016 4017 4048 4047 4017 4018 4049 
4048 4018 4019 4050 4049 4019 4020 4051 4050 
4020 4021 4052 4051 4021 4022 4053 4052 4022 
4023 4054 4053 4023 4024 4055 4054 4024 4025 
4056 4055 4025 4026 4057 4056 4026 4027 4058 
4057 4027 4028 4059 4058 4028 4029 4060 4059 
4030 4031 4062 4061 4031 4032 4063 4062 4032 
4033 4064 4063 4033 4034 4065 4064 4034 4035 
4066 4065 4035 4036 4067 4066 4036 4037 4068 
4067 4037 4038 4069 4068 4038 4039 4070 4069 
4039 4040 4071 4070 4040 4041 4072 4071 4041 
4042 4073 4072 4042 4043 4074 4073 4043 4044 
4075 4074 4044 4045 4076 4075 4045 4046 4077 
4076 4046 4047 4078 4077 4047 4048 4079 4078 
4048 4049 4080 4079 4049 4050 4081 4080 4050 
4051 4082 4081 4051 4052 4083 4082 4052 4053 
4084 4083 4053 4054 4085 4084 4054 4055 4086 
4085 4055 4056 4087 4086 4056 4057 4088 4087 
4057 4058 4089 4088 4058 4059 4090 4089 4059 
4060 4091 4090 4061 4062 4093 4092 4062 4063 
4094 4093 4063 4064 4095 4094 4064 4065 4096 
4095 4065 4066 4097 4096 4066 4067 4098 4097 
4067 4068 4099 4098 4068 4069 4100 4099 4069 
4070 4101 4100 4070 4071 4102 4101 4071 4072 
4103 4102 4072 4073 4104 4103 4073 4074 4105 
4104 4074 4075 4106 4105 4075 4076 4107 4106 
4076 4077 4108 4107 4077 4078 4109 4108 4078 
4079 4110 4109 4079 4080 4111 4110 4080 4081 
4112 4111 4081 4082 4113 4112 4082 4083 4114 
4113 4083 4084 4115 4114 4084 4085 4116 4115 
4085 4086 4117 4116 4086 4087 4118 4117 4087 
4088 4119 4118 4088 4089 4120 4119 4089 4090 
4121 4120 4090 4091 4122 4121 4092 4093 4124 
4123 4093 4094 4125 4124 4094 4095 4126 4125 
4095 4096 4127 4126 4096 4097 4128 4127 4097 
4098 4129 4128 4098 4099 4130 4129 4099 4100 
4131 4130 4100 4101 4132 4131 4101 4102 4133 
4132 4102 4103 4134 4133 4103 4104 4135 4134 
4104 4105 4136 4135 4105 4106 4137 4136 4106 
4107 4138 4137 4107 4108 4139 4138 4108 4109 
4140 4139 4109 4110 4141 4140 4110 4111 4142 
4141 4111 4112 4143 4142 4112 4113 4144 4143 
4113 4114 4145 4144 4114 4115 4146 4145 4115 
4116 4147 4146 4116 4117 4148 4147 4117 4118 
4149 4148 4118 4119 4150 4149 4119 4120 4151 
4150 4120 4121 4152 4151 4121 4122 4153 4152 
4123 4124 4155 4154 4124 4125 4156 4155 4125 
4126 4157 4156 4126 4127 4158 4157 4127 4128 
4159 4158 4128 4129 4160 4159 4129 4130 4161 
4160 4130 4131 4162 4161 4131 4132 4163 4162 
4132 4133 4164 4163 4133 4134 4165 4164 4134 
4135 4166 4165 4135 4136 4167 4166 4136 4137 
4168 4167 4137 4138 4169 4168 4138 4139 4170 
4169 4139 4140 4171 4170 4140 4141 4172 4171 
4141 4142 4173 4172 4142 4143 4174 4173 4143 
4144 4175 4174 4144 4145 4176 4175 4145 4146 
4177 4176 4146 4147 4178 4177 4147 4148 4179 
4178 4148 4149 4180 4179 4149 4150 4181 4180 
4150 4151 4182 4181 4151 4152 4183 4182 4152 
4153 4184 4183 4154 4155 4186 4185 4155 4156 
4187 4186 4156 4157 4188 4187 4157 4158 4189 
4188 4158 4159 4190 4189 4159 4160 4191 4190 
4160 4161 4192 4191 4161 4162 4193 4192 4162 
4163 4194 4193 4163 4164 4195 4194 4164 4165 
4196 4195 4165 4166 4197 4196 4166 4167 4198 
4197 4167 4168 4199 4198 4168 4169 4200 4199 
4169 4170 4201 4200 4170 4171 4202 4201 4171 
4172 4203 4202 4172 4173 4204 4203 4173 4174 
4205 4204 4174 4175 4206 4205 4175 4176 4207 
4206 4176 4177 4208 4207 4177 4178 4209 4208 
4178 4179 4210 4209 4179 4180 4211 4210 4180 
4181 4212 4211 4181 4182 4213 4212 4182 4183 
4214 4213 4183 4184 4215 4214 4185 4186 4217 
4216 4186 4187 4218 4217 4187 4188 4219 4218 
4188 4189 4220 4219 4189 4190 4221 4220 4190 
4191 4222 4221 4191 4192 4223 4222 4192 4193 
4224 4223 4193 4194 4225 4224 4194 4195 4226 
4225 4195 4196 4227 4226 4196 4197 4228 4227 
4197 4198 4229 4228 4198 4199 4230 4229 4199 
4200 4231 4230 4200 4201 4232 4231 4201 4202 
4233 4232 4202 4203 4234 4233 4203 4204 4235 
4234 4204 4205 4236 4235 4205 4206 4237 4236 
4206 4207 4238 4237 4207 4208 4239 4238 4208 
4209 4240 4239 4209 4210 4241 4240 4210 4211 
4242 4241 4211 4212 4243 4242 4212 4213 4244 
4243 4213 4214 4245 4244 4214 4215 4246 4245 
4216 4217 4248 4247 4217 4218 4249 4248 4218 
4219 4250 4249 4219 4220 4251 4250 4220 4221 
4252 4251 4221 4222 4253 4252 4222 4223 4254 
4253 4223 4224 4255 4254 4224 4225 4256 4255 
4225 4226 4257 4256 4226 4227 4258 4257 4227 
4228 4259 4258 4228 4229 4260 4259 4229 4230 
4261 4260 4230 4231 4262 4261 4231 4232 4263 
4262 4232 4233 4264 4263 4233 4234 4265 4264 
4234 4235 4266 4265 4235 4236 4267 4266 4236 
4237 4268 4267 4237 4238 4269 4268 4238 4239 
4270 4269 4239 4240 4271 4270 4240 4241 4272 
4271 4241 4242 4273 4272 4242 4243 4274 4273 
4243 4244 4275 4274 4244 4245 4276 4275 4245 
4246 4277 4276 4247 4248 4279 4278 4248 4249 
4280 4279 4249 4250 4281 4280 4250 4251 4282 
4281 4251 4252 4283 4282 4252 4253 4284 4283 
4253 4254 4285 4284 4254 4255 4286 4285 4255 
4256 4287 4286 4256 4257 4288 4287 4257 4258 
4289 4288 4258 4259 4290 4289 4259 4260 4291 
4290 4260 4261 4292 4291 4261 4262 4293 4292 
4262 4263 4294 4293 4263 4264 4295 4294 4264 
4265 4296 4295 4265 4266 4297 4296 4266 4267 
4298 4297 4267 4268 4299 4298 4268 4269 4300 
4299 4269 4270 4301 4300 4270 4271 4302 4301 
4271 4272 4303 4302 4272 4273 4304 4303 4273 
4274 4305 4304 4274 4275 4306 4305 4275 4276 
4307 4306 4276 4277 4308 4307 4278 4279 4310 
4309 4279 4280 4311 4310 4280 4281 4312 4311 
4281 4282 4313 4312 4282 4283 4314 4313 4283 
4284 4315 4314 4284 4285 4316 4315 4285 4286 
4317 4316 4286 4287 4318 4317 4287 4288 4319 
4318 4288 4289 4320 4319 4289 4290 4321 4320 
4290 4291 4322 4321 4291 4292 4323 4322 4292 
4293 4324 4323 4293 4294 4325 4324 4294 4295 
4326 4325 4295 4296 4327 4326 4296 4297 4328 
4327 4297 4298 4329 4328 4298 4299 4330 4329 
4299 4300 4331 4330 4300 4301 4332 4331 4301 
4302 4333 4332 4302 4303 4334 4333 4303 4304 
4335 4334 4304 4305 4336 4335 4305 4306 4337 
4336 4306 4307 4338 4337 4307 4308 4339 4338 
4309 4310 4341 4340 4310 4311 4342 4341 4311 
4312 4343 4342 4312 4313 4344 4343 4313 4314 
4345 4344 4314 4315 4346 4345 4315 4316 4347 
4346 4316 4317 4348 4347 4317 4318 4349 4348 
4318 4319 4350 4349 4319 4320 4351 4350 4320 
4321 4352 4351 4321 4322 4353 4352 4322 4323 
4354 4353 4323 4324 4355 4354 4324 4325 4356 
4355 4325 4326 4357 4356 4326 4327 4358 4357 
4327 4328 4359 4358 4328 4329 4360 4359 4329 
4330 4361 4360 4330 4331 4362 4361 4331 4332 
4363 4362 4332 4333 4364 4363 4333 4334 4365 
4364 4334 4335 4366 4365 4335 4336 4367 4366 
4336 4337 4368 4367 4337 4338 4369 4368 4338 
4339 4370 4369 4340 4341 4372 4371 4341 4342 
4373 4372 4342 4343 4374 4373 4343 4344 4375 
4374 4344 4345 4376 4375 4345 4346 4377 4376 
4346 4347 4378 4377 4347 4348 4379 4378 4348 
4349 4380 4379 4349 4350 4381 4380 4350 4351 
4382 4381 4351 4352 4383 4382 4352 4353 4384 
4383 4353 4354 4385 4384 4354 4355 4386 4385 
4355 4356 4387 4386 4356 4357 4388 4387 4357 
4358 4389 4388 4358 4359 4390 4389 4359 4360 
4391 4390 4360 4361 4392 4391 4361 4362 4393 
4392 4362 4363 4394 4393 4363 4364 4395 4394 
4364 4365 4396 4395 4365 4366 4397 4396 4366 
4367 4398 4397 4367 4368 4399 4398 4368 4369 
4400 4399 4369 4370 4401 4400 4371 4372 4403 
4402 4372 4373 4404 4403 4373 4374 4405 4404 
4374 4375 4406 4405 4375 4376 4407 4406 4376 
4377 4408 4407 4377 4378 4409 4408 4378 4379 
4410 4409 4379 4380 4411 4410 4380 4381 4412 
4411 4381 4382 4413 4412 4382 4383 4414 4413 
4383 4384 4415 4414 4384 4385 4416 4415 4385 
4386 4417 4416 4386 4387 4418 4417 4387 4388 
4419 4418 4388 4389 4420 4419 4389 4390 4421 
4420 4390 4391 4422 4421 4391 4392 4423 4422 
4392 4393 4424 4423 4393 4394 4425 4424 4394 
4395 4426 4425 4395 4396 4427 4426 4396 4397 
4428 4427 4397 4398 4429 4428 4398 4399 4430 
4429 4399 4400 4431 4430 4400 4401 4432 4431 
4402 4403 4434 4433 4403 4404 4435 4434 4404 
4405 4436 4435 4405 4406 4437 4436 4406 4407 
4438 4437 4407 4408 4439 4438 4408 4409 4440 
4439 4409 4410 4441 4440 4410 4411 4442 4441 
4411 4412 4443 4442 4412 4413 4444 4443 4413 
4414 4445 4444 4414 4415 4446 4445 4415 4416 
4447 4446 4416 4417 4448 4447 4417 4418 4449 
4448 4418 4419 4450 4449 4419 4420 4451 4450 
4420 4421 4452 4451 4421 4422 4453 4452 4422 
4423 4454 4453 4423 4424 4455 4454 4424 4425 
4456 4455 4425 4426 4457 4456 4426 4427 4458 
4457 4427 4428 4459 4458 4428 4429 4460 4459 
4429 4430 4461 4460 4430 4431 4462 4461 4431 
4432 4463 4462 4433 4434 4465 4464 4434 4435 
4466 4465 4435 4436 4467 4466 4436 4437 4468 
4467 4437 4438 4469 4468 4438 4439 4470 4469 
4439 4440 4471 4470 4440 4441 4472 4471 4441 
4442 4473 4472 4442 4443 4474 4473 4443 4444 
4475 4474 4444 4445 4476 4475 4445 4446 4477 
4476 4446 4447 4478 4477 4447 4448 4479 4478 
4448 4449 4480 4479 4449 4450 4481 4480 4450 
4451 4482 4481 4451 4452 4483 4482 4452 4453 
4484 4483 4453 4454 4485 4484 4454 4455 4486 
4485 4455 4456 4487 4486 4456 4457 4488 4487 
4457 4458 4489 4488 4458 4459 4490 4489 4459 
4460 4491 4490 4460 4461 4492 4491 4461 4462 
4493 4492 4462 4463 4494 4493 4464 4465 4496 
4495 4465 4466 4497 4496 4466 4467 4498 4497 
4467 4468 4499 4498 4468 4469 4500 4499 4469 
4470 4501 4500 4470 4471 4502 4501 4471 4472 
4503 4502 4472 4473 4504 4503 4473 4474 4505 
4504 4474 4475 4506 4505 4475 4476 4507 4506 
4476 4477 4508 4507 4477 4478 4509 4508 4478 
4479 4510 4509 4479 4480 4511 4510 4480 4481 
4512 4511 4481 4482 4513 4512 4482 4483 4514 
4513 4483 4484 4515 4514 4484 4485 4516 4515 
4485 4486 4517 4516 4486 4487 4518 4517 4487 
4488 4519 4518 4488 4489 4520 4519 4489 4490 
4521 4520 4490 4491 4522 4521 4491 4492 4523 
4522 4492 4493 4524 4523 4493 4494 4525 4524 
4495 4496 4527 4526 4496 4497 4528 4527 4497 
4498 4529 4528 4498 4499 4530 4529 4499 4500 
4531 4530 4500 4501 4532 4531 4501 4502 4533 
4532 4502 4503 4534 4533 4503 4504 4535 4534 
4504 4505 4536 4535 4505 4506 4537 4536 4506 
4507 4538 4537 4507 4508 4539 4538 4508 4509 
4540 4539 4509 4510 4541 4540 4510 4511 4542 
4541 4511 4512 4543 4542 4512 4513 4544 4543 
4513 4514 4545 4544 4514 4515 4546 4545 4515 
4516 4547 4546 4516 4517 4548 4547 4517 4518 
4549 4548 4518 4519 4550 4549 4519 4520 4551 
4550 4520 4521 4552 4551 4521 4522 4553 4552 
4522 4523 4554 4553 4523 4524 4555 4554 4524 
4525 4556 4555 4526 4527 4558 4557 4527 4528 
4559 4558 4528 4529 4560 4559 4529 4530 4561 
4560 4530 4531 4562 4561 4531 4532 4563 4562 
4532 4533 4564 4563 4533 4534 4565 4564 4534 
4535 4566 4565 4535 4536 4567 4566 4536 4537 
4568 4567 4537 4538 4569 4568 4538 4539 4570 
4569 4539 4540 4571 4570 4540 4541 4572 4571 
4541 4542 4573 4572 4542 4543 4574 4573 4543 
4544 4575 4574 4544 4545 4576 4575 4545 4546 
4577 4576 4546 4547 4578 4577 4547 4548 4579 
4578 4548 4549 4580 4579 4549 4550 4581 4580 
4550 4551 4582 4581 4551 4552 4583 4582 4552 
4553 4584 4583 4553 4554 4585 4584 4554 4555 
4586 4585 4555 4556 4587 4586 4557 4558 4589 
4588 4558 4559 4590 4589 4559 4560 4591 4590 
4560 4561 4592 4591 4561 4562 4593 4592 4562 
4563 4594 4593 4563 4564 4595 4594 4564 4565 
4596 4595 4565 4566 4597 4596 4566 4567 4598 
4597 4567 4568 4599 4598 4568 4569 4600 4599 
4569 4570 4601 4600 4570 4571 4602 4601 4571 
4572 4603 4602 4572 4573 4604 4603 4573 4574 
4605 4604 4574 4575 4606 4605 4575 4576 4607 
4606 4576 4577 4608 4607 4577 4578 4609 4608 
4578 4579 4610 4609 4579 4580 4611 4610 4580 
4581 4612 4611 4581 4582 4613 4612 4582 4583 
4614 4613 4583 4584 4615 4614 4584 4585 4616 
4615 4585 4586 4617 4616 4586 4587 4618 4617 
4588 4589 4620 4619 4589 4590 4621 4620 4590 
4591 4622 4621 4591 4592 4623 4622 4592 4593 
4624 4623 4593 4594 4625 4624 4594 4595 4626 
4625 4595 4596 4627 4626 4596 4597 4628 4627 
4597 4598 4629 4628 4598 4599 4630 4629 4599 
4600 4631 4630 4600 4601 4632 4631 4601 4602 
4633 4632 4602 4603 4634 4633 4603 4604 4635 
4634 4604 4605 4636 4635 4605 4606 4637 4636 
4606 4607 4638 4637 4607 4608 4639 4638 4608 
4609 4640 4639 4609 4610 4641 4640 4610 4611 
4642 4641 4611 4612 4643 4642 4612 4613 4644 
4643 4613 4614 4645 4644 4614 4615 4646 4645 
4615 4616 4647 4646 4616 4617 4648 4647 4617 
4618 4649 4648 4619 4620 4651 4650 4620 4621 
4652 4651 4621 4622 4653 4652 4622 4623 4654 
4653 4623 4624 4655 4654 4624 4625 4656 4655 
4625 4626 4657 4656 4626 4627 4658 4657 4627 
4628 4659 4658 4628 4629 4660 4659 4629 4630 
4661 4660 4630 4631 4662 4661 4631 4632 4663 
4662 4632 4633 4664 4663 4633 4634 4665 4664 
4634 4635 4666 4665 4635 4636 4667 4666 4636 
4637 4668 4667 4637 4638 4669 4668 4638 4639 
4670 4669 4639 4640 4671 4670 4640 4641 4672 
4671 4641 4642 4673 4672 4642 4643 4674 4673 
4643 4644 4675 4674 4644 4645 4676 4675 4645 
4646 4677 4676 4646 4647 4678 4677 4647 4648 
4679 4678 4648 4649 4680 4679 4650 4651 4682 
4681 4651 4652 4683 4682 4652 4653 4684 4683 
4653 4654 4685 4684 4654 4655 4686 4685 4655 
4656 4687 4686 4656 4657 4688 4687 4657 4658 
4689 4688 4658 4659 4690 4689 4659 4660 4691 
4690 4660 4661 4692 4691 4661 4662 4693 4692 
4662 4663 4694 4693 4663 4664 4695 4694 4664 
4665 4696 4695 4665 4666 4697 4696 4666 4667 
4698 4697 4667 4668 4699 4698 4668 4669 4700 
4699 4669 4670 4701 4700 4670 4671 4702 4701 
4671 4672 4703 4702 4672 4673 4704 4703 4673 
4674 4705 4704 4674 4675 4706 4705 4675 4676 
4707 4706 4676 4677 4708 4707 4677 4678 4709 
4708 4678 4679 4710 4709 4679 4680 4711 4710 
4681 4682 4713 4712 4682 4683 4714 4713 4683 
4684 4715 4714 4684 4685 4716 4715 4685 4686 
4717 4716 4686 4687 4718 4717 4687 4688 4719 
4718 4688 4689 4720 4719 4689 4690 4721 4720 
4690 4691 4722 4721 4691 4692 4723 4722 4692 
4693 4724 4723 4693 4694 4725 4724 4694 4695 
4726 4725 4695 4696 4727 4726 4696 4697 4728 
4727 4697 4698 4729 4728 4698 4699 4730 4729 
4699 4700 4731 4730 4700 4701 4732 4731 4701 
4702 4733 4732 4702 4703 4734 4733 4703 4704 
4735 4734 4704 4705 4736 4735 4705 4706 4737 
4736 4706 4707 4738 4737 4707 4708 4739 4738 
4708 4709 4740 4739 4709 4710 4741 4740 4710 
4711 4742 4741 4712 4713 4744 4743 4713 4714 
4745 4744 4714 4715 4746 4745 4715 4716 4747 
4746 4716 4717 4748 4747 4717 4718 4749 4748 
4718 4719 4750 4749 4719 4720 4751 4750 4720 
4721 4752 4751 4721 4722 4753 4752 4722 4723 
4754 4753 4723 4724 4755 4754 4724 4725 4756 
4755 4725 4726 4757 4756 4726 4727 4758 4757 
4727 4728 4759 4758 4728 4729 4760 4759 4729 
4730 4761 4760 4730 4731 4762 4761 4731 4732 
4763 4762 4732 4733 4764 4763 4733 4734 4765 
4764 4734 4735 4766 4765 4735 4736 4767 4766 
4736 4737 4768 4767 4737 4738 4769 4768 4738 
4739 4770 4769 4739 4740 4771 4770 4740 4741 
4772 4771 4741 4742 4773 4772 4743 4744 4775 
4774 4744 4745 4776 4775 4745 4746 4777 4776 
4746 4747 4778 4777 4747 4748 4779 4778 4748 
4749 4780 4779 4749 4750 4781 4780 4750 4751 
4782 4781 4751 4752 4783 4782 4752 4753 4784 
4783 4753 4754 4785 4784 4754 4755 4786 4785 
4755 4756 4787 4786 4756 4757 4788 4787 4757 
4758 4789 4788 4758 4759 4790 4789 4759 4760 
4791 4790 4760 4761 4792 4791 4761 4762 4793 
4792 4762 4763 4794 4793 4763 4764 4795 4794 
4764 4765 4796 4795 4765 4766 4797 4796 4766 
4767 4798 4797 4767 4768 4799 4798 4768 4769 
4800 4799 4769 4770 4801 4800 4770 4771 4802 
4801 4771 4772 4803 4802 4772 4773 4804 4803 
4774 4775 4806 4805 4775 4776 4807 4806 4776 
4777 4808 4807 4777 4778 4809 4808 4778 4779 
4810 4809 4779 4780 4811 4810 4780 4781 4812 
4811 4781 4782 4813 4812 4782 4783 4814 4813 
4783 4784 4815 4814 4784 4785 4816 4815 4785 
4786 4817 4816 4786 4787 4818 4817 4787 4788 
4819 4818 4788 4789 4820 4819 4789 4790 4821 
4820 4790 4791 4822 4821 4791 4792 4823 4822 
4792 4793 4824 4823 4793 4794 4825 4824 4794 
4795 4826 4825 4795 4796 4827 4826 4796 4797 
4828 4827 4797 4798 4829 4828 4798 4799 4830 
4829 4799 4800 4831 4830 4800 4801 4832 4831 
4801 4802 4833 4832 4802 4803 4834 4833 4803 
4804 4835 4834 4805 4806 4837 4836 4806 4807 
4838 4837 4807 4808 4839 4838 4808 4809 4840 
4839 4809 4810 4841 4840 4810 4811 4842 4841 
4811 4812 4843 4842 4812 4813 4844 4843 4813 
4814 4845 4844 4814 4815 4846 4845 4815 4816 
4847 4846 4816 4817 4848 4847 4817 4818 4849 
4848 4818 4819 4850 4849 4819 4820 4851 4850 
4820 4821 4852 4851 4821 4822 4853 4852 4822 
4823 4854 4853 4823 4824 4855 4854 4824 4825 
4856 4855 4825 4826 4857 4856 4826 4827 4858 
4857 4827 4828 4859 4858 4828 4829 4860 4859 
4829 4830 4861 4860 4830 4831 4862 4861 4831 
4832 4863 4862 4832 4833 4864 4863 4833 4834 
4865 4864 4834 4835 4866 4865 4836 4837 4868 
4867 4837 4838 4869 4868 4838 4839 4870 4869 
4839 4840 4871 4870 4840 4841 4872 4871 4841 
4842 4873 4872 4842 4843 4874 4873 4843 4844 
4875 4874 4844 4845 4876 4875 4845 4846 4877 
4876 4846 4847 4878 4877 4847 4848 4879 4878 
4848 4849 4880 4879 4849 4850 4881 4880 4850 
4851 4882 4881 4851 4852 4883 4882 4852 4853 
4884 4883 4853 4854 4885 4884 4854 4855 4886 
4885 4855 4856 4887 4886 4856 4857 4888 4887 
4857 4858 4889 4888 4858 4859 4890 4889 4859 
4860 4891 4890 4860 4861 4892 4891 4861 4862 
4893 4892 4862 4863 4894 4893 4863 4864 4895 
4894 4864 4865 4896 4895 4865 4866 4897 4896 
4867 4868 4899 4898 4868 4869 4900 4899 4869 
4870 4901 4900 4870 4871 4902 4901 4871 4872 
4903 4902 4872 4873 4904 4903 4873 4874 4905 
4904 4874 4875 4906 4905 4875 4876 4907 4906 
4876 4877 4908 4907 4877 4878 4909 4908 4878 
4879 4910 4909 4879 4880 4911 4910 4880 4881 
4912 4911 4881 4882 4913 4912 4882 4883 4914 
4913 4883 4884 4915 4914 4884 4885 4916 4915 
4885 4886 4917 4916 4886 4887 4918 4917 4887 
4888 4919 4918 4888 4889 4920 4919 4889 4890 
4921 4920 4890 4891 4922 4921 4891 4892 4923 
4922 4892 4893 4924 4923 4893 4894 4925 4924 
4894 4895 4926 4925 4895 4896 4927 4926 4896 
4897 4928 4927 4898 4899 4930 4929 4899 4900 
4931 4930 4900 4901 4932 4931 4901 4902 4933 
4932 4902 4903 4934 4933 4903 4904 4935 4934 
4904 4905 4936 4935 4905 4906 4937 4936 4906 
4907 4938 4937 4907 4908 4939 4938 4908 4909 
4940 4939 4909 4910 4941 4940 4910 4911 4942 
4941 4911 4912 4943 4942 4912 4913 4944 4943 
4913 4914 4945 4944 4914 4915 4946 4945 4915 
4916 4947 4946 4916 4917 4948 4947 4917 4918 
4949 4948 4918 4919 4950 4949 4919 4920 4951 
4950 4920 4921 4952 4951 4921 4922 4953 4952 
4922 4923 4954 4953 4923 4924 4955 4954 4924 
4925 4956 4955 4925 4926 4957 4956 4926 4927 
4958 4957 4927 4928 4959 4958 4929 4930 4961 
4960 4930 4931 4962 4961 4931 4932 4963 4962 
4932 4933 4964 4963 4933 4934 4965 4964 4934 
4935 4966 4965 4935 4936 4967 4966 4936 4937 
4968 4967 4937 4938 4969 4968 4938 4939 4970 
4969 4939 4940 4971 4970 4940 4941 4972 4971 
4941 4942 4973 4972 4942 4943 4974 4973 4943 
4944 4975 4974 4944 4945 4976 4975 4945 4946 
4977 4976 4946 4947 4978 4977 4947 4948 4979 
4978 4948 4949 4980 4979 4949 4950 4981 4980 
4950 4951 4982 4981 4951 4952 4983 4982 4952 
4953 4984 4983 4953 4954 4985 4984 4954 4955 
4986 4985 4955 4956 4987 4986 4956 4957 4988 
4987 4957 4958 4989 4988 4958 4959 4990 4989 
4960 4961 4992 4991 4961 4962 4993 4992 4962 
4963 4994 4993 4963 4964 4995 4994 4964 4965 
4996 4995 4965 4966 4997 4996 4966 4967 4998 
4997 4967 4968 4999 4998 4968 4969 5000 4999 
4969 4970 5001 5000 4970 4971 5002 5001 4971 
4972 5003 5002 4972 4973 5004 5003 4973 4974 
5005 5004 4974 4975 5006 5005 4975 4976 5007 
5006 4976 4977 5008 5007 4977 4978 5009 5008 
4978 4979 5010 5009 4979 4980 5011 5010 4980 
4981 5012 5011 4981 4982 5013 5012 4982 4983 
5014 5013 4983 4984 5015 5014 4984 4985 5016 
5015 4985 4986 5017 5016 4986 4987 5018 5017 
4987 4988 5019 5018 4988 4989 5020 5019 4989 
4990 5021 5020 4991 4992 5023 5022 4992 4993 
5024 5023 4993 4994 5025 5024 4994 4995 5026 
5025 4995 4996 5027 5026 4996 4997 5028 5027 
4997 4998 5029 5028 4998 4999 5030 5029 4999 
5000 5031 5030 5000 5001 5032 5031 5001 5002 
5033 5032 5002 5003 5034 5033 5003 5004 5035 
5034 5004 5005 5036 5035 5005 5006 5037 5036 
5006 5007 5038 5037 5007 5008 5039 5038 5008 
5009 5040 5039 5009 5010 5041 5040 5010 5011 
5042 5041 5011 5012 5043 5042 5012 5013 5044 
5043 5013 5014 5045 5044 5014 5015 5046 5045 
5015 5016 5047 5046 5016 5017 5048 5047 5017 
5018 5049 5048 5018 5019 5050 5049 5019 5020 
5051 5050 5020 5021 5052 5051 5022 5023 5054 
5053 5023 5024 5055 5054 5024 5025 5056 5055 
5025 5026 5057 5056 5026 5027 5058 5057 5027 
5028 5059 5058 5028 5029 5060 5059 5029 5030 
5061 5060 5030 5031 5062 5061 5031 5032 5063 
5062 5032 5033 5064 5063 5033 5034 5065 5064 
5034 5035 5066 5065 5035 5036 5067 5066 5036 
5037 5068 5067 5037 5038 5069 5068 5038 5039 
5070 5069 5039 5040 5071 5070 5040 5041 5072 
5071 5041 5042 5073 5072 5042 5043 5074 5073 
5043 5044 5075 5074 5044 5045 5076 5075 5045 
5046 5077 5076 5046 5047 5078 5077 5047 5048 
5079 5078 5048 5049 5080 5079 5049 5050 5081 
5080 5050 5051 5082 5081 5051 5052 5083 5082 
5053 5054 5085 5084 5054 5055 5086 5085 5055 
5056 5087 5086 5056 5057 5088 5087 5057 5058 
5089 5088 5058 5059 5090 5089 5059 5060 5091 
5090 5060 5061 5092 5091 5061 5062 5093 5092 
5062 5063 5094 5093 5063 5064 5095 5094 5064 
5065 5096 5095 5065 5066 5097 5096 5066 5067 
5098 5097 5067 5068 5099 5098 5068 5069 5100 
5099 5069 5070 5101 5100 5070 5071 5102 5101 
5071 5072 5103 5102 5072 5073 5104 5103 5073 
5074 5105 5104 5074 5075 5106 5105 5075 5076 
5107 5106 5076 5077 5108 5107 5077 5078 5109 
5108 5078 5079 5110 5109 5079 5080 5111 5110 
5080 5081 5112 5111 5081 5082 5113 5112 5082 
5083 5114 5113 5084 5085 5116 5115 5085 5086 
5117 5116 5086 5087 5118 5117 5087 5088 5119 
5118 5088 5089 5120 5119 5089 5090 5121 5120 
5090 5091 5122 5121 5091 5092 5123 5122 5092 
5093 5124 5123 5093 5094 5125 5124 5094 5095 
5126 5125 5095 5096 5127 5126 5096 5097 5128 
5127 5097 5098 5129 5128 5098 5099 5130 5129 
5099 5100 5131 5130 5100 5101 5132 5131 5101 
5102 5133 5132 5102 5103 5134 5133 5103 5104 
5135 5134 5104 5105 5136 5135 5105 5106 5137 
5136 5106 5107 5138 5137 5107 5108 5139 5138 
5108 5109 5140 5139 5109 5110 5141 5140 5110 
5111 5142 5141 5111 5112 5143 5142 5112 5113 
5144 5143 5113 5114 5145 5144 5115 5116 5147 
5146 5116 5117 5148 5147 5117 5118 5149 5148 
5118 5119 5150 5149 5119 5120 5151 5150 5120 
5121 5152 5151 5121 5122 5153 5152 5122 5123 
5154 5153 5123 5124 5155 5154 5124 5125 5156 
5155 5125 5126 5157 5156 5126 5127 5158 5157 
5127 5128 5159 5158 5128 5129 5160 5159 5129 
5130 5161 5160 5130 5131 5162 5161 5131 5132 
5163 5162 5132 5133 5164 5163 5133 5134 5165 
5164 5134 5135 5166 5165 5135 5136 5167 5166 
5136 5137 5168 5167 5137 5138 5169 5168 5138 
5139 5170 5169 5139 5140 5171 5170 5140 5141 
5172 5171 5141 5142 5173 5172 5142 5143 5174 
5173 5143 5144 5175 5174 5144 5145 5176 5175 
5146 5147 5178 5177 5147 5148 5179 5178 5148 
5149 5180 5179 5149 5150 5181 5180 5150 5151 
5182 5181 5151 5152 5183 5182 5152 5153 5184 
5183 5153 5154 5185 5184 5154 5155 5186 5185 
5155 5156 5187 5186 5156 5157 5188 5187 5157 
5158 5189 5188 5158 5159 5190 5189 5159 5160 
5191 5190 5160 5161 5192 5191 5161 5162 5193 
5192 5162 5163 5194 5193 5163 5164 5195 5194 
5164 5165 5196 5195 5165 5166 5197 5196 5166 
5167 5198 5197 5167 5168 5199 5198 5168 5169 
5200 5199 5169 5170 5201 5200 5170 5171 5202 
5201 5171 5172 5203 5202 5172 5173 5204 5203 
5173 5174 5205 5204 5174 5175 5206 5205 5175 
5176 5207 5206 5177 5178 5209 5208 5178 5179 
5210 5209 5179 5180 5211 5210 5180 5181 5212 
5211 5181 5182 5213 5212 5182 5183 5214 5213 
5183 5184 5215 5214 5184 5185 5216 5215 5185 
5186 5217 5216 5186 5187 5218 5217 5187 5188 
5219 5218 5188 5189 5220 5219 5189 5190 5221 
5220 5190 5191 5222 5221 5191 5192 5223 5222 
5192 5193 5224 5223 5193 5194 5225 5224 5194 
5195 5226 5225 5195 5196 5227 5226 5196 5197 
5228 5227 5197 5198 5229 5228 5198 5199 5230 
5229 5199 5200 5231 5230 5200 5201 5232 5231 
5201 5202 5233 5232 5202 5203 5234 5233 5203 
5204 5235 5234 5204 5205 5236 5235 5205 5206 
5237 5236 5206 5207 5238 5237 5208 5209 5240 
5239 5209 5210 5241 5240 5210 5211 5242 5241 
5211 5212 5243 5242 5212 5213 5244 5243 5213 
5214 5245 5244 5214 5215 5246 5245 5215 5216 
5247 5246 5216 5217 5248 5247 5217 5218 5249 
5248 5218 5219 5250 5249 5219 5220 5251 5250 
5220 5221 5252 5251 5221 5222 5253 5252 5222 
5223 5254 5253 5223 5224 5255 5254 5224 5225 
5256 5255 5225 5226 5257 5256 5226 5227 5258 
5257 5227 5228 5259 5258 5228 5229 5260 5259 
5229 5230 5261 5260 5230 5231 5262 5261 5231 
5232 5263 5262 5232 5233 5264 5263 5233 5234 
5265 5264 5234 5235 5266 5265 5235 5236 5267 
5266 5236 5237 5268 5267 5237 5238 5269 5268 
5239 5240 5271 5270 5240 5241 5272 5271 5241 
5242 5273 5272 5242 5243 5274 5273 5243 5244 
5275 5274 5244 5245 5276 5275 5245 5246 5277 
5276 5246 5247 5278 5277 5247 5248 5279 5278 
5248 5249 5280 5279 5249 5250 5281 5280 5250 
5251 5282 5281 5251 5252 5283 5282 5252 5253 
5284 5283 5253 5254 5285 5284 5254 5255 5286 
5285 5255 5256 5287 5286 5256 5257 5288 5287 
5257 5258 5289 5288 5258 5259 5290 5289 5259 
5260 5291 5290 5260 5261 5292 5291 5261 5262 
5293 5292 5262 5263 5294 5293 5263 5264 5295 
5294 5264 5265 5296 5295 5265 5266 5297 5296 
5266 5267 5298 5297 5267 5268 5299 5298 5268 
5269 5300 5299 5270 5271 5302 5301 5271 5272 
5303 5302 5272 5273 5304 5303 5273 5274 5305 
5304 5274 5275 5306 5305 5275 5276 5307 5306 
5276 5277 5308 5307 5277 5278 5309 5308 5278 
5279 5310 5309 5279 5280 5311 5310 5280 5281 
5312 5311 5281 5282 5313 5312 5282 5283 5314 
5313 5283 5284 5315 5314 5284 5285 5316 5315 
5285 5286 5317 5316 5286 5287 5318 5317 5287 
5288 5319 5318 5288 5289 5320 5319 5289 5290 
5321 5320 5290 5291 5322 5321 5291 5292 5323 
5322 5292 5293 5324 5323 5293 5294 5325 5324 
5294 5295 5326 5325 5295 5296 5327 5326 5296 
5297 5328 5327 5297 5298 5329 5328 5298 5299 
5330 5329 5299 5300 5331 5330 5301 5302 5333 
5332 5302 5303 5334 5333 5303 5304 5335 5334 
5304 5305 5336 5335 5305 5306 5337 5336 5306 
5307 5338 5337 5307 5308 5339 5338 5308 5309 
5340 5339 5309 5310 5341 5340 5310 5311 5342 
5341 5311 5312 5343 5342 5312 5313 5344 5343 
5313 5314 5345 5344 5314 5315 5346 5345 5315 
5316 5347 5346 5316 5317 5348 5347 5317 5318 
5349 5348 5318 5319 5350 5349 5319 5320 5351 
5350 5320 5321 5352 5351 5321 5322 5353 5352 
5322 5323 5354 5353 5323 5324 5355 5354 5324 
5325 5356 5355 5325 5326 5357 5356 5326 5327 
5358 5357 5327 5328 5359 5358 5328 5329 5360 
5359 5329 5330 5361 5360 5330 5331 5362 5361 
5332 5333 5364 5363 5333 5334 5365 5364 5334 
5335 5366 5365 5335 5336 5367 5366 5336 5337 
5368 5367 5337 5338 5369 5368 5338 5339 5370 
5369 5339 5340 5371 5370 5340 5341 5372 5371 
5341 5342 5373 5372 5342 5343 5374 5373 5343 
5344 5375 5374 5344 5345 5376 5375 5345 5346 
5377 5376 5346 5347 5378 5377 5347 5348 5379 
5378 5348 5349 5380 5379 5349 5350 5381 5380 
5350 5351 5382 5381 5351 5352 5383 5382 5352 
5353 5384 5383 5353 5354 5385 5384 5354 5355 
5386 5385 5355 5356 5387 5386 5356 5357 5388 
5387 5357 5358 5389 5388 5358 5359 5390 5389 
5359 5360 5391 5390 5360 5361 5392 5391 5361 
5362 5393 5392 5363 5364 5395 5394 5364 5365 
5396 5395 5365 5366 5397 5396 5366 5367 5398 
5397 5367 5368 5399 5398 5368 5369 5400 5399 
5369 5370 5401 5400 5370 5371 5402 5401 5371 
5372 5403 5402 5372 5373 5404 5403 5373 5374 
5405 5404 5374 5375 5406 5405 5375 5376 5407 
5406 5376 5377 5408 5407 5377 5378 5409 5408 
5378 5379 5410 5409 5379 5380 5411 5410 5380 
5381 5412 5411 5381 5382 5413 5412 5382 5383 
5414 5413 5383 5384 5415 5414 5384 5385 5416 
5415 5385 5386 5417 5416 5386 5387 5418 5417 
5387 5388 5419 5418 5388 5389 5420 5419 5389 
5390 5421 5420 5390 5391 5422 5421 5391 5392 
5423 5422 5392 5393 5424 5423 5394 5395 5426 
5425 5395 5396 5427 5426 5396 5397 5428 5427 
5397 5398 5429 5428 5398 5399 5430 5429 5399 
5400 5431 5430 5400 5401 5432 5431 5401 5402 
5433 5432 5402 5403 5434 5433 5403 5404 5435 
5434 5404 5405 5436 5435 5405 5406 5437 5436 
5406 5407 5438 5437 5407 5408 5439 5438 5408 
5409 5440 5439 5409 5410 5441 5440 5410 5411 
5442 5441 5411 5412 5443 5442 5412 5413 5444 
5443 5413 5414 5445 5444 5414 5415 5446 5445 
5415 5416 5447 5446 5416 5417 5448 5447 5417 
5418 5449 5448 5418 5419 5450 5449 5419 5420 
5451 5450 5420 5421 5452 5451 5421 5422 5453 
5452 5422 5423 5454 5453 5423 5424 5455 5454 
5425 5426 5457 5456 5426 5427 5458 5457 5427 
5428 5459 5458 5428 5429 5460 5459 5429 5430 
5461 5460 5430 5431 5462 5461 5431 5432 5463 
5462 5432 5433 5464 5463 5433 5434 5465 5464 
5434 5435 5466 5465 5435 5436 5467 5466 5436 
5437 5468 5467 5437 5438 5469 5468 5438 5439 
5470 5469 5439 5440 5471 5470 5440 5441 5472 
5471 5441 5442 5473 5472 5442 5443 5474 5473 
5443 5444 5475 5474 5444 5445 5476 5475 5445 
5446 5477 5476 5446 5447 5478 5477 5447 5448 
5479 5478 5448 5449 5480 5479 5449 5450 5481 
5480 5450 5451 5482 5481 5451 5452 5483 5482 
5452 5453 5484 5483 5453 5454 5485 5484 5454 
5455 5486 5485 5456 5457 5488 5487 5457 5458 
5489 5488 5458 5459 5490 5489 5459 5460 5491 
5490 5460 5461 5492 5491 5461 5462 5493 5492 
5462 5463 5494 5493 5463 5464 5495 5494 5464 
5465 5496 5495 5465 5466 5497 5496 5466 5467 
5498 5497 5467 5468 5499 5498 5468 5469 5500 
5499 5469 5470 5501 5500 5470 5471 5502 5501 
5471 5472 5503 5502 5472 5473 5504 5503 5473 
5474 5505 5504 5474 5475 5506 5505 5475 5476 
5507 5506 5476 5477 5508 5507 5477 5478 5509 
5508 5478 5479 5510 5509 5479 5480 5511 5510 
5480 5481 5512 5511 5481 5482 5513 5512 5482 
5483 5514 5513 5483 5484 5515 5514 5484 5485 
5516 5515 5485 5486 5517 5516 5487 5488 5519 
5518 5488 5489 5520 5519 5489 5490 5521 5520 
5490 5491 5522 5521 5491 5492 5523 5522 5492 
5493 5524 5523 5493 5494 5525 5524 5494 5495 
5526 5525 5495 5496 5527 5526 5496 5497 5528 
5527 5497 5498 5529 5528 5498 5499 5530 5529 
5499 5500 5531 5530 5500 5501 5532 5531 5501 
5502 5533 5532 5502 5503 5534 5533 5503 5504 
5535 5534 5504 5505 5536 5535 5505 5506 5537 
5536 5506 5507 5538 5537 5507 5508 5539 5538 
5508 5509 5540 5539 5509 5510 5541 5540 5510 
5511 5542 5541 5511 5512 5543 5542 5512 5513 
5544 5543 5513 5514 5545 5544 5514 5515 5546 
5545 5515 5516 5547 5546 5516 5517 5548 5547 
5518 5519 5550 5549 5519 5520 5551 5550 5520 
5521 5552 5551 5521 5522 5553 5552 5522 5523 
5554 5553 5523 5524 5555 5554 5524 5525 5556 
5555 5525 5526 5557 5556 5526 5527 5558 5557 
5527 5528 5559 5558 5528 5529 5560 5559 5529 
5530 5561 5560 5530 5531 5562 5561 5531 5532 
5563 5562 5532 5533 5564 5563 5533 5534 5565 
5564 5534 5535 5566 5565 5535 5536 5567 5566 
5536 5537 5568 5567 5537 5538 5569 5568 5538 
5539 5570 5569 5539 5540 5571 5570 5540 5541 
5572 5571 5541 5542 5573 5572 5542 5543 5574 
5573 5543 5544 5575 5574 5544 5545 5576 5575 
5545 5546 5577 5576 5546 5547 5578 5577 5547 
5548 5579 5578 5549 5550 5581 5580 5550 5551 
5582 5581 5551 5552 5583 5582 5552 5553 5584 
5583 5553 5554 5585 5584 5554 5555 5586 5585 
5555 5556 5587 5586 5556 5557 5588 5587 5557 
5558 5589 5588 5558 5559 5590 5589 5559 5560 
5591 5590 5560 5561 5592 5591 5561 5562 5593 
5592 5562 5563 5594 5593 5563 5564 5595 5594 
5564 5565 5596 5595 5565 5566 5597 5596 5566 
5567 5598 5597 5567 5568 5599 5598 5568 5569 
5600 5599 5569 5570 5601 5600 5570 5571 5602 
5601 5571 5572 5603 5602 5572 5573 5604 5603 
5573 5574 5605 5604 5574 5575 5606 5605 5575 
5576 5607 5606 5576 5577 5608 5607 5577 5578 
5609 5608 5578 5579 5610 5609 5580 5581 5612 
5611 5581 5582 5613 5612 5582 5583 5614 5613 
5583 5584 5615 5614 5584 5585 5616 5615 5585 
5586 5617 5616 5586 5587 5618 5617 5587 5588 
5619 5618 5588 5589 5620 5619 5589 5590 5621 
5620 5590 5591 5622 5621 5591 5592 5623 5622 
5592 5593 5624 5623 5593 5594 5625 5624 5594 
5595 5626 5625 5595 5596 5627 5626 5596 5597 
5628 5627 5597 5598 5629 5628 5598 5599 5630 
5629 5599 5600 5631 5630 5600 5601 5632 5631 
5601 5602 5633 5632 5602 5603 5634 5633 5603 
5604 5635 5634 5604 5605 5636 5635 5605 5606 
5637 5636 5606 5607 5638 5637 5607 5608 5639 
5638 5608 5609 5640 5639 5609 5610 5641 5640 
5611 5612 5643 5642 5612 5613 5644 5643 5613 
5614 5645 5644 5614 5615 5646 5645 5615 5616 
5647 5646 5616 5617 5648 5647 5617 5618 5649 
5648 5618 5619 5650 5649 5619 5620 5651 5650 
5620 5621 5652 5651 5621 5622 5653 5652 5622 
5623 5654 5653 5623 5624 5655 5654 5624 5625 
5656 5655 5625 5626 5657 5656 5626 5627 5658 
5657 5627 5628 5659 5658 5628 5629 5660 5659 
5629 5630 5661 5660 5630 5631 5662 5661 5631 
5632 5663 5662 5632 5633 5664 5663 5633 5634 
5665 5664 5634 5635 5666 5665 5635 5636 5667 
5666 5636 5637 5668 5667 5637 5638 5669 5668 
5638 5639 5670 5669 5639 5640 5671 5670 5640 
5641 5672 5671 5642 5643 5674 5673 5643 5644 
5675 5674 5644 5645 5676 5675 5645 5646 5677 
5676 5646 5647 5678 5677 5647 5648 5679 5678 
5648 5649 5680 5679 5649 5650 5681 5680 5650 
5651 5682 5681 5651 5652 5683 5682 5652 5653 
5684 5683 5653 5654 5685 5684 5654 5655 5686 
5685 5655 5656 5687 5686 5656 5657 5688 5687 
5657 5658 5689 5688 5658 5659 5690 5689 5659 
5660 5691 5690 5660 5661 5692 5691 5661 5662 
5693 5692 5662 5663 5694 5693 5663 5664 5695 
5694 5664 5665 5696 5695 5665 5666 5697 5696 
5666 5667 5698 5697 5667 5668 5699 5698 5668 
5669 5700 5699 5669 5670 5701 5700 5670 5671 
5702 5701 5671 5672 5703 5702 5673 5674 5705 
5704 5674 5675 5706 5705 5675 5676 5707 5706 
5676 5677 5708 5707 5677 5678 5709 5708 5678 
5679 5710 5709 5679 5680 5711 5710 5680 5681 
5712 5711 5681 5682 5713 5712 5682 5683 5714 
5713 5683 5684 5715 5714 5684 5685 5716 5715 
5685 5686 5717 5716 5686 5687 5718 5717 5687 
5688 5719 5718 5688 5689 5720 5719 5689 5690 
5721 5720 5690 5691 5722 5721 5691 5692 5723 
5722 5692 5693 5724 5723 5693 5694 5725 5724 
5694 5695 5726 5725 5695 5696 5727 5726 5696 
5697 5728 5727 5697 5698 5729 5728 5698 5699 
5730 5729 5699 5700 5731 5730 5700 5701 5732 
5731 5701 5702 5733 5732 5702 5703 5734 5733 
5704 5705 5736 5735 5705 5706 5737 5736 5706 
5707 5738 5737 5707 5708 5739 5738 5708 5709 
5740 5739 5709 5710 5741 5740 5710 5711 5742 
5741 5711 5712 5743 5742 5712 5713 5744 5743 
5713 5714 5745 5744 5714 5715 5746 5745 5715 
5716 5747 5746 5716 5717 5748 5747 5717 5718 
5749 5748 5718 5719 5750 5749 5719 5720 5751 
5750 5720 5721 5752 5751 5721 5722 5753 5752 
5722 5723 5754 5753 5723 5724 5755 5754 5724 
5725 5756 5755 5725 5726 5757 5756 5726 5727 
5758 5757 5727 5728 5759 5758 5728 5729 5760 
5759 5729 5730 5761 5760 5730 5731 5762 5761 
5731 5732 5763 5762 5732 5733 5764 5763 5733 
5734 5765 5764 5735 5736 5767 5766 5736 5737 
5768 5767 5737 5738 5769 5768 5738 5739 5770 
5769 5739 5740 5771 5770 5740 5741 5772 5771 
5741 5742 5773 5772 5742 5743 5774 5773 5743 
5744 5775 5774 5744 5745 5776 5775 5745 5746 
5777 5776 5746 5747 5778 5777 5747 5748 5779 
5778 5748 5749 5780 5779 5749 5750 5781 5780 
5750 5751 5782 5781 5751 5752 5783 5782 5752 
5753 5784 5783 5753 5754 5785 5784 5754 5755 
5786 5785 5755 5756 5787 5786 5756 5757 5788 
5787 5757 5758 5789 5788 5758 5759 5790 5789 
5759 5760 5791 5790 5760 5761 5792 5791 5761 
5762 5793 5792 5762 5763 5794 5793 5763 5764 
5795 5794 5764 5765 5796 5795 5766 5767 5798 
5797 5767 5768 5799 5798 5768 5769 5800 5799 
5769 5770 5801 5800 5770 5771 5802 5801 5771 
5772 5803 5802 5772 5773 5804 5803 5773 5774 
5805 5804 5774 5775 5806 5805 5775 5776 5807 
5806 5776 5777 5808 5807 5777 5778 5809 5808 
5778 5779 5810 5809 5779 5780 5811 5810 5780 
5781 5812 5811 5781 5782 5813 5812 5782 5783 
5814 5813 5783 5784 5815 5814 5784 5785 5816 
5815 5785 5786 5817 5816 5786 5787 5818 5817 
5787 5788 5819 5818 5788 5789 5820 5819 5789 
5790 5821 5820 5790 5791 5822 5821 5791 5792 
5823 5822 5792 5793 5824 5823 5793 5794 5825 
5824 5794 5795 5826 5825 5795 5796 5827 5826 
5797 5798 5829 5828 5798 5799 5830 5829 5799 
5800 5831 5830 5800 5801 5832 5831 5801 5802 
5833 5832 5802 5803 5834 5833 5803 5804 5835 
5834 5804 5805 5836 5835 5805 5806 5837 5836 
5806 5807 5838 5837 5807 5808 5839 5838 5808 
5809 5840 5839 5809 5810 5841 5840 5810 5811 
5842 5841 5811 5812 5843 5842 5812 5813 5844 
5843 5813 5814 5845 5844 5814 5815 5846 5845 
5815 5816 5847 5846 5816 5817 5848 5847 5817 
5818 5849 5848 5818 5819 5850 5849 5819 5820 
5851 5850 5820 5821 5852 5851 5821 5822 5853 
5852 5822 5823 5854 5853 5823 5824 5855 5854 
5824 5825 5856 5855 5825 5826 5857 5856 5826 
5827 5858 5857 5828 5829 5860 5859 5829 5830 
5861 5860 5830 5831 5862 5861 5831 5832 5863 
5862 5832 5833 5864 5863 5833 5834 5865 5864 
5834 5835 5866 5865 5835 5836 5867 5866 5836 
5837 5868 5867 5837 5838 5869 5868 5838 5839 
5870 5869 5839 5840 5871 5870 5840 5841 5872 
5871 5841 5842 5873 5872 5842 5843 5874 5873 
5843 5844 5875 5874 5844 5845 5876 5875 5845 
5846 5877 5876 5846 5847 5878 5877 5847 5848 
5879 5878 5848 5849 5880 5879 5849 5850 5881 
5880 5850 5851 5882 5881 5851 5852 5883 5882 
5852 5853 5884 5883 5853 5854 5885 5884 5854 
5855 5886 5885 5855 5856 5887 5886 5856 5857 
5888 5887 5857 5858 5889 5888 5859 5860 5891 
5890 5860 5861 5892 5891 5861 5862 5893 5892 
5862 5863 5894 5893 5863 5864 5895 5894 5864 
5865 5896 5895 5865 5866 5897 5896 5866 5867 
5898 5897 5867 5868 5899 5898 5868 5869 5900 
5899 5869 5870 5901 5900 5870 5871 5902 5901 
5871 5872 5903 5902 5872 5873 5904 5903 5873 
5874 5905 5904 5874 5875 5906 5905 5875 5876 
5907 5906 5876 5877 5908 5907 5877 5878 5909 
5908 5878 5879 5910 5909 5879 5880 5911 5910 
5880 5881 5912 5911 5881 5882 5913 5912 5882 
5883 5914 5913 5883 5884 5915 5914 5884 5885 
5916 5915 5885 5886 5917 5916 5886 5887 5918 
5917 5887 5888 5919 5918 5888 5889 5920 5919 
5890 5891 5922 5921 5891 5892 5923 5922 5892 
5893 5924 5923 5893 5894 5925 5924 5894 5895 
5926 5925 5895 5896 5927 5926 5896 5897 5928 
5927 5897 5898 5929 5928 5898 5899 5930 5929 
5899 5900 5931 5930 5900 5901 5932 5931 5901 
5902 5933 5932 5902 5903 5934 5933 5903 5904 
5935 5934 5904 5905 5936 5935 5905 5906 5937 
5936 5906 5907 5938 5937 5907 5908 5939 5938 
5908 5909 5940 5939 5909 5910 5941 5940 5910 
5911 5942 5941 5911 5912 5943 5942 5912 5913 
5944 5943 5913 5914 5945 5944 5914 5915 5946 
5945 5915 5916 5947 5946 5916 5917 5948 5947 
5917 5918 5949 5948 5918 5919 5950 5949 5919 
5920 5951 5950 5921 5922 5953 5952 5922 5923 
5954 5953 5923 5924 5955 5954 5924 5925 5956 
5955 5925 5926 5957 5956 5926 5927 5958 5957 
5927 5928 5959 5958 5928 5929 5960 5959 5929 
5930 5961 5960 5930 5931 5962 5961 5931 5932 
5963 5962 5932 5933 5964 5963 5933 5934 5965 
5964 5934 5935 5966 5965 5935 5936 5967 5966 
5936 5937 5968 5967 5937 5938 5969 5968 5938 
5939 5970 5969 5939 5940 5971 5970 5940 5941 
5972 5971 5941 5942 5973 5972 5942 5943 5974 
5973 5943 5944 5975 5974 5944 5945 5976 5975 
5945 5946 5977 5976 5946 5947 5978 5977 5947 
5948 5979 5978 5948 5949 5980 5979 5949 5950 
5981 5980 5950 5951 5982 5981 5952 5953 5984 
5983 5953 5954 5985 5984 5954 5955 5986 5985 
5955 5956 5987 5986 5956 5957 5988 5987 5957 
5958 5989 5988 5958 5959 5990 5989 5959 5960 
5991 5990 5960 5961 5992 5991 5961 5962 5993 
5992 5962 5963 5994 5993 5963 5964 5995 5994 
5964 5965 5996 5995 5965 5966 5997 5996 5966 
5967 5998 5997 5967 5968 5999 5998 5968 5969 
6000 5999 5969 5970 6001 6000 5970 5971 6002 
6001 5971 5972 6003 6002 5972 5973 6004 6003 
5973 5974 6005 6004 5974 5975 6006 6005 5975 
5976 6007 6006 5976 5977 6008 6007 5977 5978 
6009 6008 5978 5979 6010 6009 5979 5980 6011 
6010 5980 5981 6012 6011 5981 5982 6013 6012 
5983 5984 6015 6014 5984 5985 6016 6015 5985 
5986 6017 6016 5986 5987 6018 6017 5987 5988 
6019 6018 5988 5989 6020 6019 5989 5990 6021 
6020 5990 5991 6022 6021 5991 5992 6023 6022 
5992 5993 6024 6023 5993 5994 6025 6024 5994 
5995 6026 6025 5995 5996 6027 6026 5996 5997 
6028 6027 5997 5998 6029 6028 5998 5999 6030 
6029 5999 6000 6031 6030 6000 6001 6032 6031 
6001 6002 6033 6032 6002 6003 6034 6033 6003 
6004 6035 6034 6004 6005 6036 6035 6005 6006 
6037 6036 6006 6007 6038 6037 6007 6008 6039 
6038 6008 6009 6040 6039 6009 6010 6041 6040 
6010 6011 6042 6041 6011 6012 6043 6042 6012 
6013 6044 6043 6014 6015 6046 6045 6015 6016 
6047 6046 6016 6017 6048 6047 6017 6018 6049 
6048 6018 6019 6050 6049 6019 6020 6051 6050 
6020 6021 6052 6051 6021 6022 6053 6052 6022 
6023 6054 6053 6023 6024 6055 6054 6024 6025 
6056 6055 6025 6026 6057 6056 6026 6027 6058 
6057 6027 6028 6059 6058 6028 6029 6060 6059 
6029 6030 6061 6060 6030 6031 6062 6061 6031 
6032 6063 6062 6032 6033 6064 6063 6033 6034 
6065 6064 6034 6035 6066 6065 6035 6036 6067 
6066 6036 6037 6068 6067 6037 6038 6069 6068 
6038 6039 6070 6069 6039 6040 6071 6070 6040 
6041 6072 6071 6041 6042 6073 6072 6042 6043 
6074 6073 6043 6044 6075 6074 6045 6046 6077 
6076 6046 6047 6078 6077 6047 6048 6079 6078 
6048 6049 6080 6079 6049 6050 6081 6080 6050 
6051 6082 6081 6051 6052 6083 6082 6052 6053 
6084 6083 6053 6054 6085 6084 6054 6055 6086 
6085 6055 6056 6087 6086 6056 6057 6088 6087 
6057 6058 6089 6088 6058 6059 6090 6089 6059 
6060 6091 6090 6060 6061 6092 6091 6061 6062 
6093 6092 6062 6063 6094 6093 6063 6064 6095 
6094 6064 6065 6096 6095 6065 6066 6097 6096 
6066 6067 6098 6097 6067 6068 6099 6098 6068 
6069 6100 6099 6069 6070 6101 6100 6070 6071 
6102 6101 6071 6072 6103 6102 6072 6073 6104 
6103 6073 6074 6105 6104 6074 6075 6106 6105 
6076 6077 6108 6107 6077 6078 6109 6108 6078 
6079 6110 6109 6079 6080 6111 6110 6080 6081 
6112 6111 6081 6082 6113 6112 6082 6083 6114 
6113 6083 6084 6115 6114 6084 6085 6116 6115 
6085 6086 6117 6116 6086 6087 6118 6117 6087 
6088 6119 6118 6088 6089 6120 6119 6089 6090 
6121 6120 6090 6091 6122 6121 6091 6092 6123 
6122 6092 6093 6124 6123 6093 6094 6125 6124 
6094 6095 6126 6125 6095 6096 6127 6126 6096 
6097 6128 6127 6097 6098 6129 6128 6098 6099 
6130 6129 6099 6100 6131 6130 6100 6101 6132 
6131 6101 6102 6133 6132 6102 6103 6134 6133 
6103 6104 6135 6134 6104 6105 6136 6135 6105 
6106 6137 6136 6107 6108 6139 6138 6108 6109 
6140 6139 6109 6110 6141 6140 6110 6111 6142 
6141 6111 6112 6143 6142 6112 6113 6144 6143 
6113 6114 6145 6144 6114 6115 6146 6145 6115 
6116 6147 6146 6116 6117 6148 6147 6117 6118 
6149 6148 6118 6119 6150 6149 6119 6120 6151 
6150 6120 6121 6152 6151 6121 6122 6153 6152 
6122 6123 6154 6153 6123 6124 6155 6154 6124 
6125 6156 6155 6125 6126 6157 6156 6126 6127 
6158 6157 6127 6128 6159 6158 6128 6129 6160 
6159 6129 6130 6161 6160 6130 6131 6162 6161 
6131 6132 6163 6162 6132 6133 6164 6163 6133 
6134 6165 6164 6134 6135 6166 6165 6135 6136 
6167 6166 6136 6137 6168 6167 6138 6139 6170 
6169 6139 6140 6171 6170 6140 6141 6172 6171 
6141 6142 6173 6172 6142 6143 6174 6173 6143 
6144 6175 6174 6144 6145 6176 6175 6145 6146 
6177 6176 6146 6147 6178 6177 6147 6148 6179 
6178 6148 6149 6180 6179 6149 6150 6181 6180 
6150 6151 6182 6181 6151 6152 6183 6182 6152 
6153 6184 6183 6153 6154 6185 6184 6154 6155 
6186 6185 6155 6156 6187 6186 6156 6157 6188 
6187 6157 6158 6189 6188 6158 6159 6190 6189 
6159 6160 6191 6190 6160 6161 6192 6191 6161 
6162 6193 6192 6162 6163 6194 6193 6163 6164 
6195 6194 6164 6165 6196 6195 6165 6166 6197 
6196 6166 6167 6198 6197 6167 6168 6199 6198 
6169 6170 6201 6200 6170 6171 6202 6201 6171 
6172 6203 6202 6172 6173 6204 6203 6173 6174 
6205 6204 6174 6175 6206 6205 6175 6176 6207 
6206 6176 6177 6208 6207 6177 6178 6209 6208 
6178 6179 6210 6209 6179 6180 6211 6210 6180 
6181 6212 6211 6181 6182 6213 6212 6182 6183 
6214 6213 6183 6184 6215 6214 6184 6185 6216 
6215 6185 6186 6217 6216 6186 6187 6218 6217 
6187 6188 6219 6218 6188 6189 6220 6219 6189 
6190 6221 6220 6190 6191 6222 6221 6191 6192 
6223 6222 6192 6193 6224 6223 6193 6194 6225 
6224 6194 6195 6226 6225 6195 6196 6227 6226 
6196 6197 6228 6227 6197 6198 6229 6228 6198 
6199 6230 6229 6200 6201 6232 6231 6201 6202 
6233 6232 6202 6203 6234 6233 6203 6204 6235 
6234 6204 6205 6236 6235 6205 6206 6237 6236 
6206 6207 6238 6237 6207 6208 6239 6238 6208 
6209 6240 6239 6209 6210 6241 6240 6210 6211 
6242 6241 6211 6212 6243 6242 6212 6213 6244 
6243 6213 6214 6245 6244 6214 6215 6246 6245 
6215 6216 6247 6246 6216 6217 6248 6247 6217 
6218 6249 6248 6218 6219 6250 6249 6219 6220 
6251 6250 6220 6221 6252 6251 6221 6222 6253 
6252 6222 6223 6254 6253 6223 6224 6255 6254 
6224 6225 6256 6255 6225 6226 6257 6256 6226 
6227 6258 6257 6227 6228 6259 6258 6228 6229 
6260 6259 6229 6230 6261 6260 6231 6232 6263 
6262 6232 6233 6264 6263 6233 6234 6265 6264 
6234 6235 6266 6265 6235 6236 6267 6266 6236 
6237 6268 6267 6237 6238 6269 6268 6238 6239 
6270 6269 6239 6240 6271 6270 6240 6241 6272 
6271 6241 6242 6273 6272 6242 6243 6274 6273 
6243 6244 6275 6274 6244 6245 6276 6275 6245 
6246 6277 6276 6246 6247 6278 6277 6247 6248 
6279 6278 6248 6249 6280 6279 6249 6250 6281 
6280 6250 6251 6282 6281 6251 6252 6283 6282 
6252 6253 6284 6283 6253 6254 6285 6284 6254 
6255 6286 6285 6255 6256 6287 6286 6256 6257 
6288 6287 6257 6258 6289 6288 6258 6259 6290 
6289 6259 6260 6291 6290 6260 6261 6292 6291 
6262 6263 6294 6293 6263 6264 6295 6294 6264 
6265 6296 6295 6265 6266 6297 6296 6266 6267 
6298 6297 6267 6268 6299 6298 6268 6269 6300 
6299 6269 6270 6301 6300 6270 6271 6302 6301 
6271 6272 6303 6302 6272 6273 6304 6303 6273 
6274 6305 6304 6274 6275 6306 6305 6275 6276 
6307 6306 6276 6277 6308 6307 6277 6278 6309 
6308 6278 6279 6310 6309 6279 6280 6311 6310 
6280 6281 6312 6311 6281 6282 6313 6312 6282 
6283 6314 6313 6283 6284 6315 6314 6284 6285 
6316 6315 6285 6286 6317 6316 6286 6287 6318 
6317 6287 6288 6319 6318 6288 6289 6320 6319 
6289 6290 6321 6320 6290 6291 6322 6321 6291 
6292 6323 6322 6293 6294 6325 6324 6294 6295 
6326 6325 6295 6296 6327 6326 6296 6297 6328 
6327 6297 6298 6329 6328 6298 6299 6330 6329 
6299 6300 6331 6330 6300 6301 6332 6331 6301 
6302 6333 6332 6302 6303 6334 6333 6303 6304 
6335 6334 6304 6305 6336 6335 6305 6306 6337 
6336 6306 6307 6338 6337 6307 6308 6339 6338 
6308 6309 6340 6339 6309 6310 6341 6340 6310 
6311 6342 6341 6311 6312 6343 6342 6312 6313 
6344 6343 6313 6314 6345 6344 6314 6315 6346 
6345 6315 6316 6347 6346 6316 6317 6348 6347 
6317 6318 6349 6348 6318 6319 6350 6349 6319 
6320 6351 6350 6320 6321 6352 6351 6321 6322 
6353 6352 6322 6323 6354 6353 6324 6325 6356 
6355 6325 6326 6357 6356 6326 6327 6358 6357 
6327 6328 6359 6358 6328 6329 6360 6359 6329 
6330 6361 6360 6330 6331 6362 6361 6331 6332 
6363 6362 6332 6333 6364 6363 6333 6334 6365 
6364 6334 6335 6366 6365 6335 6336 6367 6366 
6336 6337 6368 6367 6337 6338 6369 6368 6338 
6339 6370 6369 6339 6340 6371 6370 6340 6341 
6372 6371 6341 6342 6373 6372 6342 6343 6374 
6373 6343 6344 6375 6374 6344 6345 6376 6375 
6345 6346 6377 6376 6346 6347 6378 6377 6347 
6348 6379 6378 6348 6349 6380 6379 6349 6350 
6381 6380 6350 6351 6382 6381 6351 6352 6383 
6382 6352 6353 6384 6383 6353 6354 6385 6384 
6355 6356 6387 6386 6356 6357 6388 6387 6357 
6358 6389 6388 6358 6359 6390 6389 6359 6360 
6391 6390 6360 6361 6392 6391 6361 6362 6393 
6392 6362 6363 6394 6393 6363 6364 6395 6394 
6364 6365 6396 6395 6365 6366 6397 6396 6366 
6367 6398 6397 6367 6368 6399 6398 6368 6369 
6400 6399 6369 6370 6401 6400 6370 6371 6402 
6401 6371 6372 6403 6402 6372 6373 6404 6403 
6373 6374 6405 6404 6374 6375 6406 6405 6375 
6376 6407 6406 6376 6377 6408 6407 6377 6378 
6409 6408 6378 6379 6410 6409 6379 6380 6411 
6410 6380 6381 6412 6411 6381 6382 6413 6412 
6382 6383 6414 6413 6383 6384 6415 6414 6384 
6385 6416 6415 6386 6387 6418 6417 6387 6388 
6419 6418 6388 6389 6420 6419 6389 6390 6421 
6420 6390 6391 6422 6421 6391 6392 6423 6422 
6392 6393 6424 6423 6393 6394 6425 6424 6394 
6395 6426 6425 6395 6396 6427 6426 6396 6397 
6428 6427 6397 6398 6429 6428 6398 6399 6430 
6429 6399 6400 6431 6430 6400 6401 6432 6431 
6401 6402 6433 6432 6402 6403 6434 6433 6403 
6404 6435 6434 6404 6405 6436 6435 6405 6406 
6437 6436 6406 6407 6438 6437 6407 6408 6439 
6438 6408 6409 6440 6439 6409 6410 6441 6440 
6410 6411 6442 6441 6411 6412 6443 6442 6412 
6413 6444 6443 6413 6414 6445 6444 6414 6415 
6446 6445 6415 6416 6447 6446 6417 6418 6449 
6448 6418 6419 6450 6449 6419 6420 6451 6450 
6420 6421 6452 6451 6421 6422 6453 6452 6422 
6423 6454 6453 6423 6424 6455 6454 6424 6425 
6456 6455 6425 6426 6457 6456 6426 6427 6458 
6457 6427 6428 6459 6458 6428 6429 6460 6459 
6429 6430 6461 6460 6430 6431 6462 6461 6431 
6432 6463 6462 6432 6433 6464 6463 6433 6434 
6465 6464 6434 6435 6466 6465 6435 6436 6467 
6466 6436 6437 6468 6467 6437 6438 6469 6468 
6438 6439 6470 6469 6439 6440 6471 6470 6440 
6441 6472 6471 6441 6442 6473 6472 6442 6443 
6474 6473 6443 6444 6475 6474 6444 6445 6476 
6475 6445 6446 6477 6476 6446 6447 6478 6477 
6448 6449 6480 6479 6449 6450 6481 6480 6450 
6451 6482 6481 6451 6452 6483 6482 6452 6453 
6484 6483 6453 6454 6485 6484 6454 6455 6486 
6485 6455 6456 6487 6486 6456 6457 6488 6487 
6457 6458 6489 6488 6458 6459 6490 6489 6459 
6460 6491 6490 6460 6461 6492 6491 6461 6462 
6493 6492 6462 6463 6494 6493 6463 6464 6495 
6494 6464 6465 6496 6495 6465 6466 6497 6496 
6466 6467 6498 6497 6467 6468 6499 6498 6468 
6469 6500 6499 6469 6470 6501 6500 6470 6471 
6502 6501 6471 6472 6503 6502 6472 6473 6504 
6503 6473 6474 6505 6504 6474 6475 6506 6505 
6475 6476 6507 6506 6476 6477 6508 6507 6477 
6478 6509 6508 6479 6480 6511 6510 6480 6481 
6512 6511 6481 6482 6513 6512 6482 6483 6514 
6513 6483 6484 6515 6514 6484 6485 6516 6515 
6485 6486 6517 6516 6486 6487 6518 6517 6487 
6488 6519 6518 6488 6489 6520 6519 6489 6490 
6521 6520 6490 6491 6522 6521 6491 6492 6523 
6522 6492 6493 6524 6523 6493 6494 6525 6524 
6494 6495 6526 6525 6495 6496 6527 6526 6496 
6497 6528 6527 6497 6498 6529 6528 6498 6499 
6530 6529 6499 6500 6531 6530 6500 6501 6532 
6531 6501 6502 6533 6532 6502 6503 6534 6533 
6503 6504 6535 6534 6504 6505 6536 6535 6505 
6506 6537 6536 6506 6507 6538 6537 6507 6508 
6539 6538 6508 6509 6540 6539 6510 6511 6542 
6541 6511 6512 6543 6542 6512 6513 6544 6543 
6513 6514 6545 6544 6514 6515 6546 6545 6515 
6516 6547 6546 6516 6517 6548 6547 6517 6518 
6549 6548 6518 6519 6550 6549 6519 6520 6551 
6550 6520 6521 6552 6551 6521 6522 6553 6552 
6522 6523 6554 6553 6523 6524 6555 6554 6524 
6525 6556 6555 6525 6526 6557 6556 6526 6527 
6558 6557 6527 6528 6559 6558 6528 6529 6560 
6559 6529 6530 6561 6560 6530 6531 6562 6561 
6531 6532 6563 6562 6532 6533 6564 6563 6533 
6534 6565 6564 6534 6535 6566 6565 6535 6536 
6567 6566 6536 6537 6568 6567 6537 6538 6569 
6568 6538 6539 6570 6569 6539 6540 6571 6570 
6541 6542 6573 6572 6542 6543 6574 6573 6543 
6544 6575 6574 6544 6545 6576 6575 6545 6546 
6577 6576 6546 6547 6578 6577 6547 6548 6579 
6578 6548 6549 6580 6579 6549 6550 6581 6580 
6550 6551 6582 6581 6551 6552 6583 6582 6552 
6553 6584 6583 6553 6554 6585 6584 6554 6555 
6586 6585 6555 6556 6587 6586 6556 6557 6588 
6587 6557 6558 6589 6588 6558 6559 6590 6589 
6559 6560 6591 6590 6560 6561 6592 6591 6561 
6562 6593 6592 6562 6563 6594 6593 6563 6564 
6595 6594 6564 6565 6596 6595 6565 6566 6597 
6596 6566 6567 6598 6597 6567 6568 6599 6598 
6568 6569 6600 6599 6569 6570 6601 6600 6570 
6571 6602 6601 6572 6573 6604 6603 6573 6574 
6605 6604 6574 6575 6606 6605 6575 6576 6607 
6606 6576 6577 6608 6607 6577 6578 6609 6608 
6578 6579 6610 6609 6579 6580 6611 6610 6580 
6581 6612 6611 6581 6582 6613 6612 6582 6583 
6614 6613 6583 6584 6615 6614 6584 6585 6616 
6615 6585 6586 6617 6616 6586 6587 6618 6617 
6587 6588 6619 6618 6588 6589 6620 6619 6589 
6590 6621 6620 6590 6591 6622 6621 6591 6592 
6623 6622 6592 6593 6624 6623 6593 6594 6625 
6624 6594 6595 6626 6625 6595 6596 6627 6626 
6596 6597 6628 6627 6597 6598 6629 6628 6598 
6599 6630 6629 6599 6600 6631 6630 6600 6601 
6632 6631 6601 6602 6633 6632 6603 6604 6635 
6634 6604 6605 6636 6635 6605 6606 6637 6636 
6606 6607 6638 6637 6607 6608 6639 6638 6608 
6609 6640 6639 6609 6610 6641 6640 6610 6611 
6642 6641 6611 6612 6643 6642 6612 6613 6644 
6643 6613 6614 6645 6644 6614 6615 6646 6645 
6615 6616 6647 6646 6616 6617 6648 6647 6617 
6618 6649 6648 6618 6619 6650 6649 6619 6620 
6651 6650 6620 6621 6652 6651 6621 6622 6653 
6652 6622 6623 6654 6653 6623 6624 6655 6654 
6624 6625 6656 6655 6625 6626 6657 6656 6626 
6627 6658 6657 6627 6628 6659 6658 6628 6629 
6660 6659 6629 6630 6661 6660 6630 6631 6662 
6661 6631 6632 6663 6662 6632 6633 6664 6663 
6634 6635 6666 6665 6635 6636 6667 6666 6636 
6637 6668 6667 6637 6638 6669 6668 6638 6639 
6670 6669 6639 6640 6671 6670 6640 6641 6672 
6671 6641 6642 6673 6672 6642 6643 6674 6673 
6643 6644 6675 6674 6644 6645 6676 6675 6645 
6646 6677 6676 6646 6647 6678 6677 6647 6648 
6679 6678 6648 6649 6680 6679 6649 6650 6681 
6680 6650 6651 6682 6681 6651 6652 6683 6682 
6652 6653 6684 6683 6653 6654 6685 6684 6654 
6655 6686 6685 6655 6656 6687 6686 6656 6657 
6688 6687 6657 6658 6689 6688 6658 6659 6690 
6689 6659 6660 6691 6690 6660 6661 6692 6691 
6661 6662 6693 6692 6662 6663 6694 6693 6663 
6664 6695 6694 6665 6666 6697 6696 6666 6667 
6698 6697 6667 6668 6699 6698 6668 6669 6700 
6699 6669 6670 6701 6700 6670 6671 6702 6701 
6671 6672 6703 6702 6672 6673 6704 6703 6673 
6674 6705 6704 6674 6675 6706 6705 6675 6676 
6707 6706 6676 6677 6708 6707 6677 6678 6709 
6708 6678 6679 6710 6709 6679 6680 6711 6710 
6680 6681 6712 6711 6681 6682 6713 6712 6682 
6683 6714 6713 6683 6684 6715 6714 6684 6685 
6716 6715 6685 6686 6717 6716 6686 6687 6718 
6717 6687 6688 6719 6718 6688 6689 6720 6719 
6689 6690 6721 6720 6690 6691 6722 6721 6691 
6692 6723 6722 6692 6693 6724 6723 6693 6694 
6725 6724 6694 6695 6726 6725 6696 6697 6728 
6727 6697 6698 6729 6728 6698 6699 6730 6729 
6699 6700 6731 6730 6700 6701 6732 6731 6701 
6702 6733 6732 6702 6703 6734 6733 6703 6704 
6735 6734 6704 6705 6736 6735 6705 6706 6737 
6736 6706 6707 6738 6737 6707 6708 6739 6738 
6708 6709 6740 6739 6709 6710 6741 6740 6710 
6711 6742 6741 6711 6712 6743 6742 6712 6713 
6744 6743 6713 6714 6745 6744 6714 6715 6746 
6745 6715 6716 6747 6746 6716 6717 6748 6747 
6717 6718 6749 6748 6718 6719 6750 6749 6719 
6720 6751 6750 6720 6721 6752 6751 6721 6722 
6753 6752 6722 6723 6754 6753 6723 6724 6755 
6754 6724 6725 6756 6755 6725 6726 6757 6756 
6727 6728 6759 6758 6728 6729 6760 6759 6729 
6730 6761 6760 6730 6731 6762 6761 6731 6732 
6763 6762 6732 6733 6764 6763 6733 6734 6765 
6764 6734 6735 6766 6765 6735 6736 6767 6766 
6736 6737 6768 6767 6737 6738 6769 6768 6738 
6739 6770 6769 6739 6740 6771 6770 6740 6741 
6772 6771 6741 6742 6773 6772 6742 6743 6774 
6773 6743 6744 6775 6774 6744 6745 6776 6775 
6745 6746 6777 6776 6746 6747 6778 6777 6747 
6748 6779 6778 6748 6749 6780 6779 6749 6750 
6781 6780 6750 6751 6782 6781 6751 6752 6783 
6782 6752 6753 6784 6783 6753 6754 6785 6784 
6754 6755 6786 6785 6755 6756 6787 6786 6756 
6757 6788 6787 6758 6759 6790 6789 6759 6760 
6791 6790 6760 6761 6792 6791 6761 6762 6793 
6792 6762 6763 6794 6793 6763 6764 6795 6794 
6764 6765 6796 6795 6765 6766 6797 6796 6766 
6767 6798 6797 6767 6768 6799 6798 6768 6769 
6800 6799 6769 6770 6801 6800 6770 6771 6802 
6801 6771 6772 6803 6802 6772 6773 6804 6803 
6773 6774 6805 6804 6774 6775 6806 6805 6775 
6776 6807 6806 6776 6777 6808 6807 6777 6778 
6809 6808 6778 6779 6810 6809 6779 6780 6811 
6810 6780 6781 6812 6811 6781 6782 6813 6812 
6782 6783 6814 6813 6783 6784 6815 6814 6784 
6785 6816 6815 6785 6786 6817 6816 6786 6787 
6818 6817 6787 6788 6819 6818 6789 6790 6821 
6820 6790 6791 6822 6821 6791 6792 6823 6822 
6792 6793 6824 6823 6793 6794 6825 6824 6794 
6795 6826 6825 6795 6796 6827 6826 6796 6797 
6828 6827 6797 6798 6829 6828 6798 6799 6830 
6829 6799 6800 6831 6830 6800 6801 6832 6831 
6801 6802 6833 6832 6802 6803 6834 6833 6803 
6804 6835 6834 6804 6805 6836 6835 6805 6806 
6837 6836 6806 6807 6838 6837 6807 6808 6839 
6838 6808 6809 6840 6839 6809 6810 6841 6840 
6810 6811 6842 6841 6811 6812 6843 6842 6812 
6813 6844 6843 6813 6814 6845 6844 6814 6815 
6846 6845 6815 6816 6847 6846 6816 6817 6848 
6847 6817 6818 6849 6848 6818 6819 6850 6849 
6820 6821 6852 6851 6821 6822 6853 6852 6822 
6823 6854 6853 6823 6824 6855 6854 6824 6825 
6856 6855 6825 6826 6857 6856 6826 6827 6858 
6857 6827 6828 6859 6858 6828 6829 6860 6859 
6829 6830 6861 6860 6830 6831 6862 6861 6831 
6832 6863 6862 6832 6833 6864 6863 6833 6834 
6865 6864 6834 6835 6866 6865 6835 6836 6867 
6866 6836 6837 6868 6867 6837 6838 6869 6868 
6838 6839 6870 6869 6839 6840 6871 6870 6840 
6841 6872 6871 6841 6842 6873 6872 6842 6843 
6874 6873 6843 6844 6875 6874 6844 6845 6876 
6875 6845 6846 6877 6876 6846 6847 6878 6877 
6847 6848 6879 6878 6848 6849 6880 6879 6849 
6850 6881 6880 6851 6852 6883 6882 6852 6853 
6884 6883 6853 6854 6885 6884 6854 6855 6886 
6885 6855 6856 6887 6886 6856 6857 6888 6887 
6857 6858 6889 6888 6858 6859 6890 6889 6859 
6860 6891 6890 6860 6861 6892 6891 6861 6862 
6893 6892 6862 6863 6894 6893 6863 6864 6895 
6894 6864 6865 6896 6895 6865 6866 6897 6896 
6866 6867 6898 6897 6867 6868 6899 6898 6868 
6869 6900 6899 6869 6870 6901 6900 6870 6871 
6902 6901 6871 6872 6903 6902 6872 6873 6904 
6903 6873 6874 6905 6904 6874 6875 6906 6905 
6875 6876 6907 6906 6876 6877 6908 6907 6877 
6878 6909 6908 6878 6879 6910 6909 6879 6880 
6911 6910 6880 6881 6912 6911 6882 6883 6914 
6913 6883 6884 6915 6914 6884 6885 6916 6915 
6885 6886 6917 6916 6886 6887 6918 6917 6887 
6888 6919 6918 6888 6889 6920 6919 6889 6890 
6921 6920 6890 6891 6922 6921 6891 6892 6923 
6922 6892 6893 6924 6923 6893 6894 6925 6924 
6894 6895 6926 6925 6895 6896 6927 6926 6896 
6897 6928 6927 6897 6898 6929 6928 6898 6899 
6930 6929 6899 6900 6931 6930 6900 6901 6932 
6931 6901 6902 6933 6932 6902 6903 6934 6933 
6903 6904 6935 6934 6904 6905 6936 6935 6905 
6906 6937 6936 6906 6907 6938 6937 6907 6908 
6939 6938 6908 6909 6940 6939 6909 6910 6941 
6940 6910 6911 6942 6941 6911 6912 6943 6942 
6913 6914 6945 6944 6914 6915 6946 6945 6915 
6916 6947 6946 6916 6917 6948 6947 6917 6918 
6949 6948 6918 6919 6950 6949 6919 6920 6951 
6950 6920 6921 6952 6951 6921 6922 6953 6952 
6922 6923 6954 6953 6923 6924 6955 6954 6924 
6925 6956 6955 6925 6926 6957 6956 6926 6927 
6958 6957 6927 6928 6959 6958 6928 6929 6960 
6959 6929 6930 6961 6960 6930 6931 6962 6961 
6931 6932 6963 6962 6932 6933 6964 6963 6933 
6934 6965 6964 6934 6935 6966 6965 6935 6936 
6967 6966 6936 6937 6968 6967 6937 6938 6969 
6968 6938 6939 6970 6969 6939 6940 6971 6970 
6940 6941 6972 6971 6941 6942 6973 6972 6942 
6943 6974 6973 6944 6945 6976 6975 6945 6946 
6977 6976 6946 6947 6978 6977 6947 6948 6979 
6978 6948 6949 6980 6979 6949 6950 6981 6980 
6950 6951 6982 6981 6951 6952 6983 6982 6952 
6953 6984 6983 6953 6954 6985 6984 6954 6955 
6986 6985 6955 6956 6987 6986 6956 6957 6988 
6987 6957 6958 6989 6988 6958 6959 6990 6989 
6959 6960 6991 6990 6960 6961 6992 6991 6961 
6962 6993 6992 6962 6963 6994 6993 6963 6964 
6995 6994 6964 6965 6996 6995 6965 6966 6997 
6996 6966 6967 6998 6997 6967 6968 6999 6998 
6968 6969 7000 6999 6969 6970 7001 7000 6970 
6971 7002 7001 6971 6972 7003 7002 6972 6973 
7004 7003 6973 6974 7005 7004 6975 6976 7007 
7006 6976 6977 7008 7007 6977 6978 7009 7008 
6978 6979 7010 7009 6979 6980 7011 7010 6980 
6981 7012 7011 6981 6982 7013 7012 6982 6983 
7014 7013 6983 6984 7015 7014 6984 6985 7016 
7015 6985 6986 7017 7016 6986 6987 7018 7017 
6987 6988 7019 7018 6988 6989 7020 7019 6989 
6990 7021 7020 6990 6991 7022 7021 6991 6992 
7023 7022 6992 6993 7024 7023 6993 6994 7025 
7024 6994 6995 7026 7025 6995 6996 7027 7026 
6996 6997 7028 7027 6997 6998 7029 7028 6998 
6999 7030 7029 6999 7000 7031 7030 7000 7001 
7032 7031 7001 7002 7033 7032 7002 7003 7034 
7033 7003 7004 7035 7034 7004 7005 7036 7035 
7006 7007 7038 7037 7007 7008 7039 7038 7008 
7009 7040 7039 7009 7010 7041 7040 7010 7011 
7042 7041 7011 7012 7043 7042 7012 7013 7044 
7043 7013 7014 7045 7044 7014 7015 7046 7045 
7015 7016 7047 7046 7016 7017 7048 7047 7017 
7018 7049 7048 7018 7019 7050 7049 7019 7020 
7051 7050 7020 7021 7052 7051 7021 7022 7053 
7052 7022 7023 7054 7053 7023 7024 7055 7054 
7024 7025 7056 7055 7025 7026 7057 7056 7026 
7027 7058 7057 7027 7028 7059 7058 7028 7029 
7060 7059 7029 7030 7061 7060 7030 7031 7062 
7061 7031 7032 7063 7062 7032 7033 7064 7063 
7033 7034 7065 7064 7034 7035 7066 7065 7035 
7036 7067 7066 7037 7038 7069 7068 7038 7039 
7070 7069 7039 7040 7071 7070 7040 7041 7072 
7071 7041 7042 7073 7072 7042 7043 7074 7073 
7043 7044 7075 7074 7044 7045 7076 7075 7045 
7046 7077 7076 7046 7047 7078 7077 7047 7048 
7079 7078 7048 7049 7080 7079 7049 7050 7081 
7080 7050 7051 7082 7081 7051 7052 7083 7082 
7052 7053 7084 7083 7053 7054 7085 7084 7054 
7055 7086 7085 7055 7056 7087 7086 7056 7057 
7088 7087 7057 7058 7089 7088 7058 7059 7090 
7089 7059 7060 7091 7090 7060 7061 7092 7091 
7061 7062 7093 7092 7062 7063 7094 7093 7063 
7064 7095 7094 7064 7065 7096 7095 7065 7066 
7097 7096 7066 7067 7098 7097 7068 7069 7100 
7099 7069 7070 7101 7100 7070 7071 7102 7101 
7071 7072 7103 7102 7072 7073 7104 7103 7073 
7074 7105 7104 7074 7075 7106 7105 7075 7076 
7107 7106 7076 7077 7108 7107 7077 7078 7109 
7108 7078 7079 7110 7109 7079 7080 7111 7110 
7080 7081 7112 7111 7081 7082 7113 7112 7082 
7083 7114 7113 7083 7084 7115 7114 7084 7085 
7116 7115 7085 7086 7117 7116 7086 7087 7118 
7117 7087 7088 7119 7118 7088 7089 7120 7119 
7089 7090 7121 7120 7090 7091 7122 7121 7091 
7092 7123 7122 7092 7093 7124 7123 7093 7094 
7125 7124 7094 7095 7126 7125 7095 7096 7127 
7126 7096 7097 7128 7127 7097 7098 7129 7128 
7099 7100 7131 7130 7100 7101 7132 7131 7101 
7102 7133 7132 7102 7103 7134 7133 7103 7104 
7135 7134 7104 7105 7136 7135 7105 7106 7137 
7136 7106 7107 7138 7137 7107 7108 7139 7138 
7108 7109 7140 7139 7109 7110 7141 7140 7110 
7111 7142 7141 7111 7112 7143 7142 7112 7113 
7144 7143 7113 7114 7145 7144 7114 7115 7146 
7145 7115 7116 7147 7146 7116 7117 7148 7147 
7117 7118 7149 7148 7118 7119 7150 7149 7119 
7120 7151 7150 7120 7121 7152 7151 7121 7122 
7153 7152 7122 7123 7154 7153 7123 7124 7155 
7154 7124 7125 7156 7155 7125 7126 7157 7156 
7126 7127 7158 7157 7127 7128 7159 7158 7128 
7129 7160 7159 7130 7131 7162 7161 7131 7132 
7163 7162 7132 7133 7164 7163 7133 7134 7165 
7164 7134 7135 7166 7165 7135 7136 7167 7166 
7136 7137 7168 7167 7137 7138 7169 7168 7138 
7139 7170 7169 7139 7140 7171 7170 7140 7141 
7172 7171 7141 7142 7173 7172 7142 7143 7174 
7173 7143 7144 7175 7174 7144 7145 7176 7175 
7145 7146 7177 7176 7146 7147 7178 7177 7147 
7148 7179 7178 7148 7149 7180 7179 7149 7150 
7181 7180 7150 7151 7182 7181 7151 7152 7183 
7182 7152 7153 7184 7183 7153 7154 7185 7184 
7154 7155 7186 7185 7155 7156 7187 7186 7156 
7157 7188 7187 7157 7158 7189 7188 7158 7159 
7190 7189 7159 7160 7191 7190 7161 7162 7193 
7192 7162 7163 7194 7193 7163 7164 7195 7194 
7164 7165 7196 7195 7165 7166 7197 7196 7166 
7167 7198 7197 7167 7168 7199 7198 7168 7169 
7200 7199 7169 7170 7201 7200 7170 7171 7202 
7201 7171 7172 7203 7202 7172 7173 7204 7203 
7173 7174 7205 7204 7174 7175 7206 7205 7175 
7176 7207 7206 7176 7177 7208 7207 7177 7178 
7209 7208 7178 7179 7210 7209 7179 7180 7211 
7210 7180 7181 7212 7211 7181 7182 7213 7212 
7182 7183 7214 7213 7183 7184 7215 7214 7184 
7185 7216 7215 7185 7186 7217 7216 7186 7187 
7218 7217 7187 7188 7219 7218 7188 7189 7220 
7219 7189 7190 7221 7220 7190 7191 7222 7221 
7192 7193 7224 7223 7193 7194 7225 7224 7194 
7195 7226 7225 7195 7196 7227 7226 7196 7197 
7228 7227 7197 7198 7229 7228 7198 7199 7230 
7229 7199 7200 7231 7230 7200 7201 7232 7231 
7201 7202 7233 7232 7202 7203 7234 7233 7203 
7204 7235 7234 7204 7205 7236 7235 7205 7206 
7237 7236 7206 7207 7238 7237 7207 7208 7239 
7238 7208 7209 7240 7239 7209 7210 7241 7240 
7210 7211 7242 7241 7211 7212 7243 7242 7212 
7213 7244 7243 7213 7214 7245 7244 7214 7215 
7246 7245 7215 7216 7247 7246 7216 7217 7248 
7247 7217 7218 7249 7248 7218 7219 7250 7249 
7219 7220 7251 7250 7220 7221 7252 7251 7221 
7222 7253 7252 7223 7224 7255 7254 7224 7225 
7256 7255 7225 7226 7257 7256 7226 7227 7258 
7257 7227 7228 7259 7258 7228 7229 7260 7259 
7229 7230 7261 7260 7230 7231 7262 7261 7231 
7232 7263 7262 7232 7233 7264 7263 7233 7234 
7265 7264 7234 7235 7266 7265 7235 7236 7267 
7266 7236 7237 7268 7267 7237 7238 7269 7268 
7238 7239 7270 7269 7239 7240 7271 7270 7240 
7241 7272 7271 7241 7242 7273 7272 7242 7243 
7274 7273 7243 7244 7275 7274 7244 7245 7276 
7275 7245 7246 7277 7276 7246 7247 7278 7277 
7247 7248 7279 7278 7248 7249 7280 7279 7249 
7250 7281 7280 7250 7251 7282 7281 7251 7252 
7283 7282 7252 7253 7284 7283 7254 7255 7286 
7285 7255 7256 7287 7286 7256 7257 7288 7287 
7257 7258 7289 7288 7258 7259 7290 7289 7259 
7260 7291 7290 7260 7261 7292 7291 7261 7262 
7293 7292 7262 7263 7294 7293 7263 7264 7295 
7294 7264 7265 7296 7295 7265 7266 7297 7296 
7266 7267 7298 7297 7267 7268 7299 7298 7268 
7269 7300 7299 7269 7270 7301 7300 7270 7271 
7302 7301 7271 7272 7303 7302 7272 7273 7304 
7303 7273 7274 7305 7304 7274 7275 7306 7305 
7275 7276 7307 7306 7276 7277 7308 7307 7277 
7278 7309 7308 7278 7279 7310 7309 7279 7280 
7311 7310 7280 7281 7312 7311 7281 7282 7313 
7312 7282 7283 7314 7313 7283 7284 7315 7314 
7285 7286 7317 7316 7286 7287 7318 7317 7287 
7288 7319 7318 7288 7289 7320 7319 7289 7290 
7321 7320 7290 7291 7322 7321 7291 7292 7323 
7322 7292 7293 7324 7323 7293 7294 7325 7324 
7294 7295 7326 7325 7295 7296 7327 7326 7296 
7297 7328 7327 7297 7298 7329 7328 7298 7299 
7330 7329 7299 7300 7331 7330 7300 7301 7332 
7331 7301 7302 7333 7332 7302 7303 7334 7333 
7303 7304 7335 7334 7304 7305 7336 7335 7305 
7306 7337 7336 7306 7307 7338 7337 7307 7308 
7339 7338 7308 7309 7340 7339 7309 7310 7341 
7340 7310 7311 7342 7341 7311 7312 7343 7342 
7312 7313 7344 7343 7313 7314 7345 7344 7314 
7315 7346 7345 7316 7317 7348 7347 7317 7318 
7349 7348 7318 7319 7350 7349 7319 7320 7351 
7350 7320 7321 7352 7351 7321 7322 7353 7352 
7322 7323 7354 7353 7323 7324 7355 7354 7324 
7325 7356 7355 7325 7326 7357 7356 7326 7327 
7358 7357 7327 7328 7359 7358 7328 7329 7360 
7359 7329 7330 7361 7360 7330 7331 7362 7361 
7331 7332 7363 7362 7332 7333 7364 7363 7333 
7334 7365 7364 7334 7335 7366 7365 7335 7336 
7367 7366 7336 7337 7368 7367 7337 7338 7369 
7368 7338 7339 7370 7369 7339 7340 7371 7370 
7340 7341 7372 7371 7341 7342 7373 7372 7342 
7343 7374 7373 7343 7344 7375 7374 7344 7345 
7376 7375 7345 7346 7377 7376 7347 7348 7379 
7378 7348 7349 7380 7379 7349 7350 7381 7380 
7350 7351 7382 7381 7351 7352 7383 7382 7352 
7353 7384 7383 7353 7354 7385 7384 7354 7355 
7386 7385 7355 7356 7387 7386 7356 7357 7388 
7387 7357 7358 7389 7388 7358 7359 7390 7389 
7359 7360 7391 7390 7360 7361 7392 7391 7361 
7362 7393 7392 7362 7363 7394 7393 7363 7364 
7395 7394 7364 7365 7396 7395 7365 7366 7397 
7396 7366 7367 7398 7397 7367 7368 7399 7398 
7368 7369 7400 7399 7369 7370 7401 7400 7370 
7371 7402 7401 7371 7372 7403 7402 7372 7373 
7404 7403 7373 7374 7405 7404 7374 7375 7406 
7405 7375 7376 7407 7406 7376 7377 7408 7407 
7378 7379 7410 7409 7379 7380 7411 7410 7380 
7381 7412 7411 7381 7382 7413 7412 7382 7383 
7414 7413 7383 7384 7415 7414 7384 7385 7416 
7415 7385 7386 7417 7416 7386 7387 7418 7417 
7387 7388 7419 7418 7388 7389 7420 7419 7389 
7390 7421 7420 7390 7391 7422 7421 7391 7392 
7423 7422 7392 7393 7424 7423 7393 7394 7425 
7424 7394 7395 7426 7425 7395 7396 7427 7426 
7396 7397 7428 7427 7397 7398 7429 7428 7398 
7399 7430 7429 7399 7400 7431 7430 7400 7401 
7432 7431 7401 7402 7433 7432 7402 7403 7434 
7433 7403 7404 7435 7434 7404 7405 7436 7435 
7405 7406 7437 7436 7406 7407 7438 7437 7407 
7408 7439 7438 7409 7410 7441 7440 7410 7411 
7442 7441 7411 7412 7443 7442 7412 7413 7444 
7443 7413 7414 7445 7444 7414 7415 7446 7445 
7415 7416 7447 7446 7416 7417 7448 7447 7417 
7418 7449 7448 7418 7419 7450 7449 7419 7420 
7451 7450 7420 7421 7452 7451 7421 7422 7453 
7452 7422 7423 7454 7453 7423 7424 7455 7454 
7424 7425 7456 7455 7425 7426 7457 7456 7426 
7427 7458 7457 7427 7428 7459 7458 7428 7429 
7460 7459 7429 7430 7461 7460 7430 7431 7462 
7461 7431 7432 7463 7462 7432 7433 7464 7463 
7433 7434 7465 7464 7434 7435 7466 7465 7435 
7436 7467 7466 7436 7437 7468 7467 7437 7438 
7469 7468 7438 7439 7470 7469 7440 7441 7472 
7471 7441 7442 7473 7472 7442 7443 7474 7473 
7443 7444 7475 7474 7444 7445 7476 7475 7445 
7446 7477 7476 7446 7447 7478 7477 7447 7448 
7479 7478 7448 7449 7480 7479 7449 7450 7481 
7480 7450 7451 7482 7481 7451 7452 7483 7482 
7452 7453 7484 7483 7453 7454 7485 7484 7454 
7455 7486 7485 7455 7456 7487 7486 7456 7457 
7488 7487 7457 7458 7489 7488 7458 7459 7490 
7489 7459 7460 7491 7490 7460 7461 7492 7491 
7461 7462 7493 7492 7462 7463 7494 7493 7463 
7464 7495 7494 7464 7465 7496 7495 7465 7466 
7497 7496 7466 7467 7498 7497 7467 7468 7499 
7498 7468 7469 7500 7499 7469 7470 7501 7500 
7471 7472 7503 7502 7472 7473 7504 7503 7473 
7474 7505 7504 7474 7475 7506 7505 7475 7476 
7507 7506 7476 7477 7508 7507 7477 7478 7509 
7508 7478 7479 7510 7509 7479 7480 7511 7510 
7480 7481 7512 7511 7481 7482 7513 7512 7482 
7483 7514 7513 7483 7484 7515 7514 7484 7485 
7516 7515 7485 7486 7517 7516 7486 7487 7518 
7517 7487 7488 7519 7518 7488 7489 7520 7519 
7489 7490 7521 7520 7490 7491 7522 7521 7491 
7492 7523 7522 7492 7493 7524 7523 7493 7494 
7525 7524 7494 7495 7526 7525 7495 7496 7527 
7526 7496 7497 7528 7527 7497 7498 7529 7528 
7498 7499 7530 7529 7499 7500 7531 7530 7500 
7501 7532 7531 7502 7503 7534 7533 7503 7504 
7535 7534 7504 7505 7536 7535 7505 7506 7537 
7536 7506 7507 7538 7537 7507 7508 7539 7538 
7508 7509 7540 7539 7509 7510 7541 7540 7510 
7511 7542 7541 7511 7512 7543 7542 7512 7513 
7544 7543 7513 7514 7545 7544 7514 7515 7546 
7545 7515 7516 7547 7546 7516 7517 7548 7547 
7517 7518 7549 7548 7518 7519 7550 7549 7519 
7520 7551 7550 7520 7521 7552 7551 7521 7522 
7553 7552 7522 7523 7554 7553 7523 7524 7555 
7554 7524 7525 7556 7555 7525 7526 7557 7556 
7526 7527 7558 7557 7527 7528 7559 7558 7528 
7529 7560 7559 7529 7530 7561 7560 7530 7531 
7562 7561 7531 7532 7563 7562 7533 7534 7565 
7564 7534 7535 7566 7565 7535 7536 7567 7566 
7536 7537 7568 7567 7537 7538 7569 7568 7538 
7539 7570 7569 7539 7540 7571 7570 7540 7541 
7572 7571 7541 7542 7573 7572 7542 7543 7574 
7573 7543 7544 7575 7574 7544 7545 7576 7575 
7545 7546 7577 7576 7546 7547 7578 7577 7547 
7548 7579 7578 7548 7549 7580 7579 7549 7550 
7581 7580 7550 7551 7582 7581 7551 7552 7583 
7582 7552 7553 7584 7583 7553 7554 7585 7584 
7554 7555 7586 7585 7555 7556 7587 7586 7556 
7557 7588 7587 7557 7558 7589 7588 7558 7559 
7590 7589 7559 7560 7591 7590 7560 7561 7592 
7591 7561 7562 7593 7592 7562 7563 7594 7593 
7564 7565 7596 7595 7565 7566 7597 7596 7566 
7567 7598 7597 7567 7568 7599 7598 7568 7569 
7600 7599 7569 7570 7601 7600 7570 7571 7602 
7601 7571 7572 7603 7602 7572 7573 7604 7603 
7573 7574 7605 7604 7574 7575 7606 7605 7575 
7576 7607 7606 7576 7577 7608 7607 7577 7578 
7609 7608 7578 7579 7610 7609 7579 7580 7611 
7610 7580 7581 7612 7611 7581 7582 7613 7612 
7582 7583 7614 7613 7583 7584 7615 7614 7584 
7585 7616 7615 7585 7586 7617 7616 7586 7587 
7618 7617 7587 7588 7619 7618 7588 7589 7620 
7619 7589 7590 7621 7620 7590 7591 7622 7621 
7591 7592 7623 7622 7592 7593 7624 7623 7593 
7594 7625 7624 7595 7596 7627 7626 7596 7597 
7628 7627 7597 7598 7629 7628 7598 7599 7630 
7629 7599 7600 7631 7630 7600 7601 7632 7631 
7601 7602 7633 7632 7602 7603 7634 7633 7603 
7604 7635 7634 7604 7605 7636 7635 7605 7606 
7637 7636 7606 7607 7638 7637 7607 7608 7639 
7638 7608 7609 7640 7639 7609 7610 7641 7640 
7610 7611 7642 7641 7611 7612 7643 7642 7612 
7613 7644 7643 7613 7614 7645 7644 7614 7615 
7646 7645 7615 7616 7647 7646 7616 7617 7648 
7647 7617 7618 7649 7648 7618 7619 7650 7649 
7619 7620 7651 7650 7620 7621 7652 7651 7621 
7622 7653 7652 7622 7623 7654 7653 7623 7624 
7655 7654 7624 7625 7656 7655 7626 7627 7658 
7657 7627 7628 7659 7658 7628 7629 7660 7659 
7629 7630 7661 7660 7630 7631 7662 7661 7631 
7632 7663 7662 7632 7633 7664 7663 7633 7634 
7665 7664 7634 7635 7666 7665 7635 7636 7667 
7666 7636 7637 7668 7667 7637 7638 7669 7668 
7638 7639 7670 7669 7639 7640 7671 7670 7640 
7641 7672 7671 7641 7642 7673 7672 7642 7643 
7674 7673 7643 7644 7675 7674 7644 7645 7676 
7675 7645 7646 7677 7676 7646 7647 7678 7677 
7647 7648 7679 7678 7648 7649 7680 7679 7649 
7650 7681 7680 7650 7651 7682 7681 7651 7652 
7683 7682 7652 7653 7684 7683 7653 7654 7685 
7684 7654 7655 7686 7685 7655 7656 7687 7686 
7657 7658 7689 7688 7658 7659 7690 7689 7659 
7660 7691 7690 7660 7661 7692 7691 7661 7662 
7693 7692 7662 7663 7694 7693 7663 7664 7695 
7694 7664 7665 7696 7695 7665 7666 7697 7696 
7666 7667 7698 7697 7667 7668 7699 7698 7668 
7669 7700 7699 7669 7670 7701 7700 7670 7671 
7702 7701 7671 7672 7703 7702 7672 7673 7704 
7703 7673 7674 7705 7704 7674 7675 7706 7705 
7675 7676 7707 7706 7676 7677 7708 7707 7677 
7678 7709 7708 7678 7679 7710 7709 7679 7680 
7711 7710 7680 7681 7712 7711 7681 7682 7713 
7712 7682 7683 7714 7713 7683 7684 7715 7714 
7684 7685 7716 7715 7685 7686 7717 7716 7686 
7687 7718 7717 7688 7689 7720 7719 7689 7690 
7721 7720 7690 7691 7722 7721 7691 7692 7723 
7722 7692 7693 7724 7723 7693 7694 7725 7724 
7694 7695 7726 7725 7695 7696 7727 7726 7696 
7697 7728 7727 7697 7698 7729 7728 7698 7699 
7730 7729 7699 7700 7731 7730 7700 7701 7732 
7731 7701 7702 7733 7732 7702 7703 7734 7733 
7703 7704 7735 7734 7704 7705 7736 7735 7705 
7706 7737 7736 7706 7707 7738 7737 7707 7708 
7739 7738 7708 7709 7740 7739 7709 7710 7741 
7740 7710 7711 7742 7741 7711 7712 7743 7742 
7712 7713 7744 7743 7713 7714 7745 7744 7714 
7715 7746 7745 7715 7716 7747 7746 7716 7717 
7748 7747 7717 7718 7749 7748 7719 7720 7751 
7750 7720 7721 7752 7751 7721 7722 7753 7752 
7722 7723 7754 7753 7723 7724 7755 7754 7724 
7725 7756 7755 7725 7726 7757 7756 7726 7727 
7758 7757 7727 7728 7759 7758 7728 7729 7760 
7759 7729 7730 7761 7760 7730 7731 7762 7761 
7731 7732 7763 7762 7732 7733 7764 7763 7733 
7734 7765 7764 7734 7735 7766 7765 7735 7736 
7767 7766 7736 7737 7768 7767 7737 7738 7769 
7768 7738 7739 7770 7769 7739 7740 7771 7770 
7740 7741 7772 7771 7741 7742 7773 7772 7742 
7743 7774 7773 7743 7744 7775 7774 7744 7745 
7776 7775 7745 7746 7777 7776 7746 7747 7778 
7777 7747 7748 7779 7778 7748 7749 7780 7779 
7750 7751 7782 7781 7751 7752 7783 7782 7752 
7753 7784 7783 7753 7754 7785 7784 7754 7755 
7786 7785 7755 7756 7787 7786 7756 7757 7788 
7787 7757 7758 7789 7788 7758 7759 7790 7789 
7759 7760 7791 7790 7760 7761 7792 7791 7761 
7762 7793 7792 7762 7763 7794 7793 7763 7764 
7795 7794 7764 7765 7796 7795 7765 7766 7797 
7796 7766 7767 7798 7797 7767 7768 7799 7798 
7768 7769 7800 7799 7769 7770 7801 7800 7770 
7771 7802 7801 7771 7772 7803 7802 7772 7773 
7804 7803 7773 7774 7805 7804 7774 7775 7806 
7805 7775 7776 7807 7806 7776 7777 7808 7807 
7777 7778 7809 7808 7778 7779 7810 7809 7779 
7780 7811 7810 7781 7782 7813 7812 7782 7783 
7814 7813 7783 7784 7815 7814 7784 7785 7816 
7815 7785 7786 7817 7816 7786 7787 7818 7817 
7787 7788 7819 7818 7788 7789 7820 7819 7789 
7790 7821 7820 7790 7791 7822 7821 7791 7792 
7823 7822 7792 7793 7824 7823 7793 7794 7825 
7824 7794 7795 7826 7825 7795 7796 7827 7826 
7796 7797 7828 7827 7797 7798 7829 7828 7798 
7799 7830 7829 7799 7800 7831 7830 7800 7801 
7832 7831 7801 7802 7833 7832 7802 7803 7834 
7833 7803 7804 7835 7834 7804 7805 7836 7835 
7805 7806 7837 7836 7806 7807 7838 7837 7807 
7808 7839 7838 7808 7809 7840 7839 7809 7810 
7841 7840 7810 7811 7842 7841 7812 7813 7844 
7843 7813 7814 7845 7844 7814 7815 7846 7845 
7815 7816 7847 7846 7816 7817 7848 7847 7817 
7818 7849 7848 7818 7819 7850 7849 7819 7820 
7851 7850 7820 7821 7852 7851 7821 7822 7853 
7852 7822 7823 7854 7853 7823 7824 7855 7854 
7824 7825 7856 7855 7825 7826 7857 7856 7826 
7827 7858 7857 7827 7828 7859 7858 7828 7829 
7860 7859 7829 7830 7861 7860 7830 7831 7862 
7861 7831 7832 7863 7862 7832 7833 7864 7863 
7833 7834 7865 7864 7834 7835 7866 7865 7835 
7836 7867 7866 7836 7837 7868 7867 7837 7838 
7869 7868 7838 7839 7870 7869 7839 7840 7871 
7870 7840 7841 7872 7871 7841 7842 7873 7872 
7843 7844 7875 7874 7844 7845 7876 7875 7845 
7846 7877 7876 7846 7847 7878 7877 7847 7848 
7879 7878 7848 7849 7880 7879 7849 7850 7881 
7880 7850 7851 7882 7881 7851 7852 7883 7882 
7852 7853 7884 7883 7853 7854 7885 7884 7854 
7855 7886 7885 7855 7856 7887 7886 7856 7857 
7888 7887 7857 7858 7889 7888 7858 7859 7890 
7889 7859 7860 7891 7890 7860 7861 7892 7891 
7861 7862 7893 7892 7862 7863 7894 7893 7863 
7864 7895 7894 7864 7865 7896 7895 7865 7866 
7897 7896 7866 7867 7898 7897 7867 7868 7899 
7898 7868 7869 7900 7899 7869 7870 7901 7900 
7870 7871 7902 7901 7871 7872 7903 7902 7872 
7873 7904 7903 7874 7875 7906 7905 7875 7876 
7907 7906 7876 7877 7908 7907 7877 7878 7909 
7908 7878 7879 7910 7909 7879 7880 7911 7910 
7880 7881 7912 7911 7881 7882 7913 7912 7882 
7883 7914 7913 7883 7884 7915 7914 7884 7885 
7916 7915 7885 7886 7917 7916 7886 7887 7918 
7917 7887 7888 7919 7918 7888 7889 7920 7919 
7889 7890 7921 7920 7890 7891 7922 7921 7891 
7892 7923 7922 7892 7893 7924 7923 7893 7894 
7925 7924 7894 7895 7926 7925 7895 7896 7927 
7926 7896 7897 7928 7927 7897 7898 7929 7928 
7898 7899 7930 7929 7899 7900 7931 7930 7900 
7901 7932 7931 7901 7902 7933 7932 7902 7903 
7934 7933 7903 7904 7935 7934 7905 7906 7937 
7936 7906 7907 7938 7937 7907 7908 7939 7938 
7908 7909 7940 7939 7909 7910 7941 7940 7910 
7911 7942 7941 7911 7912 7943 7942 7912 7913 
7944 7943 7913 7914 7945 7944 7914 7915 7946 
7945 7915 7916 7947 7946 7916 7917 7948 7947 
7917 7918 7949 7948 7918 7919 7950 7949 7919 
7920 7951 7950 7920 7921 7952 7951 7921 7922 
7953 7952 7922 7923 7954 7953 7923 7924 7955 
7954 7924 7925 7956 7955 7925 7926 7957 7956 
7926 7927 7958 7957 7927 7928 7959 7958 7928 
7929 7960 7959 7929 7930 7961 7960 7930 7931 
7962 7961 7931 7932 7963 7962 7932 7933 7964 
7963 7933 7934 7965 7964 7934 7935 7966 7965 
7936 7937 7968 7967 7937 7938 7969 7968 7938 
7939 7970 7969 7939 7940 7971 7970 7940 7941 
7972 7971 7941 7942 7973 7972 7942 7943 7974 
7973 7943 7944 7975 7974 7944 7945 7976 7975 
7945 7946 7977 7976 7946 7947 7978 7977 7947 
7948 7979 7978 7948 7949 7980 7979 7949 7950 
7981 7980 7950 7951 7982 7981 7951 7952 7983 
7982 7952 7953 7984 7983 7953 7954 7985 7984 
7954 7955 7986 7985 7955 7956 7987 7986 7956 
7957 7988 7987 7957 7958 7989 7988 7958 7959 
7990 7989 7959 7960 7991 7990 7960 7961 7992 
7991 7961 7962 7993 7992 7962 7963 7994 7993 
7963 7964 7995 7994 7964 7965 7996 7995 7965 
7966 7997 7996 7967 7968 7999 7998 7968 7969 
8000 7999 7969 7970 8001 8000 7970 7971 8002 
8001 7971 7972 8003 8002 7972 7973 8004 8003 
7973 7974 8005 8004 7974 7975 8006 8005 7975 
7976 8007 8006 7976 7977 8008 8007 7977 7978 
8009 8008 7978 7979 8010 8009 7979 7980 8011 
8010 7980 7981 8012 8011 7981 7982 8013 8012 
7982 7983 8014 8013 7983 7984 8015 8014 7984 
7985 8016 8015 7985 7986 8017 8016 7986 7987 
8018 8017 7987 7988 8019 8018 7988 7989 8020 
8019 7989 7990 8021 8020 7990 7991 8022 8021 
7991 7992 8023 8022 7992 7993 8024 8023 7993 
7994 8025 8024 7994 7995 8026 8025 7995 7996 
8027 8026 7996 7997 8028 8027 7998 7999 8030 
8029 7999 8000 8031 8030 8000 8001 8032 8031 
8001 8002 8033 8032 8002 8003 8034 8033 8003 
8004 8035 8034 8004 8005 8036 8035 8005 8006 
8037 8036 8006 8007 8038 8037 8007 8008 8039 
8038 8008 8009 8040 8039 8009 8010 8041 8040 
8010 8011 8042 8041 8011 8012 8043 8042 8012 
8013 8044 8043 8013 8014 8045 8044 8014 8015 
8046 8045 8015 8016 8047 8046 8016 8017 8048 
8047 8017 8018 8049 8048 8018 8019 8050 8049 
8019 8020 8051 8050 8020 8021 8052 8051 8021 
8022 8053 8052 8022 8023 8054 8053 8023 8024 
8055 8054 8024 8025 8056 8055 8025 8026 8057 
8056 8026 8027 8058 8057 8027 8028 8059 8058 
8029 8030 8061 8060 8030 8031 8062 8061 8031 
8032 8063 8062 8032 8033 8064 8063 8033 8034 
8065 8064 8034 8035 8066 8065 8035 8036 8067 
8066 8036 8037 8068 8067 8037 8038 8069 8068 
8038 8039 8070 8069 8039 8040 8071 8070 8040 
8041 8072 8071 8041 8042 8073 8072 8042 8043 
8074 8073 8043 8044 8075 8074 8044 8045 8076 
8075 8045 8046 8077 8076 8046 8047 8078 8077 
8047 8048 8079 8078 8048 8049 8080 8079 8049 
8050 8081 8080 8050 8051 8082 8081 8051 8052 
8083 8082 8052 8053 8084 8083 8053 8054 8085 
8084 8054 8055 8086 8085 8055 8056 8087 8086 
8056 8057 8088 8087 8057 8058 8089 8088 8058 
8059 8090 8089 8060 8061 8092 8091 8061 8062 
8093 8092 8062 8063 8094 8093 8063 8064 8095 
8094 8064 8065 8096 8095 8065 8066 8097 8096 
8066 8067 8098 8097 8067 8068 8099 8098 8068 
8069 8100 8099 8069 8070 8101 8100 8070 8071 
8102 8101 8071 8072 8103 8102 8072 8073 8104 
8103 8073 8074 8105 8104 8074 8075 8106 8105 
8075 8076 8107 8106 8076 8077 8108 8107 8077 
8078 8109 8108 8078 8079 8110 8109 8079 8080 
8111 8110 8080 8081 8112 8111 8081 8082 8113 
8112 8082 8083 8114 8113 8083 8084 8115 8114 
8084 8085 8116 8115 8085 8086 8117 8116 8086 
8087 8118 8117 8087 8088 8119 8118 8088 8089 
8120 8119 8089 8090 8121 8120 8091 8092 8123 
8122 8092 8093 8124 8123 8093 8094 8125 8124 
8094 8095 8126 8125 8095 8096 8127 8126 8096 
8097 8128 8127 8097 8098 8129 8128 8098 8099 
8130 8129 8099 8100 8131 8130 8100 8101 8132 
8131 8101 8102 8133 8132 8102 8103 8134 8133 
8103 8104 8135 8134 8104 8105 8136 8135 8105 
8106 8137 8136 8106 8107 8138 8137 8107 8108 
8139 8138 8108 8109 8140 8139 8109 8110 8141 
8140 8110 8111 8142 8141 8111 8112 8143 8142 
8112 8113 8144 8143 8113 8114 8145 8144 8114 
8115 8146 8145 8115 8116 8147 8146 8116 8117 
8148 8147 8117 8118 8149 8148 8118 8119 8150 
8149 8119 8120 8151 8150 8120 8121 8152 8151 
8122 8123 8154 8153 8123 8124 8155 8154 8124 
8125 8156 8155 8125 8126 8157 8156 8126 8127 
8158 8157 8127 8128 8159 8158 8128 8129 8160 
8159 8129 8130 8161 8160 8130 8131 8162 8161 
8131 8132 8163 8162 8132 8133 8164 8163 8133 
8134 8165 8164 8134 8135 8166 8165 8135 8136 
8167 8166 8136 8137 8168 8167 8137 8138 8169 
8168 8138 8139 8170 8169 8139 8140 8171 8170 
8140 8141 8172 8171 8141 8142 8173 8172 8142 
8143 8174 8173 8143 8144 8175 8174 8144 8145 
8176 8175 8145 8146 8177 8176 8146 8147 8178 
8177 8147 8148 8179 8178 8148 8149 8180 8179 
8149 8150 8181 8180 8150 8151 8182 8181 8151 
8152 8183 8182 8153 8154 8185 8184 8154 8155 
8186 8185 8155 8156 8187 8186 8156 8157 8188 
8187 8157 8158 8189 8188 8158 8159 8190 8189 
8159 8160 8191 8190 8160 8161 8192 8191 8161 
8162 8193 8192 8162 8163 8194 8193 8163 8164 
8195 8194 8164 8165 8196 8195 8165 8166 8197 
8196 8166 8167 8198 8197 8167 8168 8199 8198 
8168 8169 8200 8199 8169 8170 8201 8200 8170 
8171 8202 8201 8171 8172 8203 8202 8172 8173 
8204 8203 8173 8174 8205 8204 8174 8175 8206 
8205 8175 8176 8207 8206 8176 8177 8208 8207 
8177 8178 8209 8208 8178 8179 8210 8209 8179 
8180 8211 8210 8180 8181 8212 8211 8181 8182 
8213 8212 8182 8183 8214 8213 8184 8185 8216 
8215 8185 8186 8217 8216 8186 8187 8218 8217 
8187 8188 8219 8218 8188 8189 8220 8219 8189 
8190 8221 8220 8190 8191 8222 8221 8191 8192 
8223 8222 8192 8193 8224 8223 8193 8194 8225 
8224 8194 8195 8226 8225 8195 8196 8227 8226 
8196 8197 8228 8227 8197 8198 8229 8228 8198 
8199 8230 8229 8199 8200 8231 8230 8200 8201 
8232 8231 8201 8202 8233 8232 8202 8203 8234 
8233 8203 8204 8235 8234 8204 8205 8236 8235 
8205 8206 8237 8236 8206 8207 8238 8237 8207 
8208 8239 8238 8208 8209 8240 8239 8209 8210 
8241 8240 8210 8211 8242 8241 8211 8212 8243 
8242 8212 8213 8244 8243 8213 8214 8245 8244 
8215 8216 8247 8246 8216 8217 8248 8247 8217 
8218 8249 8248 8218 8219 8250 8249 8219 8220 
8251 8250 8220 8221 8252 8251 8221 8222 8253 
8252 8222 8223 8254 8253 8223 8224 8255 8254 
8224 8225 8256 8255 8225 8226 8257 8256 8226 
8227 8258 8257 8227 8228 8259 8258 8228 8229 
8260 8259 8229 8230 8261 8260 8230 8231 8262 
8261 8231 8232 8263 8262 8232 8233 8264 8263 
8233 8234 8265 8264 8234 8235 8266 8265 8235 
8236 8267 8266 8236 8237 8268 8267 8237 8238 
8269 8268 8238 8239 8270 8269 8239 8240 8271 
8270 8240 8241 8272 8271 8241 8242 8273 8272 
8242 8243 8274 8273 8243 8244 8275 8274 8244 
8245 8276 8275 8246 8247 8278 8277 8247 8248 
8279 8278 8248 8249 8280 8279 8249 8250 8281 
8280 8250 8251 8282 8281 8251 8252 8283 8282 
8252 8253 8284 8283 8253 8254 8285 8284 8254 
8255 8286 8285 8255 8256 8287 8286 8256 8257 
8288 8287 8257 8258 8289 8288 8258 8259 8290 
8289 8259 8260 8291 8290 8260 8261 8292 8291 
8261 8262 8293 8292 8262 8263 8294 8293 8263 
8264 8295 8294 8264 8265 8296 8295 8265 8266 
8297 8296 8266 8267 8298 8297 8267 8268 8299 
8298 8268 8269 8300 8299 8269 8270 8301 8300 
8270 8271 8302 8301 8271 8272 8303 8302 8272 
8273 8304 8303 8273 8274 8305 8304 8274 8275 
8306 8305 8275 8276 8307 8306 8277 8278 8309 
8308 8278 8279 8310 8309 8279 8280 8311 8310 
8280 8281 8312 8311 8281 8282 8313 8312 8282 
8283 8314 8313 8283 8284 8315 8314 8284 8285 
8316 8315 8285 8286 8317 8316 8286 8287 8318 
8317 8287 8288 8319 8318 8288 8289 8320 8319 
8289 8290 8321 8320 8290 8291 8322 8321 8291 
8292 8323 8322 8292 8293 8324 8323 8293 8294 
8325 8324 8294 8295 8326 8325 8295 8296 8327 
8326 8296 8297 8328 8327 8297 8298 8329 8328 
8298 8299 8330 8329 8299 8300 8331 8330 8300 
8301 8332 8331 8301 8302 8333 8332 8302 8303 
8334 8333 8303 8304 8335 8334 8304 8305 8336 
8335 8305 8306 8337 8336 8306 8307 8338 8337 
8308 8309 8340 8339 8309 8310 8341 8340 8310 
8311 8342 8341 8311 8312 8343 8342 8312 8313 
8344 8343 8313 8314 8345 8344 8314 8315 8346 
8345 8315 8316 8347 8346 8316 8317 8348 8347 
8317 8318 8349 8348 8318 8319 8350 8349 8319 
8320 8351 8350 8320 8321 8352 8351 8321 8322 
8353 8352 8322 8323 8354 8353 8323 8324 8355 
8354 8324 8325 8356 8355 8325 8326 8357 8356 
8326 8327 8358 8357 8327 8328 8359 8358 8328 
8329 8360 8359 8329 8330 8361 8360 8330 8331 
8362 8361 8331 8332 8363 8362 8332 8333 8364 
8363 8333 8334 8365 8364 8334 8335 8366 8365 
8335 8336 8367 8366 8336 8337 8368 8367 8337 
8338 8369 8368 8339 8340 8371 8370 8340 8341 
8372 8371 8341 8342 8373 8372 8342 8343 8374 
8373 8343 8344 8375 8374 8344 8345 8376 8375 
8345 8346 8377 8376 8346 8347 8378 8377 8347 
8348 8379 8378 8348 8349 8380 8379 8349 8350 
8381 8380 8350 8351 8382 8381 8351 8352 8383 
8382 8352 8353 8384 8383 8353 8354 8385 8384 
8354 8355 8386 8385 8355 8356 8387 8386 8356 
8357 8388 8387 8357 8358 8389 8388 8358 8359 
8390 8389 8359 8360 8391 8390 8360 8361 8392 
8391 8361 8362 8393 8392 8362 8363 8394 8393 
8363 8364 8395 8394 8364 8365 8396 8395 8365 
8366 8397 8396 8366 8367 8398 8397 8367 8368 
8399 8398 8368 8369 8400 8399 8370 8371 8402 
8401 8371 8372 8403 8402 8372 8373 8404 8403 
8373 8374 8405 8404 8374 8375 8406 8405 8375 
8376 8407 8406 8376 8377 8408 8407 8377 8378 
8409 8408 8378 8379 8410 8409 8379 8380 8411 
8410 8380 8381 8412 8411 8381 8382 8413 8412 
8382 8383 8414 8413 8383 8384 8415 8414 8384 
8385 8416 8415 8385 8386 8417 8416 8386 8387 
8418 8417 8387 8388 8419 8418 8388 8389 8420 
8419 8389 8390 8421 8420 8390 8391 8422 8421 
8391 8392 8423 8422 8392 8393 8424 8423 8393 
8394 8425 8424 8394 8395 8426 8425 8395 8396 
8427 8426 8396 8397 8428 8427 8397 8398 8429 
8428 8398 8399 8430 8429 8399 8400 8431 8430 
8401 8402 8433 8432 8402 8403 8434 8433 8403 
8404 8435 8434 8404 8405 8436 8435 8405 8406 
8437 8436 8406 8407 8438 8437 8407 8408 8439 
8438 8408 8409 8440 8439 8409 8410 8441 8440 
8410 8411 8442 8441 8411 8412 8443 8442 8412 
8413 8444 8443 8413 8414 8445 8444 8414 8415 
8446 8445 8415 8416 8447 8446 8416 8417 8448 
8447 8417 8418 8449 8448 8418 8419 8450 8449 
8419 8420 8451 8450 8420 8421 8452 8451 8421 
8422 8453 8452 8422 8423 8454 8453 8423 8424 
8455 8454 8424 8425 8456 8455 8425 8426 8457 
8456 8426 8427 8458 8457 8427 8428 8459 8458 
8428 8429 8460 8459 8429 8430 8461 8460 8430 
8431 8462 8461 8432 8433 8464 8463 8433 8434 
8465 8464 8434 8435 8466 8465 8435 8436 8467 
8466 8436 8437 8468 8467 8437 8438 8469 8468 
8438 8439 8470 8469 8439 8440 8471 8470 8440 
8441 8472 8471 8441 8442 8473 8472 8442 8443 
8474 8473 8443 8444 8475 8474 8444 8445 8476 
8475 8445 8446 8477 8476 8446 8447 8478 8477 
8447 8448 8479 8478 8448 8449 8480 8479 8449 
8450 8481 8480 8450 8451 8482 8481 8451 8452 
8483 8482 8452 8453 8484 8483 8453 8454 8485 
8484 8454 8455 8486 8485 8455 8456 8487 8486 
8456 8457 8488 8487 8457 8458 8489 8488 8458 
8459 8490 8489 8459 8460 8491 8490 8460 8461 
8492 8491 8461 8462 8493 8492 8463 8464 8495 
8494 8464 8465 8496 8495 8465 8466 8497 8496 
8466 8467 8498 8497 8467 8468 8499 8498 8468 
8469 8500 8499 8469 8470 8501 8500 8470 8471 
8502 8501 8471 8472 8503 8502 8472 8473 8504 
8503 8473 8474 8505 8504 8474 8475 8506 8505 
8475 8476 8507 8506 8476 8477 8508 8507 8477 
8478 8509 8508 8478 8479 8510 8509 8479 8480 
8511 8510 8480 8481 8512 8511 8481 8482 8513 
8512 8482 8483 8514 8513 8483 8484 8515 8514 
8484 8485 8516 8515 8485 8486 8517 8516 8486 
8487 8518 8517 8487 8488 8519 8518 8488 8489 
8520 8519 8489 8490 8521 8520 8490 8491 8522 
8521 8491 8492 8523 8522 8492 8493 8524 8523 
8494 8495 8526 8525 8495 8496 8527 8526 8496 
8497 8528 8527 8497 8498 8529 8528 8498 8499 
8530 8529 8499 8500 8531 8530 8500 8501 8532 
8531 8501 8502 8533 8532 8502 8503 8534 8533 
8503 8504 8535 8534 8504 8505 8536 8535 8505 
8506 8537 8536 8506 8507 8538 8537 8507 8508 
8539 8538 8508 8509 8540 8539 8509 8510 8541 
8540 8510 8511 8542 8541 8511 8512 8543 8542 
8512 8513 8544 8543 8513 8514 8545 8544 8514 
8515 8546 8545 8515 8516 8547 8546 8516 8517 
8548 8547 8517 8518 8549 8548 8518 8519 8550 
8549 8519 8520 8551 8550 8520 8521 8552 8551 
8521 8522 8553 8552 8522 8523 8554 8553 8523 
8524 8555 8554 8525 8526 8557 8556 8526 8527 
8558 8557 8527 8528 8559 8558 8528 8529 8560 
8559 8529 8530 8561 8560 8530 8531 8562 8561 
8531 8532 8563 8562 8532 8533 8564 8563 8533 
8534 8565 8564 8534 8535 8566 8565 8535 8536 
8567 8566 8536 8537 8568 8567 8537 8538 8569 
8568 8538 8539 8570 8569 8539 8540 8571 8570 
8540 8541 8572 8571 8541 8542 8573 8572 8542 
8543 8574 8573 8543 8544 8575 8574 8544 8545 
8576 8575 8545 8546 8577 8576 8546 8547 8578 
8577 8547 8548 8579 8578 8548 8549 8580 8579 
8549 8550 8581 8580 8550 8551 8582 8581 8551 
8552 8583 8582 8552 8553 8584 8583 8553 8554 
8585 8584 8554 8555 8586 8585 8556 8557 8588 
8587 8557 8558 8589 8588 8558 8559 8590 8589 
8559 8560 8591 8590 8560 8561 8592 8591 8561 
8562 8593 8592 8562 8563 8594 8593 8563 8564 
8595 8594 8564 8565 8596 8595 8565 8566 8597 
8596 8566 8567 8598 8597 8567 8568 8599 8598 
8568 8569 8600 8599 8569 8570 8601 8600 8570 
8571 8602 8601 8571 8572 8603 8602 8572 8573 
8604 8603 8573 8574 8605 8604 8574 8575 8606 
8605 8575 8576 8607 8606 8576 8577 8608 8607 
8577 8578 8609 8608 8578 8579 8610 8609 8579 
8580 8611 8610 8580 8581 8612 8611 8581 8582 
8613 8612 8582 8583 8614 8613 8583 8584 8615 
8614 8584 8585 8616 8615 8585 8586 8617 8616 
8587 8588 8619 8618 8588 8589 8620 8619 8589 
8590 8621 8620 8590 8591 8622 8621 8591 8592 
8623 8622 8592 8593 8624 8623 8593 8594 8625 
8624 8594 8595 8626 8625 8595 8596 8627 8626 
8596 8597 8628 8627 8597 8598 8629 8628 8598 
8599 8630 8629 8599 8600 8631 8630 8600 8601 
8632 8631 8601 8602 8633 8632 8602 8603 8634 
8633 8603 8604 8635 8634 8604 8605 8636 8635 
8605 8606 8637 8636 8606 8607 8638 8637 8607 
8608 8639 8638 8608 8609 8640 8639 8609 8610 
8641 8640 8610 8611 8642 8641 8611 8612 8643 
8642 8612 8613 8644 8643 8613 8614 8645 8644 
8614 8615 8646 8645 8615 8616 8647 8646 8616 
8617 8648 8647 8618 8619 8650 8649 8619 8620 
8651 8650 8620 8621 8652 8651 8621 8622 8653 
8652 8622 8623 8654 8653 8623 8624 8655 8654 
8624 8625 8656 8655 8625 8626 8657 8656 8626 
8627 8658 8657 8627 8628 8659 8658 8628 8629 
8660 8659 8629 8630 8661 8660 8630 8631 8662 
8661 8631 8632 8663 8662 8632 8633 8664 8663 
8633 8634 8665 8664 8634 8635 8666 8665 8635 
8636 8667 8666 8636 8637 8668 8667 8637 8638 
8669 8668 8638 8639 8670 8669 8639 8640 8671 
8670 8640 8641 8672 8671 8641 8642 8673 8672 
8642 8643 8674 8673 8643 8644 8675 8674 8644 
8645 8676 8675 8645 8646 8677 8676 8646 8647 
8678 8677 8647 8648 8679 8678 8649 8650 8681 
8680 8650 8651 8682 8681 8651 8652 8683 8682 
8652 8653 8684 8683 8653 8654 8685 8684 8654 
8655 8686 8685 8655 8656 8687 8686 8656 8657 
8688 8687 8657 8658 8689 8688 8658 8659 8690 
8689 8659 8660 8691 8690 8660 8661 8692 8691 
8661 8662 8693 8692 8662 8663 8694 8693 8663 
8664 8695 8694 8664 8665 8696 8695 8665 8666 
8697 8696 8666 8667 8698 8697 8667 8668 8699 
8698 8668 8669 8700 8699 8669 8670 8701 8700 
8670 8671 8702 8701 8671 8672 8703 8702 8672 
8673 8704 8703 8673 8674 8705 8704 8674 8675 
8706 8705 8675 8676 8707 8706 8676 8677 8708 
8707 8677 8678 8709 8708 8678 8679 8710 8709 
8680 8681 8712 8711 8681 8682 8713 8712 8682 
8683 8714 8713 8683 8684 8715 8714 8684 8685 
8716 8715 8685 8686 8717 8716 8686 8687 8718 
8717 8687 8688 8719 8718 8688 8689 8720 8719 
8689 8690 8721 8720 8690 8691 8722 8721 8691 
8692 8723 8722 8692 8693 8724 8723 8693 8694 
8725 8724 8694 8695 8726 8725 8695 8696 8727 
8726 8696 8697 8728 8727 8697 8698 8729 8728 
8698 8699 8730 8729 8699 8700 8731 8730 8700 
8701 8732 8731 8701 8702 8733 8732 8702 8703 
8734 8733 8703 8704 8735 8734 8704 8705 8736 
8735 8705 8706 8737 8736 8706 8707 8738 8737 
8707 8708 8739 8738 8708 8709 8740 8739 8709 
8710 8741 8740 8711 8712 8743 8742 8712 8713 
8744 8743 8713 8714 8745 8744 8714 8715 8746 
8745 8715 8716 8747 8746 8716 8717 8748 8747 
8717 8718 8749 8748 8718 8719 8750 8749 8719 
8720 8751 8750 8720 8721 8752 8751 8721 8722 
8753 8752 8722 8723 8754 8753 8723 8724 8755 
8754 8724 8725 8756 8755 8725 8726 8757 8756 
8726 8727 8758 8757 8727 8728 8759 8758 8728 
8729 8760 8759 8729 8730 8761 8760 8730 8731 
8762 8761 8731 8732 8763 8762 8732 8733 8764 
8763 8733 8734 8765 8764 8734 8735 8766 8765 
8735 8736 8767 8766 8736 8737 8768 8767 8737 
8738 8769 8768 8738 8739 8770 8769 8739 8740 
8771 8770 8740 8741 8772 8771 8742 8743 8774 
8773 8743 8744 8775 8774 8744 8745 8776 8775 
8745 8746 8777 8776 8746 8747 8778 8777 8747 
8748 8779 8778 8748 8749 8780 8779 8749 8750 
8781 8780 8750 8751 8782 8781 8751 8752 8783 
8782 8752 8753 8784 8783 8753 8754 8785 8784 
8754 8755 8786 8785 8755 8756 8787 8786 8756 
8757 8788 8787 8757 8758 8789 8788 8758 8759 
8790 8789 8759 8760 8791 8790 8760 8761 8792 
8791 8761 8762 8793 8792 8762 8763 8794 8793 
8763 8764 8795 8794 8764 8765 8796 8795 8765 
8766 8797 8796 8766 8767 8798 8797 8767 8768 
8799 8798 8768 8769 8800 8799 8769 8770 8801 
8800 8770 8771 8802 8801 8771 8772 8803 8802 
8773 8774 8805 8804 8774 8775 8806 8805 8775 
8776 8807 8806 8776 8777 8808 8807 8777 8778 
8809 8808 8778 8779 8810 8809 8779 8780 8811 
8810 8780 8781 8812 8811 8781 8782 8813 8812 
8782 8783 8814 8813 8783 8784 8815 8814 8784 
8785 8816 8815 8785 8786 8817 8816 8786 8787 
8818 8817 8787 8788 8819 8818 8788 8789 8820 
8819 8789 8790 8821 8820 8790 8791 8822 8821 
8791 8792 8823 8822 8792 8793 8824 8823 8793 
8794 8825 8824 8794 8795 8826 8825 8795 8796 
8827 8826 8796 8797 8828 8827 8797 8798 8829 
8828 8798 8799 8830 8829 8799 8800 8831 8830 
8800 8801 8832 8831 8801 8802 8833 8832 8802 
8803 8834 8833 8804 8805 8836 8835 8805 8806 
8837 8836 8806 8807 8838 8837 8807 8808 8839 
8838 8808 8809 8840 8839 8809 8810 8841 8840 
8810 8811 8842 8841 8811 8812 8843 8842 8812 
8813 8844 8843 8813 8814 8845 8844 8814 8815 
8846 8845 8815 8816 8847 8846 8816 8817 8848 
8847 8817 8818 8849 8848 8818 8819 8850 8849 
8819 8820 8851 8850 8820 8821 8852 8851 8821 
8822 8853 8852 8822 8823 8854 8853 8823 8824 
8855 8854 8824 8825 8856 8855 8825 8826 8857 
8856 8826 8827 8858 8857 8827 8828 8859 8858 
8828 8829 8860 8859 8829 8830 8861 8860 8830 
8831 8862 8861 8831 8832 8863 8862 8832 8833 
8864 8863 8833 8834 8865 8864 8835 8836 8867 
8866 8836 8837 8868 8867 8837 8838 8869 8868 
8838 8839 8870 8869 8839 8840 8871 8870 8840 
8841 8872 8871 8841 8842 8873 8872 8842 8843 
8874 8873 8843 8844 8875 8874 8844 8845 8876 
8875 8845 8846 8877 8876 8846 8847 8878 8877 
8847 8848 8879 8878 8848 8849 8880 8879 8849 
8850 8881 8880 8850 8851 8882 8881 8851 8852 
8883 8882 8852 8853 8884 8883 8853 8854 8885 
8884 8854 8855 8886 8885 8855 8856 8887 8886 
8856 8857 8888 8887 8857 8858 8889 8888 8858 
8859 8890 8889 8859 8860 8891 8890 8860 8861 
8892 8891 8861 8862 8893 8892 8862 8863 8894 
8893 8863 8864 8895 8894 8864 8865 8896 8895 
8866 8867 8898 8897 8867 8868 8899 8898 8868 
8869 8900 8899 8869 8870 8901 8900 8870 8871 
8902 8901 8871 8872 8903 8902 8872 8873 8904 
8903 8873 8874 8905 8904 8874 8875 8906 8905 
8875 8876 8907 8906 8876 8877 8908 8907 8877 
8878 8909 8908 8878 8879 8910 8909 8879 8880 
8911 8910 8880 8881 8912 8911 8881 8882 8913 
8912 8882 8883 8914 8913 8883 8884 8915 8914 
8884 8885 8916 8915 8885 8886 8917 8916 8886 
8887 8918 8917 8887 8888 8919 8918 8888 8889 
8920 8919 8889 8890 8921 8920 8890 8891 8922 
8921 8891 8892 8923 8922 8892 8893 8924 8923 
8893 8894 8925 8924 8894 8895 8926 8925 8895 
8896 8927 8926 8897 8898 8929 8928 8898 8899 
8930 8929 8899 8900 8931 8930 8900 8901 8932 
8931 8901 8902 8933 8932 8902 8903 8934 8933 
8903 8904 8935 8934 8904 8905 8936 8935 8905 
8906 8937 8936 8906 8907 8938 8937 8907 8908 
8939 8938 8908 8909 8940 8939 8909 8910 8941 
8940 8910 8911 8942 8941 8911 8912 8943 8942 
8912 8913 8944 8943 8913 8914 8945 8944 8914 
8915 8946 8945 8915 8916 8947 8946 8916 8917 
8948 8947 8917 8918 8949 8948 8918 8919 8950 
8949 8919 8920 8951 8950 8920 8921 8952 8951 
8921 8922 8953 8952 8922 8923 8954 8953 8923 
8924 8955 8954 8924 8925 8956 8955 8925 8926 
8957 8956 8926 8927 8958 8957 8928 8929 8960 
8959 8929 8930 8961 8960 8930 8931 8962 8961 
8931 8932 8963 8962 8932 8933 8964 8963 8933 
8934 8965 8964 8934 8935 8966 8965 8935 8936 
8967 8966 8936 8937 8968 8967 8937 8938 8969 
8968 8938 8939 8970 8969 8939 8940 8971 8970 
8940 8941 8972 8971 8941 8942 8973 8972 8942 
8943 8974 8973 8943 8944 8975 8974 8944 8945 
8976 8975 8945 8946 8977 8976 8946 8947 8978 
8977 8947 8948 8979 8978 8948 8949 8980 8979 
8949 8950 8981 8980 8950 8951 8982 8981 8951 
8952 8983 8982 8952 8953 8984 8983 8953 8954 
8985 8984 8954 8955 8986 8985 8955 8956 8987 
8986 8956 8957 8988 8987 8957 8958 8989 8988 
8959 8960 8991 8990 8960 8961 8992 8991 8961 
8962 8993 8992 8962 8963 8994 8993 8963 8964 
8995 8994 8964 8965 8996 8995 8965 8966 8997 
8996 8966 8967 8998 8997 8967 8968 8999 8998 
8968 8969 9000 8999 8969 8970 9001 9000 8970 
8971 9002 9001 8971 8972 9003 9002 8972 8973 
9004 9003 8973 8974 9005 9004 8974 8975 9006 
9005 8975 8976 9007 9006 8976 8977 9008 9007 
8977 8978 9009 9008 8978 8979 9010 9009 8979 
8980 9011 9010 8980 8981 9012 9011 8981 8982 
9013 9012 8982 8983 9014 9013 8983 8984 9015 
9014 8984 8985 9016 9015 8985 8986 9017 9016 
8986 8987 9018 9017 8987 8988 9019 9018 8988 
8989 9020 9019 8990 8991 9022 9021 8991 8992 
9023 9022 8992 8993 9024 9023 8993 8994 9025 
9024 8994 8995 9026 9025 8995 8996 9027 9026 
8996 8997 9028 9027 8997 8998 9029 9028 8998 
8999 9030 9029 8999 9000 9031 9030 9000 9001 
9032 9031 9001 9002 9033 9032 9002 9003 9034 
9033 9003 9004 9035 9034 9004 9005 9036 9035 
9005 9006 9037 9036 9006 9007 9038 9037 9007 
9008 9039 9038 9008 9009 9040 9039 9009 9010 
9041 9040 9010 9011 9042 9041 9011 9012 9043 
9042 9012 9013 9044 9043 9013 9014 9045 9044 
9014 9015 9046 9045 9015 9016 9047 9046 9016 
9017 9048 9047 9017 9018 9049 9048 9018 9019 
9050 9049 9019 9020 9051 9050 9021 9022 9053 
9052 9022 9023 9054 9053 9023 9024 9055 9054 
9024 9025 9056 9055 9025 9026 9057 9056 9026 
9027 9058 9057 9027 9028 9059 9058 9028 9029 
9060 9059 9029 9030 9061 9060 9030 9031 9062 
9061 9031 9032 9063 9062 9032 9033 9064 9063 
9033 9034 9065 9064 9034 9035 9066 9065 9035 
9036 9067 9066 9036 9037 9068 9067 9037 9038 
9069 9068 9038 9039 9070 9069 9039 9040 9071 
9070 9040 9041 9072 9071 9041 9042 9073 9072 
9042 9043 9074 9073 9043 9044 9075 9074 9044 
9045 9076 9075 9045 9046 9077 9076 9046 9047 
9078 9077 9047 9048 9079 9078 9048 9049 9080 
9079 9049 9050 9081 9080 9050 9051 9082 9081 
9052 9053 9084 9083 9053 9054 9085 9084 9054 
9055 9086 9085 9055 9056 9087 9086 9056 9057 
9088 9087 9057 9058 9089 9088 9058 9059 9090 
9089 9059 9060 9091 9090 9060 9061 9092 9091 
9061 9062 9093 9092 9062 9063 9094 9093 9063 
9064 9095 9094 9064 9065 9096 9095 9065 9066 
9097 9096 9066 9067 9098 9097 9067 9068 9099 
9098 9068 9069 9100 9099 9069 9070 9101 9100 
9070 9071 9102 9101 9071 9072 9103 9102 9072 
9073 9104 9103 9073 9074 9105 9104 9074 9075 
9106 9105 9075 9076 9107 9106 9076 9077 9108 
9107 9077 9078 9109 9108 9078 9079 9110 9109 
9079 9080 9111 9110 9080 9081 9112 9111 9081 
9082 9113 9112 9083 9084 9115 9114 9084 9085 
9116 9115 9085 9086 9117 9116 9086 9087 9118 
9117 9087 9088 9119 9118 9088 9089 9120 9119 
9089 9090 9121 9120 9090 9091 9122 9121 9091 
9092 9123 9122 9092 9093 9124 9123 9093 9094 
9125 9124 9094 9095 9126 9125 9095 9096 9127 
9126 9096 9097 9128 9127 9097 9098 9129 9128 
9098 9099 9130 9129 9099 9100 9131 9130 9100 
9101 9132 9131 9101 9102 9133 9132 9102 9103 
9134 9133 9103 9104 9135 9134 9104 9105 9136 
9135 9105 9106 9137 9136 9106 9107 9138 9137 
9107 9108 9139 9138 9108 9109 9140 9139 9109 
9110 9141 9140 9110 9111 9142 9141 9111 9112 
9143 9142 9112 9113 9144 9143 9114 9115 9146 
9145 9115 9116 9147 9146 9116 9117 9148 9147 
9117 9118 9149 9148 9118 9119 9150 9149 9119 
9120 9151 9150 9120 9121 9152 9151 9121 9122 
9153 9152 9122 9123 9154 9153 9123 9124 9155 
9154 9124 9125 9156 9155 9125 9126 9157 9156 
9126 9127 9158 9157 9127 9128 9159 9158 9128 
9129 9160 9159 9129 9130 9161 9160 9130 9131 
9162 9161 9131 9132 9163 9162 9132 9133 9164 
9163 9133 9134 9165 9164 9134 9135 9166 9165 
9135 9136 9167 9166 9136 9137 9168 9167 9137 
9138 9169 9168 9138 9139 9170 9169 9139 9140 
9171 9170 9140 9141 9172 9171 9141 9142 9173 
9172 9142 9143 9174 9173 9143 9144 9175 9174 
9145 9146 9177 9176 9146 9147 9178 9177 9147 
9148 9179 9178 9148 9149 9180 9179 9149 9150 
9181 9180 9150 9151 9182 9181 9151 9152 9183 
9182 9152 9153 9184 9183 9153 9154 9185 9184 
9154 9155 9186 9185 9155 9156 9187 9186 9156 
9157 9188 9187 9157 9158 9189 9188 9158 9159 
9190 9189 9159 9160 9191 9190 9160 9161 9192 
9191 9161 9162 9193 9192 9162 9163 9194 9193 
9163 9164 9195 9194 9164 9165 9196 9195 9165 
9166 9197 9196 9166 9167 9198 9197 9167 9168 
9199 9198 9168 9169 9200 9199 9169 9170 9201 
9200 9170 9171 9202 9201 9171 9172 9203 9202 
9172 9173 9204 9203 9173 9174 9205 9204 9174 
9175 9206 9205 9176 9177 9208 9207 9177 9178 
9209 9208 9178 9179 9210 9209 9179 9180 9211 
9210 9180 9181 9212 9211 9181 9182 9213 9212 
9182 9183 9214 9213 9183 9184 9215 9214 9184 
9185 9216 9215 9185 9186 9217 9216 9186 9187 
9218 9217 9187 9188 9219 9218 9188 9189 9220 
9219 9189 9190 9221 9220 9190 9191 9222 9221 
9191 9192 9223 9222 9192 9193 9224 9223 9193 
9194 9225 9224 9194 9195 9226 9225 9195 9196 
9227 9226 9196 9197 9228 9227 9197 9198 9229 
9228 9198 9199 9230 9229 9199 9200 9231 9230 
9200 9201 9232 9231 9201 9202 9233 9232 9202 
9203 9234 9233 9203 9204 9235 9234 9204 9205 
9236 9235 9205 9206 9237 9236 9207 9208 9239 
9238 9208 9209 9240 9239 9209 9210 9241 9240 
9210 9211 9242 9241 9211 9212 9243 9242 9212 
9213 9244 9243 9213 9214 9245 9244 9214 9215 
9246 9245 9215 9216 9247 9246 9216 9217 9248 
9247 9217 9218 9249 9248 9218 9219 9250 9249 
9219 9220 9251 9250 9220 9221 9252 9251 9221 
9222 9253 9252 9222 9223 9254 9253 9223 9224 
9255 9254 9224 9225 9256 9255 9225 9226 9257 
9256 9226 9227 9258 9257 9227 9228 9259 9258 
9228 9229 9260 9259 9229 9230 9261 9260 9230 
9231 9262 9261 9231 9232 9263 9262 9232 9233 
9264 9263 9233 9234 9265 9264 9234 9235 9266 
9265 9235 9236 9267 9266 9236 9237 9268 9267 
9238 9239 9270 9269 9239 9240 9271 9270 9240 
9241 9272 9271 9241 9242 9273 9272 9242 9243 
9274 9273 9243 9244 9275 9274 9244 9245 9276 
9275 9245 9246 9277 9276 9246 9247 9278 9277 
9247 9248 9279 9278 9248 9249 9280 9279 9249 
9250 9281 9280 9250 9251 9282 9281 9251 9252 
9283 9282 9252 9253 9284 9283 9253 9254 9285 
9284 9254 9255 9286 9285 9255 9256 9287 9286 
9256 9257 9288 9287 9257 9258 9289 9288 9258 
9259 9290 9289 9259 9260 9291 9290 9260 9261 
9292 9291 9261 9262 9293 9292 9262 9263 9294 
9293 9263 9264 9295 9294 9264 9265 9296 9295 
9265 9266 9297 9296 9266 9267 9298 9297 9267 
9268 9299 9298 9269 9270 9301 9300 9270 9271 
9302 9301 9271 9272 9303 9302 9272 9273 9304 
9303 9273 9274 9305 9304 9274 9275 9306 9305 
9275 9276 9307 9306 9276 9277 9308 9307 9277 
9278 9309 9308 9278 9279 9310 9309 9279 9280 
9311 9310 9280 9281 9312 9311 9281 9282 9313 
9312 9282 9283 9314 9313 9283 9284 9315 9314 
9284 9285 9316 9315 9285 9286 9317 9316 9286 
9287 9318 9317 9287 9288 9319 9318 9288 9289 
9320 9319 9289 9290 9321 9320 9290 9291 9322 
9321 9291 9292 9323 9322 9292 9293 9324 9323 
9293 9294 9325 9324 9294 9295 9326 9325 9295 
9296 9327 9326 9296 9297 9328 9327 9297 9298 
9329 9328 9298 9299 9330 9329 9300 9301 9332 
9331 9301 9302 9333 9332 9302 9303 9334 9333 
9303 9304 9335 9334 9304 9305 9336 9335 9305 
9306 9337 9336 9306 9307 9338 9337 9307 9308 
9339 9338 9308 9309 9340 9339 9309 9310 9341 
9340 9310 9311 9342 9341 9311 9312 9343 9342 
9312 9313 9344 9343 9313 9314 9345 9344 9314 
9315 9346 9345 9315 9316 9347 9346 9316 9317 
9348 9347 9317 9318 9349 9348 9318 9319 9350 
9349 9319 9320 9351 9350 9320 9321 9352 9351 
9321 9322 9353 9352 9322 9323 9354 9353 9323 
9324 9355 9354 9324 9325 9356 9355 9325 9326 
9357 9356 9326 9327 9358 9357 9327 9328 9359 
9358 9328 9329 9360 9359 9329 9330 9361 9360 
9331 9332 9363 9362 9332 9333 9364 9363 9333 
9334 9365 9364 9334 9335 9366 9365 9335 9336 
9367 9366 9336 9337 9368 9367 9337 9338 9369 
9368 9338 9339 9370 9369 9339 9340 9371 9370 
9340 9341 9372 9371 9341 9342 9373 9372 9342 
9343 9374 9373 9343 9344 9375 9374 9344 9345 
9376 9375 9345 9346 9377 9376 9346 9347 9378 
9377 9347 9348 9379 9378 9348 9349 9380 9379 
9349 9350 9381 9380 9350 9351 9382 9381 9351 
9352 9383 9382 9352 9353 9384 9383 9353 9354 
9385 9384 9354 9355 9386 9385 9355 9356 9387 
9386 9356 9357 9388 9387 9357 9358 9389 9388 
9358 9359 9390 9389 9359 9360 9391 9390 9360 
9361 9392 9391 9362 9363 9394 9393 9363 9364 
9395 9394 9364 9365 9396 9395 9365 9366 9397 
9396 9366 9367 9398 9397 9367 9368 9399 9398 
9368 9369 9400 9399 9369 9370 9401 9400 9370 
9371 9402 9401 9371 9372 9403 9402 9372 9373 
9404 9403 9373 9374 9405 9404 9374 9375 9406 
9405 9375 9376 9407 9406 9376 9377 9408 9407 
9377 9378 9409 9408 9378 9379 9410 9409 9379 
9380 9411 9410 9380 9381 9412 9411 9381 9382 
9413 9412 9382 9383 9414 9413 9383 9384 9415 
9414 9384 9385 9416 9415 9385 9386 9417 9416 
9386 9387 9418 9417 9387 9388 9419 9418 9388 
9389 9420 9419 9389 9390 9421 9420 9390 9391 
9422 9421 9391 9392 9423 9422 9393 9394 9425 
9424 9394 9395 9426 9425 9395 9396 9427 9426 
9396 9397 9428 9427 9397 9398 9429 9428 9398 
9399 9430 9429 9399 9400 9431 9430 9400 9401 
9432 9431 9401 9402 9433 9432 9402 9403 9434 
9433 9403 9404 9435 9434 9404 9405 9436 9435 
9405 9406 9437 9436 9406 9407 9438 9437 9407 
9408 9439 9438 9408 9409 9440 9439 9409 9410 
9441 9440 9410 9411 9442 9441 9411 9412 9443 
9442 9412 9413 9444 9443 9413 9414 9445 9444 
9414 9415 9446 9445 9415 9416 9447 9446 9416 
9417 9448 9447 9417 9418 9449 9448 9418 9419 
9450 9449 9419 9420 9451 9450 9420 9421 9452 
9451 9421 9422 9453 9452 9422 9423 9454 9453 
9424 9425 9456 9455 9425 9426 9457 9456 9426 
9427 9458 9457 9427 9428 9459 9458 9428 9429 
9460 9459 9429 9430 9461 9460 9430 9431 9462 
9461 9431 9432 9463 9462 9432 9433 9464 9463 
9433 9434 9465 9464 9434 9435 9466 9465 9435 
9436 9467 9466 9436 9437 9468 9467 9437 9438 
9469 9468 9438 9439 9470 9469 9439 9440 9471 
9470 9440 9441 9472 9471 9441 9442 9473 9472 
9442 9443 9474 9473 9443 9444 9475 9474 9444 
9445 9476 9475 9445 9446 9477 9476 9446 9447 
9478 9477 9447 9448 9479 9478 9448 9449 9480 
9479 9449 9450 9481 9480 9450 9451 9482 9481 
9451 9452 9483 9482 9452 9453 9484 9483 9453 
9454 9485 9484 9455 9456 9487 9486 9456 9457 
9488 9487 9457 9458 9489 9488 9458 9459 9490 
9489 9459 9460 9491 9490 9460 9461 9492 9491 
9461 9462 9493 9492 9462 9463 9494 9493 9463 
9464 9495 9494 9464 9465 9496 9495 9465 9466 
9497 9496 9466 9467 9498 9497 9467 9468 9499 
9498 9468 9469 9500 9499 9469 9470 9501 9500 
9470 9471 9502 9501 9471 9472 9503 9502 9472 
9473 9504 9503 9473 9474 9505 9504 9474 9475 
9506 9505 9475 9476 9507 9506 9476 9477 9508 
9507 9477 9478 9509 9508 9478 9479 9510 9509 
9479 9480 9511 9510 9480 9481 9512 9511 9481 
9482 9513 9512 9482 9483 9514 9513 9483 9484 
9515 9514 9484 9485 9516 9515 9486 9487 9518 
9517 9487 9488 9519 9518 9488 9489 9520 9519 
9489 9490 9521 9520 9490 9491 9522 9521 9491 
9492 9523 9522 9492 9493 9524 9523 9493 9494 
9525 9524 9494 9495 9526 9525 9495 9496 9527 
9526 9496 9497 9528 9527 9497 9498 9529 9528 
9498 9499 9530 9529 9499 9500 9531 9530 9500 
9501 9532 9531 9501 9502 9533 9532 9502 9503 
9534 9533 9503 9504 9535 9534 9504 9505 9536 
9535 9505 9506 9537 9536 9506 9507 9538 9537 
9507 9508 9539 9538 9508 9509 9540 9539 9509 
9510 9541 9540 9510 9511 9542 9541 9511 9512 
9543 9542 9512 9513 9544 9543 9513 9514 9545 
9544 9514 9515 9546 9545 9515 9516 9547 9546 
9517 9518 9549 9548 9518 9519 9550 9549 9519 
9520 9551 9550 9520 9521 9552 9551 9521 9522 
9553 9552 9522 9523 9554 9553 9523 9524 9555 
9554 9524 9525 9556 9555 9525 9526 9557 9556 
9526 9527 9558 9557 9527 9528 9559 9558 9528 
9529 9560 9559 9529 9530 9561 9560 9530 9531 
9562 9561 9531 9532 9563 9562 9532 9533 9564 
9563 9533 9534 9565 9564 9534 9535 9566 9565 
9535 9536 9567 9566 9536 9537 9568 9567 9537 
9538 9569 9568 9538 9539 9570 9569 9539 9540 
9571 9570 9540 9541 9572 9571 9541 9542 9573 
9572 9542 9543 9574 9573 9543 9544 9575 9574 
9544 9545 9576 9575 9545 9546 9577 9576 9546 
9547 9578 9577 9548 9549 9580 9579 9549 9550 
9581 9580 9550 9551 9582 9581 9551 9552 9583 
9582 9552 9553 9584 9583 9553 9554 9585 9584 
9554 9555 9586 9585 9555 9556 9587 9586 9556 
9557 9588 9587 9557 9558 9589 9588 9558 9559 
9590 9589 9559 9560 9591 9590 9560 9561 9592 
9591 9561 9562 9593 9592 9562 9563 9594 9593 
9563 9564 9595 9594 9564 9565 9596 9595 9565 
9566 9597 9596 9566 9567 9598 9597 9567 9568 
9599 9598 9568 9569 9600 9599 9569 9570 9601 
9600 9570 9571 9602 9601 9571 9572 9603 9602 
9572 9573 9604 9603 9573 9574 9605 9604 9574 
9575 9606 9605 9575 9576 9607 9606 9576 9577 
9608 9607 9577 9578 9609 9608 9579 9580 3132 
3131 9580 9581 3133 3132 9581 9582 3134 3133 
9582 9583 3135 3134 9583 9584 3136 3135 9584 
9585 3137 3136 9585 9586 3138 3137 9586 9587 
3139 3138 9587 9588 3140 3139 9588 9589 3141 
3140 9589 9590 3142 3141 9590 9591 3143 3142 
9591 9592 3144 3143 9592 9593 3145 3144 9593 
9594 3146 3145 9594 9595 3147 3146 9595 9596 
3148 3147 9596 9597 3149 3148 9597 9598 3150 
3149 9598 9599 3151 3150 9599 9600 3152 3151 
9600 9601 3153 3152 9601 9602 3154 3153 9602 
9603 3155 3154 9603 9604 3156 3155 9604 9605 
3157 3156 9605 9606 3158 3157 9606 9607 3159 
3158 9607 9608 3160 3159 9608 9609 3161 3160 

CELL_TYPES 9270
9
9
9
9
9
9
9
9
9
9
9
9
9
9
9
9
9
9
9
9
9
9
9
9
9
9
9
9
9
9
9
9
9
9
9
9
9
9
9
9
9
9
9
9
9
9
9
9
9
9
9
9
9
9
9
9
9
9
9
9
9
9
9
9
9
9
9
9
9
9
9
9
9
9
9
9
9
9
9
9
9
9
9
9
9
9
9
9
9
9
9
9
9
9
9
9
9
9
9
9
9
9
9
9
9
9
9
9
9
9
9
9
9
9
9
9
9
9
9
9
9
9
9
9
9
9
9
9
9
9
9
9
9
9
9
9
9
9
9
9
9
9
9
9
9
9
9
9
9
9
9
9
9
9
9
9
9
9
9
9
9
9
9
9
9
9
9
9
9
9
9
9
9
9
9
9
9
9
9
9
9
9
9
9
9
9
9
9
9
9
9
9
9
9
9
9
9
9
9
9
9
9
9
9
9
9
9
9
9
9
9
9
9
9
9
9
9
9
9
9
9
9
9
9
9
9
9
9
9
9
9
9
9
9
9
9
9
9
9
9
9
9
9
9
9
9
9
9
9
9
9
9
9
9
9
9
9
9
9
9
9
9
9
9
9
9
9
9
9
9
9
9
9
9
9
9
9
9
9
9
9
9
9
9
9
9
9
9
9
9
9
9
9
9
9
9
9
9
9
9
9
9
9
9
9
9
9
9
9
9
9
9
9
9
9
9
9
9
9
9
9
9
9
9
9
9
9
9
9
9
9
9
9
9
9
9
9
9
9
9
9
9
9
9
9
9
9
9
9
9
9
9
9
9
9
9
9
9
9
9
9
9
9
9
9
9
9
9
9
9
9
9
9
9
9
9
9
9
9
9
9
9
9
9
9
9
9
9
9
9
9
9
9
9
9
9
9
9
9
9
9
9
9
9
9
9
9
9
9
9
9
9
9
9
9
9
9
9
9
9
9
9
9
9
9
9
9
9
9
9
9
9
9
9
9
9
9
9
9
9
9
9
9
9
9
9
9
9
9
9
9
9
9
9
9
9
9
9
9
9
9
9
9
9
9
9
9
9
9
9
9
9
9
9
9
9
9
9
9
9
9
9
9
9
9
9
9
9
9
9
9
9
9
9
9
9
9
9
9
9
9
9
9
9
9
9
9
9
9
9
9
9
9
9
9
9
9
9
9
9
9
9
9
9
9
9
9
9
9
9
9
9
9
9
9
9
9
9
9
9
9
9
9
9
9
9
9
9
9
9
9
9
9
9
9
9
9
9
9
9
9
9
9
9
9
9
9
9
9
9
9
9
9
9
9
9
9
9
9
9
9
9
9
9
9
9
9
9
9
9
9
9
9
9
9
9
9
9
9
9
9
9
9
9
9
9
9
9
9
9
9
9
9
9
9
9
9
9
9
9
9
9
9
9
9
9
9
9
9
9
9
9
9
9
9
9
9
9
9
9
9
9
9
9
9
9
9
9
9
9
9
9
9
9
9
9
9
9
9
9
9
9
9
9
9
9
9
9
9
9
9
9
9
9
9
9
9
9
9
9
9
9
9
9
9
9
9
9
9
9
9
9
9
9
9
9
9
9
9
9
9
9
9
9
9
9
9
9
9
9
9
9
9
9
9
9
9
9
9
9
9
9
9
9
9
9
9
9
9
9
9
9
9
9
9
9
9
9
9
9
9
9
9
9
9
9
9
9
9
9
9
9
9
9
9
9
9
9
9
9
9
9
9
9
9
9
9
9
9
9
9
9
9
9
9
9
9
9
9
9
9
9
9
9
9
9
9
9
9
9
9
9
9
9
9
9
9
9
9
9
9
9
9
9
9
9
9
9
9
9
9
9
9
9
9
9
9
9
9
9
9
9
9
9
9
9
9
9
9
9
9
9
9
9
9
9
9
9
9
9
9
9
9
9
9
9
9
9
9
9
9
9
9
9
9
9
9
9
9
9
9
9
9
9
9
9
9
9
9
9
9
9
9
9
9
9
9
9
9
9
9
9
9
9
9
9
9
9
9
9
9
9
9
9
9
9
9
9
9
9
9
9
9
9
9
9
9
9
9
9
9
9
9
9
9
9
9
9
9
9
9
9
9
9
9
9
9
9
9
9
9
9
9
9
9
9
9
9
9
9
9
9
9
9
9
9
9
9
9
9
9
9
9
9
9
9
9
9
9
9
9
9
9
9
9
9
9
9
9
9
9
9
9
9
9
9
9
9
9
9
9
9
9
9
9
9
9
9
9
9
9
9
9
9
9
9
9
9
9
9
9
9
9
9
9
9
9
9
9
9
9
9
9
9
9
9
9
9
9
9
9
9
9
9
9
9
9
9
9
9
9
9
9
9
9
9
9
9
9
9
9
9
9
9
9
9
9
9
9
9
9
9
9
9
9
9
9
9
9
9
9
9
9
9
9
9
9
9
9
9
9
9
9
9
9
9
9
9
9
9
9
9
9
9
9
9
9
9
9
9
9
9
9
9
9
9
9
9
9
9
9
9
9
9
9
9
9
9
9
9
9
9
9
9
9
9
9
9
9
9
9
9
9
9
9
9
9
9
9
9
9
9
9
9
9
9
9
9
9
9
9
9
9
9
9
9
9
9
9
9
9
9
9
9
9
9
9
9
9
9
9
9
9
9
9
9
9
9
9
9
9
9
9
9
9
9
9
9
9
9
9
9
9
9
9
9
9
9
9
9
9
9
9
9
9
9
9
9
9
9
9
9
9
9
9
9
9
9
9
9
9
9
9
9
9
9
9
9
9
9
9
9
9
9
9
9
9
9
9
9
9
9
9
9
9
9
9
9
9
9
9
9
9
9
9
9
9
9
9
9
9
9
9
9
9
9
9
9
9
9
9
9
9
9
9
9
9
9
9
9
9
9
9
9
9
9
9
9
9
9
9
9
9
9
9
9
9
9
9
9
9
9
9
9
9
9
9
9
9
9
9
9
9
9
9
9
9
9
9
9
9
9
9
9
9
9
9
9
9
9
9
9
9
9
9
9
9
9
9
9
9
9
9
9
9
9
9
9
9
9
9
9
9
9
9
9
9
9
9
9
9
9
9
9
9
9
9
9
9
9
9
9
9
9
9
9
9
9
9
9
9
9
9
9
9
9
9
9
9
9
9
9
9
9
9
9
9
9
9
9
9
9
9
9
9
9
9
9
9
9
9
9
9
9
9
9
9
9
9
9
9
9
9
9
9
9
9
9
9
9
9
9
9
9
9
9
9
9
9
9
9
9
9
9
9
9
9
9
9
9
9
9
9
9
9
9
9
9
9
9
9
9
9
9
9
9
9
9
9
9
9
9
9
9
9
9
9
9
9
9
9
9
9
9
9
9
9
9
9
9
9
9
9
9
9
9
9
9
9
9
9
9
9
9
9
9
9
9
9
9
9
9
9
9
9
9
9
9
9
9
9
9
9
9
9
9
9
9
9
9
9
9
9
9
9
9
9
9
9
9
9
9
9
9
9
9
9
9
9
9
9
9
9
9
9
9
9
9
9
9
9
9
9
9
9
9
9
9
9
9
9
9
9
9
9
9
9
9
9
9
9
9
9
9
9
9
9
9
9
9
9
9
9
9
9
9
9
9
9
9
9
9
9
9
9
9
9
9
9
9
9
9
9
9
9
9
9
9
9
9
9
9
9
9
9
9
9
9
9
9
9
9
9
9
9
9
9
9
9
9
9
9
9
9
9
9
9
9
9
9
9
9
9
9
9
9
9
9
9
9
9
9
9
9
9
9
9
9
9
9
9
9
9
9
9
9
9
9
9
9
9
9
9
9
9
9
9
9
9
9
9
9
9
9
9
9
9
9
9
9
9
9
9
9
9
9
9
9
9
9
9
9
9
9
9
9
9
9
9
9
9
9
9
9
9
9
9
9
9
9
9
9
9
9
9
9
9
9
9
9
9
9
9
9
9
9
9
9
9
9
9
9
9
9
9
9
9
9
9
9
9
9
9
9
9
9
9
9
9
9
9
9
9
9
9
9
9
9
9
9
9
9
9
9
9
9
9
9
9
9
9
9
9
9
9
9
9
9
9
9
9
9
9
9
9
9
9
9
9
9
9
9
9
9
9
9
9
9
9
9
9
9
9
9
9
9
9
9
9
9
9
9
9
9
9
9
9
9
9
9
9
9
9
9
9
9
9
9
9
9
9
9
9
9
9
9
9
9
9
9
9
9
9
9
9
9
9
9
9
9
9
9
9
9
9
9
9
9
9
9
9
9
9
9
9
9
9
9
9
9
9
9
9
9
9
9
9
9
9
9
9
9
9
9
9
9
9
9
9
9
9
9
9
9
9
9
9
9
9
9
9
9
9
9
9
9
9
9
9
9
9
9
9
9
9
9
9
9
9
9
9
9
9
9
9
9
9
9
9
9
9
9
9
9
9
9
9
9
9
9
9
9
9
9
9
9
9
9
9
9
9
9
9
9
9
9
9
9
9
9
9
9
9
9
9
9
9
9
9
9
9
9
9
9
9
9
9
9
9
9
9
9
9
9
9
9
9
9
9
9
9
9
9
9
9
9
9
9
9
9
9
9
9
9
9
9
9
9
9
9
9
9
9
9
9
9
9
9
9
9
9
9
9
9
9
9
9
9
9
9
9
9
9
9
9
9
9
9
9
9
9
9
9
9
9
9
9
9
9
9
9
9
9
9
9
9
9
9
9
9
9
9
9
9
9
9
9
9
9
9
9
9
9
9
9
9
9
9
9
9
9
9
9
9
9
9
9
9
9
9
9
9
9
9
9
9
9
9
9
9
9
9
9
9
9
9
9
9
9
9
9
9
9
9
9
9
9
9
9
9
9
9
9
9
9
9
9
9
9
9
9
9
9
9
9
9
9
9
9
9
9
9
9
9
9
9
9
9
9
9
9
9
9
9
9
9
9
9
9
9
9
9
9
9
9
9
9
9
9
9
9
9
9
9
9
9
9
9
9
9
9
9
9
9
9
9
9
9
9
9
9
9
9
9
9
9
9
9
9
9
9
9
9
9
9
9
9
9
9
9
9
9
9
9
9
9
9
9
9
9
9
9
9
9
9
9
9
9
9
9
9
9
9
9
9
9
9
9
9
9
9
9
9
9
9
9
9
9
9
9
9
9
9
9
9
9
9
9
9
9
9
9
9
9
9
9
9
9
9
9
9
9
9
9
9
9
9
9
9
9
9
9
9
9
9
9
9
9
9
9
9
9
9
9
9
9
9
9
9
9
9
9
9
9
9
9
9
9
9
9
9
9
9
9
9
9
9
9
9
9
9
9
9
9
9
9
9
9
9
9
9
9
9
9
9
9
9
9
9
9
9
9
9
9
9
9
9
9
9
9
9
9
9
9
9
9
9
9
9
9
9
9
9
9
9
9
9
9
9
9
9
9
9
9
9
9
9
9
9
9
9
9
9
9
9
9
9
9
9
9
9
9
9
9
9
9
9
9
9
9
9
9
9
9
9
9
9
9
9
9
9
9
9
9
9
9
9
9
9
9
9
9
9
9
9
9
9
9
9
9
9
9
9
9
9
9
9
9
9
9
9
9
9
9
9
9
9
9
9
9
9
9
9
9
9
9
9
9
9
9
9
9
9
9
9
9
9
9
9
9
9
9
9
9
9
9
9
9
9
9
9
9
9
9
9
9
9
9
9
9
9
9
9
9
9
9
9
9
9
9
9
9
9
9
9
9
9
9
9
9
9
9
9
9
9
9
9
9
9
9
9
9
9
9
9
9
9
9
9
9
9
9
9
9
9
9
9
9
9
9
9
9
9
9
9
9
9
9
9
9
9
9
9
9
9
9
9
9
9
9
9
9
9
9
9
9
9
9
9
9
9
9
9
9
9
9
9
9
9
9
9
9
9
9
9
9
9
9
9
9
9
9
9
9
9
9
9
9
9
9
9
9
9
9
9
9
9
9
9
9
9
9
9
9
9
9
9
9
9
9
9
9
9
9
9
9
9
9
9
9
9
9
9
9
9
9
9
9
9
9
9
9
9
9
9
9
9
9
9
9
9
9
9
9
9
9
9
9
9
9
9
9
9
9
9
9
9
9
9
9
9
9
9
9
9
9
9
9
9
9
9
9
9
9
9
9
9
9
9
9
9
9
9
9
9
9
9
9
9
9
9
9
9
9
9
9
9
9
9
9
9
9
9
9
9
9
9
9
9
9
9
9
9
9
9
9
9
9
9
9
9
9
9
9
9
9
9
9
9
9
9
9
9
9
9
9
9
9
9
9
9
9
9
9
9
9
9
9
9
9
9
9
9
9
9
9
9
9
9
9
9
9
9
9
9
9
9
9
9
9
9
9
9
9
9
9
9
9
9
9
9
9
9
9
9
9
9
9
9
9
9
9
9
9
9
9
9
9
9
9
9
9
9
9
9
9
9
9
9
9
9
9
9
9
9
9
9
9
9
9
9
9
9
9
9
9
9
9
9
9
9
9
9
9
9
9
9
9
9
9
9
9
9
9
9
9
9
9
9
9
9
9
9
9
9
9
9
9
9
9
9
9
9
9
9
9
9
9
9
9
9
9
9
9
9
9
9
9
9
9
9
9
9
9
9
9
9
9
9
9
9
9
9
9
9
9
9
9
9
9
9
9
9
9
9
9
9
9
9
9
9
9
9
9
9
9
9
9
9
9
9
9
9
9
9
9
9
9
9
9
9
9
9
9
9
9
9
9
9
9
9
9
9
9
9
9
9
9
9
9
9
9
9
9
9
9
9
9
9
9
9
9
9
9
9
9
9
9
9
9
9
9
9
9
9
9
9
9
9
9
9
9
9
9
9
9
9
9
9
9
9
9
9
9
9
9
9
9
9
9
9
9
9
9
9
9
9
9
9
9
9
9
9
9
9
9
9
9
9
9
9
9
9
9
9
9
9
9
9
9
9
9
9
9
9
9
9
9
9
9
9
9
9
9
9
9
9
9
9
9
9
9
9
9
9
9
9
9
9
9
9
9
9
9
9
9
9
9
9
9
9
9
9
9
9
9
9
9
9
9
9
9
9
9
9
9
9
9
9
9
9
9
9
9
9
9
9
9
9
9
9
9
9
9
9
9
9
9
9
9
9
9
9
9
9
9
9
9
9
9
9
9
9
9
9
9
9
9
9
9
9
9
9
9
9
9
9
9
9
9
9
9
9
9
9
9
9
9
9
9
9
9
9
9
9
9
9
9
9
9
9
9
9
9
9
9
9
9
9
9
9
9
9
9
9
9
9
9
9
9
9
9
9
9
9
9
9
9
9
9
9
9
9
9
9
9
9
9
9
9
9
9
9
9
9
9
9
9
9
9
9
9
9
9
9
9
9
9
9
9
9
9
9
9
9
9
9
9
9
9
9
9
9
9
9
9
9
9
9
9
9
9
9
9
9
9
9
9
9
9
9
9
9
9
9
9
9
9
9
9
9
9
9
9
9
9
9
9
9
9
9
9
9
9
9
9
9
9
9
9
9
9
9
9
9
9
9
9
9
9
9
9
9
9
9
9
9
9
9
9
9
9
9
9
9
9
9
9
9
9
9
9
9
9
9
9
9
9
9
9
9
9
9
9
9
9
9
9
9
9
9
9
9
9
9
9
9
9
9
9
9
9
9
9
9
9
9
9
9
9
9
9
9
9
9
9
9
9
9
9
9
9
9
9
9
9
9
9
9
9
9
9
9
9
9
9
9
9
9
9
9
9
9
9
9
9
9
9
9
9
9
9
9
9
9
9
9
9
9
9
9
9
9
9
9
9
9
9
9
9
9
9
9
9
9
9
9
9
9
9
9
9
9
9
9
9
9
9
9
9
9
9
9
9
9
9
9
9
9
9
9
9
9
9
9
9
9
9
9
9
9
9
9
9
9
9
9
9
9
9
9
9
9
9
9
9
9
9
9
9
9
9
9
9
9
9
9
9
9
9
9
9
9
9
9
9
9
9
9
9
9
9
9
9
9
9
9
9
9
9
9
9
9
9
9
9
9
9
9
9
9
9
9
9
9
9
9
9
9
9
9
9
9
9
9
9
9
9
9
9
9
9
9
9
9
9
9
9
9
9
9
9
9
9
9
9
9
9
9
9
9
9
9
9
9
9
9
9
9
9
9
9
9
9
9
9
9
9
9
9
9
9
9
9
9
9
9
9
9
9
9
9
9
9
9
9
9
9
9
9
9
9
9
9
9
9
9
9
9
9
9
9
9
9
9
9
9
9
9
9
9
9
9
9
9
9
9
9
9
9
9
9
9
9
9
9
9
9
9
9
9
9
9
9
9
9
9
9
9
9
9
9
9
9
9
9
9
9
9
9
9
9
9
9
9
9
9
9
9
9
9
9
9
9
9
9
9
9
9
9
9
9
9
9
9
9
9
9
9
9
9
9
9
9
9
9
9
9
9
9
9
9
9
9
9
9
9
9
9
9
9
9
9
9
9
9
9
9
9
9
9
9
9
9
9
9
9
9
9
9
9
9
9
9
9
9
9
9
9
9
9
9
9
9
9
9
9
9
9
9
9
9
9
9
9
9
9
9
9
9
9
9
9
9
9
9
9
9
9
9
9
9
9
9
9
9
9
9
9
9
9
9
9
9
9
9
9
9
9
9
9
9
9
9
9
9
9
9
9
9
9
9
9
9
9
9
9
9
9
9
9
9
9
9
9
9
9
9
9
9
9
9
9
9
9
9
9
9
9
9
9
9
9
9
9
9
9
9
9
9
9
9
9
9
9
9
9
9
9
9
9
9
9
9
9
9
9
9
9
9
9
9
9
9
9
9
9
9
9
9
9
9
9
9
9
9
9
9
9
9
9
9
9
9
9
9
9
9
9
9
9
9
9
9
9
9
9
9
9
9
9
9
9
9
9
9
9
9
9
9
9
9
9
9
9
9
9
9
9
9
9
9
9
9
9
9
9
9
9
9
9
9
9
9
9
9
9
9
9
9
9
9
9
9
9
9
9
9
9
9
9
9
9
9
9
9
9
9
9
9
9
9
9
9
9
9
9
9
9
9
9
9
9
9
9
9
9
9
9
9
9
9
9
9
9
9
9
9
9
9
9
9
9
9
9
9
9
9
9
9
9
9
9
9
9
9
9
9
9
9
9
9
9
9
9
9
9
9
9
9
9
9
9
9
9
9
9
9
9
9
9
9
9
9
9
9
9
9
9
9
9
9
9
9
9
9
9
9
9
9
9
9
9
9
9
9
9
9
9
9
9
9
9
9
9
9
9
9
9
9
9
9
9
9
9
9
9
9
9
9
9
9
9
9
9
9
9
9
9
9
9
9
9
9
9
9
9
9
9
9
9
9
9
9
9
9
9
9
9
9
9
9
9
9
9
9
9
9
9
9
9
9
9
9
9
9
9
9
9
9
9
9
9
9
9
9
9
9
9
9
9
9
9
9
9
9
9
9
9
9
9
9
9
9
9
9
9
9
9
9
9
9
9
9
9
9
9
9
9
9
9
9
9
9
9
9
9
9
9
9
9
9
9
9
9
9
9
9
9
9
9
9
9
9
9
9
9
9
9
9
9
9
9
9
9
9
9
9
9
9
9
9
9
9
9
9
9
9
9
9
9
9
9
9
9
9
9
9
9
9
9
9
9
9
9
9
9
9
9
9
9
9
9
9
9
9
9
9
9
9
9
9
9
9
9
9
9
9
9
9
9
9
9
9
9
9
9
9
9
9
9
9
9
9
9
9
9
9
9
9
9
9
9
9
9
9
9
9
9
9
9
9
9
9
9
9
9
9
9
9
9
9
9
9
9
9
9
9
9
9
9
9
9
9
9
9
9
9
9
9
9
9
9
9
9
9
9
9
9
9
9
9
9
9
9
9
9
9
9
9
9
9
9
9
9
9
9
9
9
9
9
9
9
9
9
9
9
9
9
9
9
9
9
9
9
9
9
9
9
9
9
9
9
9
9
9
9
9
9
9
9
9
9
9
9
9
9
9
9
9
9
9
9
9
9
9
9
9
9
9
9
9
9
9
9
9
9
9
9
9
9
9
9
9
9
9
9
9
9
9
9
9
9
9
9
9
9
9
9
9
9
9
9
9
9
9
9
9
9
9
9
9
9
9
9
9
9
9
9
9
9
9
9
9
9
9
9
9
9
9
9
9
9
9
9
9
9
9
9
9
9
9
9
9
9
9
9
9
9
9
9
9
9
9
9
9
9
9
9
9
9
9
9
9
9
9
9
9
9
9
9
9
9
9
9
9
9
9
9
9
9
9
9
9
9
9
9
9
9
9
9
9
9
9
9
9
9
9
9
9
9
9
9
9
9
9
9
9
9
9
9
9
9
9
9
9
9
9
9
9
9
9
9
9
9
9
9
9
9
9
9
9
9
9
9
9
9
9
9
9
9
9
9
9
9
9
9
9
9
9
9
9
9
9
9
9
9
9
9
9
9
9
9
9
9
9
9
9
9
9
9
9
9
9
9
9
9
9
9
9
9
9
9
9
9
9
9
9
9
9
9
9
9
9
9
9
9
9
9
9
9
9
9
9
9
9
9
9
9
9
9
9
9
9
9
9
9
9
9
9
9
9
9
9
9
9
9
9
9
9
9
9
9
9
9
9
9
9
9
9
9
9
9
9
9
9
9
9
9
9
9
9
9
9
9
9
9
9
9
9
9
9
9
9
9
9
9
9
9
9
9
9
9
9
9
9
9
9
9
9
9
9
9
9
9
9
9
9
9
9
9
9
9
9
9
9
9
9
9
9
9
9
9
9
9
9
9
9
9
9
9
9
9
9
9
9
9
9
9
9
9
9
9
9
9
9
9
9
9
9
9
9
9
9
9
9
9
9
9
9
9
9
9
9
9
9
9
9
9
9
9
9
9
9
9
9
9
9
9
9
9
9
9
9
9
9
9
9
9
9
9
9
9
9
9
9
9
9
9
9
9
9
9
9
9
9
9
9
9
9
9
9
9
9
9
9
9
9
9
9
9
9
9
9
9
9
9
9
9
9
9
9
9
9
9
9
9
9
9
9
9
9
9
9
9
9
9
9
9
9
9
9
9
9
9
9
9
9
9
9
9
9
9
9
9
9
9
9
9
9
9
9
9
9
9
9
9
9
9
9
9
9
9
9
9
9
9
9
9
9
9
9
9
9
9
9
9
9
9
9
9
9
9
9
9
9
9
9
9
9
9
9
9
9
9
9
9
9
9
9
9
9
9
9
9
9
9
9
9
9
9
9
9
9
9
9
9
9
9
9
9
9
9
9
9
9
9
9
9
9
9
9
9
9
9
9
9
9
9
9
9
9
9
9
9
9
9
9
9
9
9
9
9
9
9
9
9
9
9
9
9
9
9
9
9
9
9
9
9
9
9
9
9
9
9
9
9
9
9
9
9
9
9
9
9
9
9
9
9
9
9
9
9
9
9
9
9
9
9
9
9
9
9
9
9
9
9
9
9
9
9
9
9
9
9
9
9
9
9
9
9
9
9
9
9
9
9
9
9
9
9
9
9
9
9
9
9
9
9
9
9
9
9
9
9
9
9
9
9
9
9
9
9
9
9
9
9
9
9
9
9
9
9
9
9
9
9
9
9
9
9
9
9
9
9
9
9
9
9
9
9
9
9
9
9
9
9
9
9
9
9
9
9
9
9
9
9
9
9
9
9
9
9
9
9
9
9
9
9
9
9
9
9
9
9
9
9
9
9
9
9
9
9
9
9
9
9
9
9
9
9
9
9
9
9
9
9
9
9
9
9
9
9
9
9
9
9
9
9
9
9
9
9
9
9
9
9
9
9
9
9
9
9
9
9
9
9
9
9
9
9
9
9
9
9
9
9
9
9
9
9
9
9
9
9
9
9
9
9
9
9
9
9
9
9
9
9
9
9
9
9
9
9
9
9
9
9
9
9
9
9
9
9
9
9
9
9
9
9
9
9
9
9
9
9
9
9
9
9
9
9
9
9
9
9
9
9
9
9
9
9
9
9
9
9
9
9
9
9
9
9
9
9
9
9
9
9
9
9
9
9
9
9
9
9
9
9
9
9
9
9
9
9
9
9
9
9
9
9
9
9
9
9
9
9
9
9
9
9
9
9
9
9
9
9
9
9
9
9
9
9
9
9
9
9
9
9
9
9
9
9
9
9
9
9
9
9
9
9
9
9
9
9
9
9
9
9
9
9
9
9
9
9
9
9
9
9
9
9
9
9
9
9
9
9
9
9
9
9
9
9
9
9
9
9
9
9
9
9
9
9
9
9
9
9
9
9
9
9
9
9
9
9
9
9
9
9
9
9
9
9
9
9
9
9
9
9
9
9
9
9
9
9
9
9
9
9
9
9
9
9
9
9
9
9
9
9
9
9
9
9
9
9
9
9
9
9
9
9
9
9
9
9
9
9
9
9
9
9
9
9
9
9
9
9
9
9
9
9
9
9
9
9
9
9
9
9
9
9
9
9
9
9
9
9
9
9
9
9
9
9
9
9
9
9
9
9
9
9
9
9
9
9
9
9
9
9
9
9
9
9
9
9
9
9
9
9
9
9
9
9
9
9
9
9
9
9
9
9
9
9
9
9
9
9
9
9
9
9
9
9
9
9
9
9
9
9
9
9
9
9
9
9
9
9
9
9
9
9
9
9
9
9
9
9
9
9
9
9
9
9
9
9
9
9
9
9
9
9
9
9
9
9
9
9
9
9
9
9
9
9
9
9
9
9
9
9
9
9
9
9
9
9
9
9
9
9
9
9
9
9
9
9
9
9
9
9
9
9
9
9
9
9
9
9
9
9
9
9
9
9
9
9
9
9
9
9
9
9
9
9
9
9
9
9
9
9
9
9
9
9
9
9
9
9
9
9
9
9
9
9
9
9
9
9
9
9
9
9
9
9
9
9
9
9
9
9
9
9
9
9
9
9
9
9
9
9
9
9
9
9
9
9
9
9
9
9
9
9
9
9
9
9
9
9
9
9
9
9
9
9
9
9
9
9
9
9
9
9
9
9
9
9
9
9
9
9
9
9
9
9
9
9
9
9
9
9
9
9
9
9
9
9
9
9
9
9
9
9
9
9
9
9
9
9
9
9
9
9
9
9
9
9
9
9
9
9
9
9
9
9
9
9
9
9
9
9
9
9
9
9
9
9
9
9
9
9
9
9
9
9
9
9
9
9
9
9
9
9
9
9
9
9
9
9
9
9
9
9
9
9
9
9
9
9
9
9
9
9
9
9
9
9
9
9
9
9
9
9
9
9
9
9
9
9
9
9
9
9
9
9
9
9
9
9
9
9
9
9
9
9
9
9
9
9
9
9
9
9
9
9
9
9
9
9
9
9
9
9
9
9
9
9
9
9
9
9
9
9
9
9
9
9
9
9
9
9
9
9
9
9
9
9
9
9
9
9
9
9
9
9
9
9
9
9
9
9
9
9
9
9
9
9
9
9
9
9
9
9
9
9
9
9
9
9
9
9
9
9
9
9
9
9
9
9
9
9
9
9
9
9
9
9
9
9
9
9
9
9
9
9
9
9
9
9
9
9
9
9
9
9
9
9
9
9
9
9
9
9
9
9
9
9
9
9
9
9
9
9
9
9
9
9
9
9
9
9
9
9
9
9
9
9
9
9
9
9
9
9
9
9
9
9
9
9
9
9
9
9
9
9
9
9
9
9
9
9
9
9
9
9
9
9
9
9
9
9
9
9
9
9
9
9
9
9
9
9
9
9
9
9
9
9
9
9
9
9
9
9
9
9
9
9
9
9
9
9
9
9
9
9
9
9
9
9
9
9
9
9
9
9
9
9
9
9
9
9
9
9
9
9
9
9
9
9
9
9
9
9
9
9
9
9
9
9
9
9
9
9
9
9
9
9
9
9
9
9
9
9
9
9
9
9
9
9
9
9
9
9
9
9
9
9
9
9
9
9
9
9
9
9
9
9
9
9
9
9
9
9
9
9
9
9
9
9
9
9
9
9
9
9
9
9
9
9
9
9
9
9
9
9
9
9
9
9
9
9
9
9
9
9
9
9
9
9
9
9
9
9
9
9
9
9
9
9
9
9
9
9
9
9
9
9
9
9
9
9
9
9
9
9
9
9
9
9
9
9
9
9
9
9
9
9
9
9
9
9
9
9
9
9
9
9
9
9
9
9
9
9
9
9
9
9
9
9
9
9
9
9
9
9
9
9
9
9
9
9
9
9
9
9
9
9
9
9
9
9
9
9
9
9
9
9
9
9
9
9
9
9
9
9
9
9
9
9
9
9
9
9
9
9
9
9
9
9
9
9
9
9
9
9
9
9
9
9
9
9
9
9
9
9
9
9
9
9
9
9
9
9
9
9
9
9
9
9
9
9
9
9
9
9
9
9
9
9
9
9
9
9
9
9
9
9
9
9
9
9
9
9
9
9
9
9
9
9
9
9
9
9
9
9
9
9
9
9
9
9
9
9
9
9
9
9
9
9
9
9
9
9
9
9
9
9
9
9
9
9
9
9
9
9
9
9
9
9
9
9
9
9
9
9
9
9
9
9
9
9
9
9
9
9
9
9
9
9
9
9
9
9
9
9
9
9
9
9
9
9
9
9
9
9
9
9
9
9
9
9
9
9
9
9
9
9
9
9
9
9
9
9
9
9
9
9
9
9
9
9
9
9
9
9
9
9
9
9
9
9
9
9
9
9
9
9
9
9
9
9
9
9
9
9
9
9
9
9
9
9
9
9
9
9
9
9
9
9
9
9
9
9
9
9
9
9
9
9
9
9
9
9
9
9
9
9
9
9
9
9
9
9
9
9
9
9
9
9
9
9
9
9
9
9
9
9
9
9
9
9
9
9
9
9
9
9
9
9
9
9
9
9
9
9
9
9
9
9
9
9
9
9
9
9
9
9
9
9
9
9
9
9
9
9
9
9
9
9
9
9
9
9
9
9
9
9
9
9
9
9
9
9
9
9
9
9
9
9
9
9
9
9
9
9
9
9
9
9
9
9
9
9
9
9
9
9
9
9
9
9
9
9
9
9
9
9
9
9
9
9
9
9
9
9
9
9
9
9
9
9
9
9
9
9
9
9
9
9
9
9
9
9
9
9
9
9
9
9
9
9
9
9
9
9
9
9
9
9
9
9
9
9
9
9
9
9
9
9
9
9
9
9
9
9
9
9
9
9
9
9
9
9
9
9
9
9
9
9
9
9
9
9
9
9
9
9
9
9
9
9
9
9
9
9
9
9
9
9
9
9
9
9
9
9
9
9
9
9
9
9
9
9
9
9
9
9
9
9
9
9
9
9
9
9
9
9
9
9
9
9
9
9
9
9
9
9
9
9
9
9
9
9
9
9
9
9
9
9
9
9
9
9
9
9
9
9
9
9
9
9
9
9
9
9
9
9
9
9
9
9
9
9
9
9
9
9
9
9
9
9
9
9
9
9
9
9
9
9
9
9
9
9
9
9
9
9
9
9
9
9
9
9
9
9
9
9
9
9
9
9
9
9
9
9
9
9
9
9
9
9
9
9
9
9
9
9
9
9
9
9
9
9
9
9
9
9
9
9
9
9
9
9
9
9
9
9
9
9
9
9
9
9
9
9
9
9
9
9
9
9
9
9
9
9
9
9
9
9
9
9
9
9
9
9
9
9
9
9
9
9
9
9
9
9
9
9
9
9
9
9
9
9
9
9
9
9
9
9
9
9
9
9
9
9
9
9
9
9
9
9
9
9
9
9
9
9
9
9
9
9
9
9
9
9
9
9
9
9
9
9
9
9
9
9
9
9
9
9
9
9
9
9
9
9
9
9
9
9
9
9
9
9
9
9
9
9
9
9
9
9
9
9
9
9
9
9
9
9
9
9
9
9
9
9
9
9
9
9
9
9
9
9
9
9
9
9
9
9
9
9
9
9
9
9
9
9
9
9
9
9
9
9
9
9
9
9
9
9
9
9
9
9
9
9
9
9
9
9
9
9
9
9
9
9
9
9
9
9
9
9
9
9
9
9
9
9
9
9
9
9
9
9
9
9
9
9
9
9
9
9
9
9
9
9
9
9
9
9
9
9
9
9
9
9
9
9
9
9
9
9
9
9
9
9
9
9
9
9
9
9
9
9
9
9
9
9
9
9
9
9
9
9
9
9
9
9
9
9
9
9
9
9
9
9
9
9
9
9
9
9
9
9
9
9
9
9
9
9
9
9
9
9
9
9
9
9
9
9
9
9
9
9
9
9
9
9
9
9
9
9
9
9
9
9
9
9
9
9
9
9
9
9
9
9
9
9
9
9
9
9
9
9
9
9
9
9
9
9
9
9
9
9
9
9
9
9
9
9
9
9
9
9
9
9
9
9
9
9
9
9
9
9
9
9
9
9
9
9
9
9
9
9
9
9
9
9
9
9
9
9
9
9
9
9
9
9
9
9
9
9
9
9
9
9
9
9
9
9
9
9
9
9
9
9
9
9
9
9
9
9
9
9
9
9
9
9
9
9
9
9
9
9
9
9
9
9
9
9
9
9
9
9
9
9
9
9
9
9
9
9
9
9
9
9
9
9
9
9
9
9
9
9
9
9
9
9
9
9
9
9
9
9
9
9
9
9
9
9
9
9
9
9
9
9
9
9
9
9
9
9
9
9
9
9
9
9
9
9
9
9
9
9
9
9
9
9
9
9
9
9
9
9
9
9
9
9
9
9
9
9
9
9
9
9
9
9
9
9
9
9
9
9
9
9
9
9
9
9
9
9
9
9
9
9
9
9
9
9
9
9
9
9
9
9
9
9
9
9
9
9
9
9
9
9
9
9
9
9
9
9
9
9
9
9
9
9
9
9
9
9
9
9
9
9
9
9
9
9
9
9
9
9
9
9
9
9
9
9
9
9
9
9
9
9
9
9
9
9
9
9
9
9
9
9
9
9
9
9
9
9
9
9
9
9
9
9
9
9
9
9
9
9
9
9
9
9
9
9
9
9
9
9
9
9
9
9
9
9
9
9
9
9
9
9
9
9
9
9
9
9
9
9
9
9
9
9
9
9
9
9
9
9
9
9
9
9
9
9
9
9
9
9
9
9
9
9
9
9
9
9
9
9
9
9
9
9
9
9
9
9
9
9
9
9
9
9
9
9
9
9
9
9
9
9
9
9
9
9
9
9
9
9
9
9
9
9
9
9
9
9
9
9
9
9
9
9
9
9
9
9
9
9
9
9
9
9
9
9
9
9
9
9
9
9
9
9
9
9
9
9
9
9
9
9
9
9
9
9
9
9
9
9
9
9
9
9
9
9
9
9
9
9
9
9
9
9
9
9
9
9
9
9
9
9
9
9
9
9
9
9
9
9
9
9
9
9
9
9
9
9
9
9
9
9
9
9
9
9
9
9
9
9
9
9
9
9
9
9
9
9
9
9
9
9
9
9
9
9
9
9
9
9
9
9
9
9
9
9
9
9
9
9
9
9
9
9
9
9
9
9
9
9
9
9
9
9
9
9
9
9
9
9
9
9
9
9
9
9
9
9
9
9
9
9
9
9
9
9
9
9
9
9
9
9
9
9
9
9
9
9
9
9
9
9
9
9
9
9
9
9
9
9
9
9
9
9
9
9
9
9
9
9
9
9
9
9
9
9
9
9
9
9
9
9
9
9
9
9
9
9
9
9
9
9
9
9
9
9
9
9
9
9
9
9
9
9
9
9
9
9
9
9
9
9
9
9
9
9
9
9
9
9
9
9
9
9
9
9
9
9
9
9
9
9
9
9
9
9
9
9
9
9
9
9
9
9
9
9
9
9
9
9
9
9
9
9
9
9
9
9
9
9
9
9
9
9
9
9
9
9
9
9
9
9
9
9
9
9
9
9
9
9
9
9
9
9
9
9
9
9
9
9
9
9
9
9
9
9
9
9
9
9
9
9
9
9
9
9
9
9
9
9
9
9
9
9
9
9
9
9
9
9
9
9
9
9
9
9
9
9
9
9
9
9
9
9
9
9
9
9
9
9
9
9
9
9
9
9
9
9
9
9
9
9
9
9
9
9
9
9
9
9
9
9
9
9
9
9
9
9
9
9
9
9
9
9
9
9
9
9
9
9
9
9
9
9
9
9
9
9
9
9
9
9
9
9
9
9
9
9
9
9
9
9
9
9
9
9
9
9
9
9
9
9
9
9
9
9
9
9
9
9
9
9
9
9
9
9
9
9
9
9
9
9
9
9
9
9
9
9
9
9
9
9
9
9
9
9
9
9
9
9
9
9
9
9
9
9
9
9
9
9
9
9
9
9
9
9
9
9
9
9
9
9
9
9
9
9
9
9
9
9
9
9
9
9
9
9
9
9
9
9
9
9
9
9
9
9
9
9
9
9
9
9
9
9
9
9
9
9
9
9
9
9
9
9
9
9
9
9
9
9
9
9
9
9
9
9
9
9
9
9
9
9
9
9
9
9
9
9
9
9
9
9
9
9
9
9
9
9
9
9
9
9
9
9
9
9
9
9
9
9
9
9
9
9
9
9
9
9
9
9
9
9
9
9
9
9
9
9
9
9
9
9
9
9
9
9
9
9
9
9
9
9
9
9
9
9
9
9
9
9
9
9
9
9
9
9
9
9
9
9
9
9
9
9
9
9
9
9
9
9
9
9
9
9
9
9
9
9
9
9
9
9
9
9
9
9
9
9
9
9
9
9
9
9
9
9
9
9
9
9
9
9
9
9
9
9
9
9
9
9
9
9
9
9
9
9
9
9
9
9
9
9
9
9
9
9
9
9
9
9
9
9
9
9
9
9
9
9
9
9
9
9
9
9
9
9
9
9
9
9
9
9
9
9
9
9
9
9
9
9
9
9
9
9
9
9
9
9
9
9
9
9
9
9
9
9
9
9
9
9
9
9
9
9
9
9
9
9
9
9
9
9
9
9
9
9
9
9
9
9
9
9
9
9
9
9
9
9
9
9
9
9
9
9
9
9
9
9
9
9
9
9
9
9
9
9
9
9
9
9
9
9
9
9
9
9
9
9
9
9
9
9
9
9
9
9
9
9
9
9
9
9
9
9
9
9
9
9
9
9
9
9
9
9
9
9
9
9
9
9
9
9
9
9
9
9
9
9
9
9
9
9
9
9
9
9
9
9
9
9
9
9
9
9
9
9
9
9
9
9
9
9
9
9
9
9
9
9
9
9
9
9
9
9
9
9
9
9
9
9
9
9
9
9
9
9
9
9
9
9
9
9
9
9
9
9
9
9
9
9
9
9
9
9
9
9
9
9
9
9
9
9
9
9
9
9
9
9
9
9
9
9
9
9
9
9
9
9
9
9
9
9
9
9
9
9
9
9
9
9
9
9
9
9
9
9
9
9
9
9
9
9
9
9
9
9
9
9
9
9
9
9
9
9
9
9
9
9
9
9
9
9
9
9
9
9
9
9
9
9
9
9
9
9
9
9
9
9
9
9
9
9
9
9
9
9
9
9
9
9
9
9
9
9
9
9
9
9
9
9
9
9
9
9
9
9
9
9
9
9
9
9
9
9
9
9
9
9
9
9
9
9
9
9
9
9
9
9
9
9
9
9
9
9
9
9
9
9
9
9
9
9
9
9
9
9
9
9
9
9
9
9
9
9
9
9
9
9
9
9
9
9
9
9
9
9
9
9
9
9
9
9
9
9
9
9
9
9
9
9
9
9
9
9
9
9
9
9
9
9
9
9
9
9
9
9
9
9
9
9
9
9
9
9
9
9
9
9
9
9
9
9
9
9
9
9
9
9
9
9
9
9
9
9
9
9
9
9
9
9
9
9
9
9
9
9
9
9
9
9
9
9
9
9
9
9
9
9
9
9
9
9
9
9
9
9
9
9
9
9
9
9
9
9
9
9
9
9
9
9
9
9
9
9
9
9
9
9
9
9
9
9
9
9
9
9
9
9
9
9
9
9
9
9
9
9
9
9
9
9
9
9
9
9
9
9
9
9
9
9
9
9
9
9
9
9
9
9
9
9
9
9
9
9
9
9
9
9
9
9
9
9
9
9
9
9
9
9
9
9
9
9
9
9
9
9
9
9
9
9
9
9
9
9
9
9
9
9
9
9
9
9
9
9
9
9
9
9
9
9
9
9
9
9
9
9
9
9
9
9
9
9
9
9
9
9
9
9
9
9
9
9
9
9
9
9
9
9
9
9
9
9
9
9
9
9
9
9
9
9
9
9
9
9
9
9
9
9
9
9
9
9
9
9
9
9
9
9
9
9
9
9
9
9
9
9
9
9
9
9
9
9
9
9
9
9
9
9
9
9
9
9
9
9
9
9
9
9
9
9
9
9
9
9
9
9
9
9
9
9
9
9
9
9
9
9
9
9
9
9
9
9
9
9
9
9
9
9
9
9
9
9
9
9
9
9
9
9
9
9
9
9
9
9
9
9
9
9
9
9
9
9
9
9
9
9
9
9
9
9
9
9
9
9
9
9
9
9
9
9
9
9
9
9
9
9
9
9
9
9
9
9
9
9
9
9
9
9
9
9
9
9
9
9
9
9
9
9
9
9
9
9
9
9
9
9
9
9
9
9
9
9
9
9
9
9
9
9
9
9
9
9
9
9
9
9
9
9
9
9
9
9
9
9
9
9
9
9
9
9
9
9
9
9
9
9
9
9
9
9
9
9
9
9
9
9
9
9
9
9
9
9
9
9
9
9
9
9
9
9
9
9
9
9
9
9
9
9
9
9
9
9
9
9
9
9
9
9
9
9
9
9
9
9
9
9
9
9
9
9
9
9
9
9
9
9
9
9
9
9
9
9
9
9
9
9
9
9
9
9
9
9
9
9
9
9
9
9
9
9
9
9
9
9
9
9
9
9
9
9
9
9
9
9
9
9
9
9
9
9
9
9
9
9
9
9
9
9
9
9
9
9
9
9
9
9
9
9
9
9
9
9
9
9
9
9
9
9
9
9
9
9
9
9
9
9
9
9
9
9
9
9
9
9
9
9
9
9
9
9
9
9
9
9
9
9
9
9
9
9
9
9
9
9
9
9
9
9
9
9
9

CELL_DATA 9270
FIELD FieldData 7
B_Stress_n_p_m2 1 9270 float
0.193165 0.185621 0.18697 0.188605 0.191084 0.193098 0.190922 0.187966 0.185926 
0.179103 0.175154 0.174428 0.171422 0.168956 0.171746 0.1796 0.186157 0.185025 
0.18566 0.187679 0.192699 0.193559 0.190496 0.188007 0.19048 0.192719 0.190205 
0.184567 0.17964 0.187583 0.110874 0.105392 0.125927 0.124453 0.123601 0.123282 
0.122024 0.119971 0.119185 0.118101 0.114483 0.115551 0.115662 0.114672 0.113665 
0.114807 0.117143 0.117032 0.116479 0.117745 0.118744 0.121101 0.120995 0.119104 
0.118718 0.120295 0.121266 0.121296 0.101537 0.108008 0.107506 0.141905 0.151737 
0.152243 0.150581 0.149035 0.146511 0.145517 0.145277 0.14165 0.139034 0.137904 
0.137816 0.137086 0.137987 0.139991 0.143939 0.144747 0.144052 0.145216 0.145788 
0.146245 0.146217 0.145097 0.144624 0.145738 0.144737 0.146551 0.136179 0.104376 
0.115172 0.160078 0.170971 0.17145 0.171139 0.168302 0.164853 0.163151 0.163745 
0.161402 0.156662 0.156248 0.156721 0.15405 0.154267 0.156997 0.161955 0.164827 
0.16602 0.168106 0.166983 0.166591 0.164633 0.164343 0.163931 0.165387 0.163301 
0.161289 0.151088 0.111422 0.130754 0.180461 0.196968 0.196519 0.196045 0.193933 
0.190652 0.187765 0.183616 0.18685 0.182038 0.180126 0.181688 0.180297 0.178323 
0.180023 0.18299 0.187071 0.188707 0.192268 0.193376 0.191764 0.190558 0.189984 
0.189466 0.189986 0.193252 0.18595 0.174052 0.126339 0.150196 0.201634 0.217803 
0.220542 0.219322 0.216982 0.214707 0.211663 0.207921 0.205427 0.207623 0.204256 
0.203682 0.20503 0.20343 0.20215 0.202413 0.203704 0.204399 0.205564 0.208811 
0.210164 0.212542 0.213793 0.215188 0.215268 0.216641 0.215947 0.197623 0.145104 
0.162504 0.215093 0.230218 0.232968 0.230187 0.227064 0.224453 0.222202 0.219827 
0.216133 0.216997 0.215118 0.212595 0.21401 0.213628 0.212118 0.210209 0.208152 
0.207805 0.207261 0.208709 0.212661 0.21723 0.221919 0.225554 0.228258 0.229224 
0.227605 0.209155 0.156283 0.164608 0.216005 0.229873 0.231038 0.228058 0.224744 
0.221974 0.219507 0.217127 0.21497 0.213065 0.211822 0.210204 0.209553 0.209452 
0.208264 0.206543 0.204854 0.203993 0.203368 0.204155 0.207075 0.211134 0.215893 
0.220221 0.223793 0.226121 0.224822 0.209548 0.157174 0.163955 0.213841 0.226978 
0.228016 0.225855 0.223314 0.221025 0.21877 0.216513 0.214843 0.212834 0.21158 
0.21026 0.209079 0.208626 0.207654 0.206916 0.206479 0.206255 0.205847 0.20616 
0.207586 0.209757 0.212984 0.216315 0.219342 0.221424 0.220452 0.207381 0.156814 
0.167156 0.216675 0.23143 0.233848 0.233323 0.232192 0.231077 0.229975 0.228737 
0.227572 0.226438 0.225596 0.224451 0.22325 0.222655 0.2219 0.221335 0.221449 
0.221753 0.221734 0.221606 0.221983 0.222629 0.223833 0.225607 0.227251 0.227918 
0.225432 0.211279 0.160836 0.170621 0.222015 0.239384 0.243381 0.244234 0.244297 
0.24427 0.244268 0.244387 0.244068 0.24371 0.243433 0.242836 0.241847 0.241118 
0.240646 0.239869 0.239699 0.239693 0.239926 0.239812 0.239782 0.239917 0.239739 
0.240128 0.240423 0.240077 0.235796 0.219175 0.167133 0.171027 0.224819 0.242145 
0.246742 0.247796 0.248174 0.248448 0.248715 0.249004 0.249289 0.249173 0.248967 
0.248662 0.248154 0.247493 0.246914 0.246574 0.246115 0.245839 0.245724 0.245845 
0.245826 0.245729 0.245696 0.245458 0.245301 0.244499 0.240386 0.223281 0.170274 
0.172534 0.225366 0.241985 0.246162 0.247116 0.247414 0.247605 0.247772 0.247918 
0.248 0.247911 0.247734 0.247455 0.247061 0.246611 0.246194 0.245854 0.245541 
0.24533 0.245212 0.245178 0.245124 0.245059 0.245003 0.24491 0.244782 0.244019 
0.240051 0.223618 0.171145 0.173501 0.226045 0.242197 0.246126 0.246974 0.247212 
0.247353 0.247467 0.247552 0.247584 0.247511 0.247363 0.24714 0.246845 0.246511 
0.246186 0.245905 0.24565 0.24546 0.245329 0.245255 0.245187 0.245122 0.245071 
0.245004 0.244883 0.244162 0.24035 0.224305 0.172071 0.1743 0.226576 0.242349 
0.246065 0.246806 0.246978 0.247066 0.247131 0.24717 0.247166 0.247096 0.246969 
0.246787 0.246558 0.246302 0.246048 0.245815 0.245607 0.24544 0.245314 0.245225 
0.245152 0.245093 0.245049 0.245008 0.24491 0.244245 0.240578 0.224851 0.172846 
0.174986 0.227019 0.242479 0.246022 0.246672 0.246787 0.246828 0.246854 0.24686 
0.246835 0.246766 0.246655 0.246505 0.246322 0.24612 0.245917 0.245725 0.245552 
0.245407 0.245291 0.245203 0.245134 0.245082 0.245049 0.245026 0.244952 0.244341 
0.240804 0.225349 0.173564 0.175605 0.227394 0.242579 0.245977 0.246551 0.246617 
0.246619 0.246613 0.246595 0.246555 0.246486 0.246387 0.24626 0.246111 0.245948 
0.245782 0.245625 0.24548 0.245355 0.245252 0.245172 0.24511 0.245068 0.245046 
0.245041 0.24499 0.244427 0.241008 0.2258 0.174241 0.17618 0.227719 0.242653 
0.245926 0.246437 0.246464 0.246435 0.246404 0.246367 0.246316 0.246247 0.246157 
0.246047 0.245922 0.245788 0.245652 0.245521 0.2454 0.245293 0.245205 0.245134 
0.245083 0.245051 0.245042 0.245052 0.245021 0.244501 0.241191 0.226218 0.174889 
0.176726 0.22801 0.242707 0.245868 0.246327 0.246323 0.24627 0.246219 0.246168 
0.246109 0.246039 0.245955 0.245859 0.245752 0.24564 0.245526 0.245416 0.245315 
0.245225 0.24515 0.245092 0.245051 0.24503 0.245033 0.245056 0.245043 0.244562 
0.241354 0.226608 0.175517 0.177254 0.228277 0.242746 0.245804 0.24622 0.246191 
0.246119 0.246053 0.245991 0.245926 0.245856 0.245777 0.245691 0.245598 0.245502 
0.245405 0.245313 0.245228 0.245154 0.245092 0.245045 0.245015 0.245005 0.245018 
0.245054 0.245057 0.244611 0.241499 0.226976 0.17613 0.177771 0.228525 0.242772 
0.245735 0.246114 0.246066 0.245979 0.245902 0.245831 0.245762 0.245691 0.245617 
0.245538 0.245456 0.245372 0.245291 0.245213 0.245142 0.24508 0.24503 0.244994 
0.244974 0.244974 0.244998 0.245044 0.245061 0.244647 0.241628 0.227325 0.176732 
0.178281 0.228762 0.242789 0.245663 0.24601 0.245947 0.245849 0.245762 0.245685 
0.245613 0.245542 0.245471 0.245398 0.245324 0.245251 0.245181 0.245115 0.245055 
0.245005 0.244966 0.24494 0.24493 0.244939 0.244972 0.245027 0.245057 0.244672 
0.241744 0.22766 0.177325 0.178789 0.22899 0.2428 0.245588 0.245907 0.245831 
0.245725 0.245632 0.24555 0.245476 0.245405 0.245336 0.245268 0.245201 0.245137 
0.245076 0.245019 0.24497 0.244929 0.2449 0.244883 0.244882 0.244899 0.24494 
0.245004 0.245045 0.244688 0.241846 0.227981 0.177912 0.179295 0.229212 0.242807 
0.245511 0.245805 0.245719 0.245607 0.245509 0.245424 0.245348 0.245277 0.245211 
0.245147 0.245086 0.245028 0.244974 0.244927 0.244886 0.244854 0.244832 0.244824 
0.24483 0.244856 0.244903 0.244975 0.245025 0.244694 0.241938 0.228291 0.178494 
0.179804 0.22943 0.24281 0.245433 0.245704 0.245611 0.245493 0.245392 0.245305 
0.245228 0.245157 0.245093 0.245032 0.244976 0.244924 0.244877 0.244836 0.244803 
0.244778 0.244764 0.244762 0.244776 0.244808 0.244862 0.24494 0.244999 0.244693 
0.242021 0.228591 0.179073 0.180315 0.229645 0.24281 0.245355 0.245604 0.245505 
0.245384 0.24528 0.245191 0.245113 0.245044 0.244981 0.244923 0.244871 0.244824 
0.244782 0.244748 0.24472 0.244702 0.244695 0.244699 0.244719 0.244757 0.244817 
0.2449 0.244968 0.244684 0.242094 0.228882 0.179649 0.18083 0.229859 0.242809 
0.245277 0.245506 0.245401 0.245277 0.245172 0.245082 0.245004 0.244935 0.244874 
0.244819 0.24477 0.244727 0.24469 0.244661 0.244639 0.244626 0.244624 0.244635 
0.24466 0.244703 0.244767 0.244856 0.244931 0.244669 0.24216 0.229166 0.180225 
0.18135 0.230071 0.242807 0.245198 0.245408 0.245299 0.245173 0.245067 0.244976 
0.244898 0.24483 0.244771 0.244718 0.244672 0.244633 0.2446 0.244575 0.244558 
0.24455 0.244553 0.244569 0.244598 0.244646 0.244715 0.244807 0.244889 0.244648 
0.242219 0.229443 0.1808 0.181874 0.230284 0.242803 0.24512 0.245312 0.245198 
0.245072 0.244965 0.244874 0.244796 0.244729 0.244671 0.24462 0.244577 0.244541 
0.244512 0.244491 0.244478 0.244474 0.244482 0.244501 0.244535 0.244586 0.244659 
0.244755 0.244843 0.244623 0.242271 0.229715 0.181376 0.182405 0.230496 0.242799 
0.245042 0.245217 0.2451 0.244972 0.244865 0.244774 0.244697 0.244631 0.244574 
0.244525 0.244484 0.244451 0.244425 0.244407 0.244398 0.244398 0.244409 0.244432 
0.24447 0.244525 0.244601 0.2447 0.244793 0.244593 0.242318 0.229981 0.181953 
0.182941 0.230708 0.242795 0.244964 0.245123 0.245003 0.244875 0.244767 0.244676 
0.2446 0.244535 0.244479 0.244432 0.244393 0.244362 0.244339 0.244324 0.244318 
0.244321 0.244336 0.244362 0.244403 0.244461 0.24454 0.244642 0.24474 0.244558 
0.24236 0.230243 0.182532 0.183484 0.230921 0.242789 0.244887 0.24503 0.244907 
0.244778 0.244671 0.244581 0.244505 0.24444 0.244386 0.244341 0.244304 0.244275 
0.244254 0.244242 0.244238 0.244245 0.244262 0.244291 0.244335 0.244395 0.244477 
0.244582 0.244684 0.244521 0.242397 0.2305 0.183114 0.184032 0.231133 0.242784 
0.24481 0.244938 0.244812 0.244684 0.244576 0.244486 0.244411 0.244348 0.244294 
0.24425 0.244215 0.244188 0.24417 0.24416 0.244159 0.244167 0.244187 0.244219 
0.244265 0.244328 0.244412 0.244519 0.244626 0.244479 0.242429 0.230753 0.183698 
0.184587 0.231346 0.242778 0.244734 0.244846 0.244719 0.24459 0.244483 0.244393 
0.244319 0.244256 0.244204 0.244162 0.244128 0.244102 0.244086 0.244078 0.244079 
0.24409 0.244112 0.244146 0.244194 0.244259 0.244345 0.244454 0.244565 0.244435 
0.242458 0.231003 0.184285 0.185149 0.231559 0.242771 0.244658 0.244756 0.244626 
0.244497 0.24439 0.244302 0.244227 0.244166 0.244115 0.244073 0.244041 0.244017 
0.244002 0.243996 0.243999 0.244012 0.244036 0.244072 0.244122 0.244189 0.244276 
0.244387 0.244502 0.244388 0.242483 0.231249 0.184876 0.185717 0.231773 0.242764 
0.244582 0.244666 0.244534 0.244406 0.244299 0.244211 0.244137 0.244076 0.244026 
0.243986 0.243955 0.243933 0.243919 0.243915 0.243919 0.243934 0.24396 0.243997 
0.244049 0.244117 0.244206 0.244319 0.244437 0.244338 0.242504 0.231493 0.18547 
0.186292 0.231986 0.242757 0.244506 0.244577 0.244443 0.244315 0.244208 0.244121 
0.244048 0.243988 0.243939 0.243899 0.243869 0.243848 0.243836 0.243833 0.243839 
0.243855 0.243883 0.243922 0.243975 0.244045 0.244135 0.244249 0.24437 0.244287 
0.242522 0.231734 0.186069 0.186874 0.232199 0.242749 0.244431 0.244488 0.244353 
0.244224 0.244119 0.244031 0.243959 0.2439 0.243851 0.243813 0.243784 0.243764 
0.243753 0.243751 0.243759 0.243776 0.243805 0.243845 0.2439 0.243971 0.244062 
0.244177 0.244301 0.244233 0.242537 0.231972 0.186672 0.187462 0.232413 0.24274 
0.244355 0.2444 0.244263 0.244135 0.244029 0.243943 0.243871 0.243812 0.243765 
0.243727 0.243699 0.24368 0.24367 0.24367 0.243679 0.243697 0.243727 0.243768 
0.243824 0.243896 0.243988 0.244105 0.244231 0.244177 0.242549 0.232207 0.18728 
0.188057 0.232626 0.24273 0.24428 0.244312 0.244174 0.244046 0.243941 0.243854 
0.243783 0.243725 0.243678 0.243642 0.243614 0.243596 0.243588 0.243588 0.243598 
0.243617 0.243648 0.243691 0.243748 0.243821 0.243914 0.244031 0.24416 0.244119 
0.242558 0.232441 0.187893 0.188659 0.232838 0.24272 0.244205 0.244225 0.244085 
0.243957 0.243852 0.243767 0.243696 0.243638 0.243592 0.243556 0.24353 0.243513 
0.243505 0.243506 0.243517 0.243537 0.243569 0.243613 0.24367 0.243744 0.243838 
0.243956 0.244088 0.24406 0.242564 0.232671 0.188511 0.189268 0.23305 0.242708 
0.24413 0.244138 0.243997 0.243869 0.243764 0.243679 0.243609 0.243552 0.243506 
0.243471 0.243445 0.243429 0.243422 0.243424 0.243435 0.243457 0.24349 0.243534 
0.243592 0.243667 0.243762 0.24388 0.244014 0.243999 0.242568 0.2329 0.189135 
0.189884 0.233262 0.242696 0.244054 0.244051 0.243908 0.243781 0.243677 0.243592 
0.243522 0.243466 0.243421 0.243386 0.243361 0.243345 0.243339 0.243341 0.243354 
0.243376 0.243409 0.243455 0.243514 0.243589 0.243684 0.243804 0.243939 0.243936 
0.242569 0.233127 0.189763 0.190507 0.233473 0.242682 0.243979 0.243964 0.243821 
0.243693 0.24359 0.243505 0.243436 0.24338 0.243335 0.243301 0.243276 0.243261 
0.243255 0.243259 0.243272 0.243295 0.243329 0.243375 0.243435 0.24351 0.243606 
0.243726 0.243864 0.243872 0.242568 0.233351 0.190398 0.191137 0.233683 0.242668 
0.243903 0.243878 0.243733 0.243606 0.243503 0.243418 0.243349 0.243294 0.24325 
0.243216 0.243192 0.243177 0.243172 0.243176 0.24319 0.243213 0.243248 0.243294 
0.243355 0.243431 0.243527 0.243648 0.243787 0.243807 0.242565 0.233573 0.191039 
0.191774 0.233892 0.242652 0.243828 0.243792 0.243646 0.243519 0.243416 0.243332 
0.243263 0.243208 0.243164 0.243131 0.243107 0.243093 0.243089 0.243093 0.243107 
0.243132 0.243167 0.243214 0.243275 0.243351 0.243448 0.243569 0.24371 0.243741 
0.242559 0.233793 0.191685 0.192418 0.2341 0.242635 0.243751 0.243706 0.243559 
0.243432 0.243329 0.243246 0.243177 0.243122 0.243079 0.243046 0.243023 0.243009 
0.243005 0.24301 0.243025 0.243049 0.243085 0.243132 0.243194 0.243271 0.243368 
0.24349 0.243632 0.243673 0.242552 0.234011 0.192338 0.193069 0.234307 0.242617 
0.243675 0.24362 0.243472 0.243345 0.243242 0.243159 0.243091 0.243037 0.242993 
0.242961 0.242938 0.242925 0.242921 0.242927 0.242942 0.242967 0.243003 0.243051 
0.243113 0.24319 0.243288 0.243409 0.243554 0.243605 0.242542 0.234227 0.192998 
0.193728 0.234513 0.242597 0.243599 0.243534 0.243385 0.243259 0.243156 0.243073 
0.243005 0.242951 0.242908 0.242876 0.242854 0.242841 0.242837 0.242843 0.242859 
0.242884 0.242921 0.242969 0.243031 0.243109 0.243207 0.243329 0.243474 0.243535 
0.24253 0.234441 0.193663 0.194394 0.234717 0.242576 0.243522 0.243448 0.243298 
0.243172 0.243069 0.242987 0.242919 0.242865 0.242822 0.242791 0.242769 0.242756 
0.242753 0.242759 0.242775 0.242801 0.242838 0.242886 0.242949 0.243027 0.243125 
0.243248 0.243394 0.243464 0.242515 0.234652 0.194336 0.195068 0.23492 0.242554 
0.243444 0.243363 0.243212 0.243085 0.242983 0.242901 0.242833 0.242779 0.242737 
0.242706 0.242684 0.242672 0.242669 0.242675 0.242692 0.242718 0.242755 0.242803 
0.242866 0.242945 0.243043 0.243166 0.243314 0.243393 0.242499 0.234862 0.195015 
0.195749 0.235121 0.24253 0.243367 0.243277 0.243125 0.242999 0.242897 0.242814 
0.242747 0.242694 0.242651 0.24262 0.242599 0.242587 0.242584 0.242591 0.242608 
0.242634 0.242671 0.24272 0.242784 0.242862 0.242961 0.243084 0.243233 0.24332 
0.242481 0.235069 0.195701 0.196438 0.235321 0.242505 0.243289 0.243191 0.243038 
0.242912 0.24281 0.242728 0.242661 0.242608 0.242566 0.242535 0.242513 0.242502 
0.2425 0.242507 0.242523 0.24255 0.242588 0.242637 0.2427 0.242779 0.242878 
0.243001 0.243151 0.243247 0.24246 0.235273 0.196395 0.197134 0.235518 0.242478 
0.24321 0.243105 0.242951 0.242826 0.242724 0.242642 0.242575 0.242522 0.24248 
0.242449 0.242428 0.242417 0.242415 0.242422 0.242439 0.242466 0.242504 0.242553 
0.242617 0.242696 0.242795 0.242918 0.243069 0.243173 0.242438 0.235475 0.197095 
0.197838 0.235714 0.242449 0.243131 0.243019 0.242865 0.242739 0.242637 0.242555 
0.242488 0.242436 0.242394 0.242363 0.242343 0.242331 0.24233 0.242337 0.242354 
0.242381 0.24242 0.242469 0.242533 0.242612 0.242711 0.242835 0.242987 0.243098 
0.242413 0.235675 0.197804 0.19855 0.235907 0.242419 0.243052 0.242933 0.242778 
0.242652 0.242551 0.242469 0.242402 0.24235 0.242308 0.242278 0.242257 0.242246 
0.242244 0.242252 0.242269 0.242297 0.242335 0.242385 0.242449 0.242528 0.242627 
0.242751 0.242904 0.243022 0.242387 0.235873 0.198519 0.19927 0.236098 0.242388 
0.242972 0.242846 0.242691 0.242566 0.242464 0.242383 0.242316 0.242263 0.242222 
0.242192 0.242171 0.24216 0.242159 0.242167 0.242184 0.242212 0.24225 0.2423 
0.242364 0.242443 0.242543 0.242667 0.24282 0.242945 0.242359 0.236067 0.199242 
0.199999 0.236287 0.242355 0.242892 0.24276 0.242604 0.242479 0.242377 0.242296 
0.242229 0.242177 0.242136 0.242106 0.242085 0.242074 0.242073 0.242081 0.242099 
0.242126 0.242165 0.242215 0.24228 0.242359 0.242459 0.242582 0.242737 0.242868 
0.242329 0.236259 0.199973 0.200735 0.236474 0.24232 0.242812 0.242674 0.242517 
0.242392 0.24229 0.242209 0.242143 0.24209 0.242049 0.242019 0.241999 0.241988 
0.241987 0.241995 0.242013 0.242041 0.24208 0.24213 0.242195 0.242274 0.242374 
0.242497 0.242653 0.24279 0.242296 0.236449 0.200712 0.20148 0.236657 0.242283 
0.242731 0.242587 0.24243 0.242305 0.242203 0.242122 0.242056 0.242004 0.241963 
0.241933 0.241913 0.241902 0.241901 0.241909 0.241928 0.241955 0.241994 0.242045 
0.242109 0.242189 0.242289 0.242412 0.242568 0.242711 0.242262 0.236635 0.201459 
0.202233 0.236838 0.242245 0.242649 0.2425 0.242343 0.242218 0.242116 0.242036 
0.241969 0.241917 0.241876 0.241846 0.241826 0.241816 0.241815 0.241823 0.241842 
0.241869 0.241909 0.241959 0.242024 0.242103 0.242203 0.242327 0.242483 0.242631 
0.242226 0.236818 0.202214 0.202994 0.237017 0.242205 0.242567 0.242413 0.242256 
0.242131 0.242029 0.241949 0.241882 0.24183 0.241789 0.24176 0.24174 0.24173 
0.241729 0.241737 0.241755 0.241783 0.241823 0.241873 0.241938 0.242017 0.242118 
0.242241 0.242398 0.242551 0.242188 0.236998 0.202978 0.203765 0.237192 0.242163 
0.242485 0.242326 0.242168 0.242044 0.241942 0.241861 0.241795 0.241743 0.241702 
0.241673 0.241653 0.241643 0.241642 0.241651 0.241669 0.241697 0.241736 0.241787 
0.241852 0.241931 0.242032 0.242155 0.242313 0.242471 0.242148 0.237175 0.20375 
0.204544 0.237364 0.24212 0.242402 0.242239 0.242081 0.241956 0.241855 0.241774 
0.241708 0.241656 0.241615 0.241586 0.241566 0.241556 0.241555 0.241564 0.241582 
0.24161 0.24165 0.2417 0.241766 0.241845 0.241946 0.242069 0.242227 0.242389 
0.242106 0.237349 0.20453 0.205332 0.237533 0.242075 0.242319 0.242152 0.241993 
0.241869 0.241767 0.241687 0.241621 0.241569 0.241528 0.241499 0.241479 0.241469 
0.241468 0.241477 0.241496 0.241524 0.241563 0.241614 0.241679 0.241758 0.241859 
0.241983 0.242141 0.242307 0.242063 0.237519 0.20532 0.206129 0.237698 0.242028 
0.242235 0.242064 0.241905 0.241781 0.24168 0.241599 0.241533 0.241481 0.241441 
0.241412 0.241392 0.241382 0.241381 0.24139 0.241409 0.241437 0.241476 0.241527 
0.241592 0.241672 0.241772 0.241896 0.242054 0.242225 0.242017 0.237686 0.206118 
0.206935 0.23786 0.241979 0.242151 0.241977 0.241817 0.241693 0.241592 0.241512 
0.241445 0.241394 0.241353 0.241324 0.241305 0.241295 0.241294 0.241303 0.241322 
0.24135 0.241389 0.24144 0.241505 0.241585 0.241686 0.241809 0.241968 0.242142 
0.241969 0.237849 0.206925 0.207751 0.238018 0.241929 0.242067 0.241889 0.241729 
0.241605 0.241504 0.241424 0.241358 0.241306 0.241266 0.241237 0.241217 0.241207 
0.241207 0.241216 0.241234 0.241263 0.241302 0.241353 0.241418 0.241498 0.241598 
0.241722 0.241881 0.242058 0.24192 0.238008 0.207742 0.208576 0.238172 0.241876 
0.241982 0.241801 0.241641 0.241517 0.241416 0.241336 0.24127 0.241218 0.241178 
0.241149 0.241129 0.24112 0.241119 0.241128 0.241147 0.241175 0.241215 0.241266 
0.241331 0.24141 0.241511 0.241634 0.241793 0.241974 0.241869 0.238163 0.208568 
0.20941 0.238322 0.241822 0.241896 0.241712 0.241552 0.241429 0.241328 0.241248 
0.241182 0.241131 0.24109 0.241061 0.241042 0.241032 0.241032 0.241041 0.241059 
0.241088 0.241127 0.241178 0.241243 0.241323 0.241423 0.241546 0.241706 0.241889 
0.241815 0.238314 0.209403 0.210254 0.238467 0.241766 0.24181 0.241624 0.241464 
0.241341 0.241239 0.24116 0.241094 0.241043 0.241002 0.240973 0.240954 0.240944 
0.240944 0.240953 0.240972 0.241 0.24104 0.24109 0.241156 0.241235 0.241336 
0.241458 0.241618 0.241804 0.24176 0.238461 0.210248 0.211108 0.238609 0.241709 
0.241724 0.241535 0.241375 0.241252 0.241151 0.241071 0.241006 0.240954 0.240914 
0.240885 0.240866 0.240856 0.240856 0.240865 0.240884 0.240912 0.240952 0.241002 
0.241068 0.241147 0.241248 0.24137 0.24153 0.241718 0.241703 0.238603 0.211103 
0.211973 0.238746 0.241649 0.241637 0.241446 0.241286 0.241163 0.241062 0.240983 
0.240917 0.240866 0.240826 0.240797 0.240778 0.240769 0.240768 0.240777 0.240796 
0.240824 0.240864 0.240914 0.24098 0.241059 0.241159 0.241282 0.241442 0.241632 
0.241644 0.23874 0.211968 0.212847 0.238877 0.241588 0.241549 0.241357 0.241197 
0.241074 0.240974 0.240894 0.240829 0.240778 0.240738 0.240709 0.24069 0.240681 
0.24068 0.240689 0.240708 0.240736 0.240776 0.240826 0.240891 0.24097 0.241071 
0.241193 0.241353 0.241545 0.241584 0.238873 0.212842 0.213731 0.239004 0.241525 
0.241462 0.241268 0.241108 0.240985 0.240885 0.240805 0.24074 0.240689 0.24065 
0.240621 0.240602 0.240593 0.240592 0.240601 0.24062 0.240648 0.240688 0.240738 
0.240803 0.240882 0.240982 0.241104 0.241264 0.241458 0.241521 0.239 0.213727 
0.214626 0.239126 0.24146 0.241373 0.241178 0.241018 0.240896 0.240796 0.240717 
0.240652 0.240601 0.240561 0.240533 0.240514 0.240505 0.240504 0.240513 0.240532 
0.24056 0.240599 0.24065 0.240714 0.240793 0.240893 0.241015 0.241175 0.24137 
0.241456 0.239122 0.214623 0.215532 0.239242 0.241393 0.241285 0.241088 0.240928 
0.240807 0.240706 0.240628 0.240563 0.240512 0.240473 0.240445 0.240426 0.240417 
0.240416 0.240425 0.240444 0.240472 0.240511 0.240561 0.240626 0.240704 0.240804 
0.240926 0.241085 0.241282 0.24139 0.239239 0.215529 0.216448 0.239353 0.241324 
0.241195 0.240998 0.240838 0.240717 0.240617 0.240539 0.240474 0.240424 0.240385 
0.240357 0.240338 0.240329 0.240329 0.240338 0.240356 0.240384 0.240423 0.240473 
0.240537 0.240615 0.240715 0.240836 0.240995 0.241193 0.241322 0.23935 0.216445 
0.217375 0.239457 0.241254 0.241105 0.240907 0.240748 0.240627 0.240528 0.24045 
0.240386 0.240336 0.240297 0.240269 0.24025 0.240241 0.240241 0.24025 0.240268 
0.240296 0.240334 0.240384 0.240448 0.240526 0.240625 0.240746 0.240905 0.241103 
0.241251 0.239455 0.217372 0.218312 0.239555 0.241181 0.241015 0.240817 0.240658 
0.240537 0.240438 0.24036 0.240297 0.240247 0.240209 0.240181 0.240163 0.240154 
0.240153 0.240162 0.24018 0.240208 0.240246 0.240296 0.240359 0.240437 0.240536 
0.240656 0.240815 0.241013 0.241179 0.239553 0.21831 0.219261 0.239647 0.241106 
0.240924 0.240725 0.240567 0.240447 0.240349 0.240271 0.240208 0.240159 0.240121 
0.240093 0.240075 0.240066 0.240066 0.240075 0.240093 0.24012 0.240158 0.240207 
0.24027 0.240347 0.240445 0.240565 0.240723 0.240922 0.241105 0.239645 0.219259 
0.220221 0.239732 0.24103 0.240832 0.240633 0.240476 0.240356 0.240259 0.240182 
0.24012 0.240071 0.240033 0.240006 0.239989 0.23998 0.23998 0.239988 0.240006 
0.240033 0.24007 0.240119 0.240181 0.240258 0.240355 0.240474 0.240632 0.24083 
0.241028 0.23973 0.220219 0.221192 0.239809 0.240951 0.240739 0.240541 0.240384 
0.240266 0.240169 0.240093 0.240031 0.239983 0.239946 0.23992 0.239902 0.239893 
0.239893 0.239902 0.239919 0.239946 0.239983 0.240031 0.240092 0.240168 0.240265 
0.240383 0.24054 0.240738 0.24095 0.239808 0.221191 0.222174 0.239879 0.24087 
0.240646 0.240448 0.240292 0.240175 0.240079 0.240004 0.239943 0.239896 0.23986 
0.239834 0.239816 0.239808 0.239808 0.239816 0.239833 0.239859 0.239896 0.239943 
0.240003 0.240078 0.240174 0.240291 0.240447 0.240645 0.240869 0.239878 0.222173 
0.223167 0.23994 0.240786 0.240551 0.240354 0.240199 0.240083 0.239989 0.239915 
0.239856 0.239809 0.239774 0.239748 0.239732 0.239723 0.239723 0.239731 0.239748 
0.239774 0.239809 0.239855 0.239914 0.239988 0.240083 0.240199 0.240353 0.24055 
0.240785 0.239939 0.223166 0.224172 0.239993 0.2407 0.240456 0.24026 0.240106 
0.239992 0.239899 0.239826 0.239768 0.239723 0.239689 0.239664 0.239648 0.23964 
0.23964 0.239648 0.239664 0.239689 0.239723 0.239768 0.239826 0.239898 0.239991 
0.240106 0.240259 0.240455 0.240699 0.239992 0.224171 0.225187 0.240037 0.240611 
0.240358 0.240164 0.240013 0.2399 0.239809 0.239738 0.239682 0.239638 0.239605 
0.239581 0.239565 0.239558 0.239558 0.239565 0.239581 0.239605 0.239638 0.239682 
0.239738 0.239809 0.239899 0.240012 0.240163 0.240358 0.240611 0.240036 0.225186 
0.226212 0.24007 0.240519 0.240259 0.240067 0.239918 0.239808 0.239719 0.239651 
0.239596 0.239554 0.239522 0.239499 0.239485 0.239477 0.239477 0.239484 0.239499 
0.239522 0.239554 0.239596 0.23965 0.239719 0.239807 0.239918 0.240066 0.240259 
0.240519 0.240069 0.226212 0.227249 0.240093 0.240424 0.240159 0.239969 0.239823 
0.239715 0.23963 0.239564 0.239512 0.239471 0.239441 0.23942 0.239406 0.239399 
0.239399 0.239406 0.239419 0.239441 0.239471 0.239511 0.239563 0.23963 0.239715 
0.239823 0.239968 0.240158 0.240423 0.240092 0.227248 0.228294 0.240103 0.240324 
0.240055 0.239869 0.239727 0.239622 0.239541 0.239477 0.239428 0.239391 0.239362 
0.239342 0.239329 0.239323 0.239323 0.239329 0.239342 0.239362 0.23939 0.239428 
0.239477 0.239541 0.239622 0.239727 0.239868 0.240055 0.240323 0.240103 0.228294 
0.229349 0.240101 0.240219 0.239949 0.239767 0.23963 0.23953 0.239452 0.239393 
0.239347 0.239312 0.239286 0.239267 0.239255 0.23925 0.23925 0.239255 0.239267 
0.239286 0.239312 0.239347 0.239393 0.239452 0.239529 0.23963 0.239767 0.239949 
0.240219 0.240101 0.229349 0.230412 0.240084 0.240109 0.23984 0.239663 0.239532 
0.239437 0.239365 0.23931 0.239268 0.239236 0.239212 0.239196 0.239185 0.23918 
0.23918 0.239185 0.239196 0.239212 0.239236 0.239268 0.23931 0.239365 0.239437 
0.239532 0.239663 0.23984 0.240109 0.240083 0.230411 0.23148 0.24005 0.239993 
0.239727 0.239557 0.239434 0.239345 0.239279 0.239229 0.239192 0.239163 0.239143 
0.239128 0.239119 0.239114 0.239114 0.239119 0.239128 0.239143 0.239163 0.239192 
0.239229 0.239279 0.239345 0.239434 0.239557 0.239727 0.239992 0.24005 0.23148 
0.232553 0.239997 0.239868 0.23961 0.239448 0.239335 0.239254 0.239196 0.239152 
0.239119 0.239095 0.239077 0.239065 0.239057 0.239054 0.239054 0.239057 0.239065 
0.239077 0.239095 0.239119 0.239152 0.239196 0.239254 0.239335 0.239448 0.239609 
0.239868 0.239997 0.232553 0.233624 0.239922 0.239733 0.239487 0.239338 0.239237 
0.239166 0.239116 0.239079 0.239052 0.239032 0.239018 0.239008 0.239001 0.238998 
0.238998 0.239001 0.239008 0.239018 0.239032 0.239052 0.239078 0.239115 0.239166 
0.239237 0.239337 0.239487 0.239733 0.239922 0.233624 0.234689 0.23982 0.239588 
0.23936 0.239226 0.23914 0.239081 0.23904 0.239011 0.23899 0.238975 0.238964 
0.238957 0.238952 0.23895 0.23895 0.238952 0.238957 0.238964 0.238975 0.23899 
0.239011 0.23904 0.239081 0.23914 0.239226 0.23936 0.239588 0.23982 0.234688 
0.235739 0.239689 0.239429 0.239229 0.239114 0.239047 0.239001 0.238971 0.23895 
0.238935 0.238925 0.238917 0.238912 0.238909 0.238908 0.238908 0.238909 0.238912 
0.238917 0.238925 0.238935 0.23895 0.238971 0.239001 0.239047 0.239114 0.239229 
0.239429 0.239689 0.235739 0.236771 0.239519 0.23925 0.239091 0.239005 0.238959 
0.23893 0.238911 0.238898 0.23889 0.238883 0.238879 0.238876 0.238874 0.238873 
0.238873 0.238874 0.238876 0.238879 0.238883 0.23889 0.238898 0.238911 0.23893 
0.238959 0.239005 0.239091 0.23925 0.239519 0.236771 0.23772 0.239299 0.239061 
0.238961 0.238912 0.238889 0.238874 0.238866 0.23886 0.238856 0.238853 0.238851 
0.23885 0.238849 0.238848 0.238848 0.238849 0.23885 0.238851 0.238853 0.238856 
0.23886 0.238866 0.238874 0.238889 0.238912 0.238961 0.239061 0.239299 0.23772 
0.238389 0.239064 0.238922 0.238879 0.238859 0.23885 0.238845 0.238842 0.23884 
0.238838 0.238837 0.238837 0.238836 0.238836 0.238836 0.238836 0.238836 0.238836 
0.238837 0.238837 0.238838 0.23884 0.238842 0.238845 0.23885 0.238859 0.238879 
0.238922 0.239064 0.238389 1539.52 1635.08 1605.35 1636.9 1655.17 1666.17 
1618.41 1655.48 1694.7 1664.9 1638.11 1636.39 1616.18 1590.87 1594.17 
1622.64 1632 1626.93 1608.28 1584.4 1590.74 1613.61 1614.93 1621.98 
1629.4 1633.53 1633.39 1618.48 1647.04 1511.59 1668.02 1758.07 1726.58 
1745.2 1762.22 1765.38 1739.08 1769.96 1806.49 1781.5 1740.99 1725.62 
1705.84 1684.05 1693.75 1727.62 1745.47 1744.78 1728.42 1710.28 1712.85 
1727.02 1731.67 1740.18 1750.69 1755.51 1753.14 1740.82 1759.17 1636.86 
1649.08 1709.85 1691.91 1706.65 1721.02 1723.85 1708.48 1732.34 1761.06 
1740.8 1699.69 1675.85 1652.96 1633.91 1646.4 1682.44 1704.79 1708.22 
1696.26 1682.15 1683.23 1694.56 1701.83 1712.14 1721.77 1724.96 1721.85 
1709.05 1711.48 1622.96 1575.72 1624.62 1615.82 1627.5 1637.56 1640.04 
1632.58 1649.24 1669.19 1653.39 1614.52 1585.74 1560.59 1543.38 1556.32 
1591.85 1617.1 1625.56 1619.22 1609.88 1609.59 1618.58 1628.38 1640.56 
1648.38 1649.24 1645.96 1632.61 1626.41 1555.86 1513.11 1570.34 1562.58 
1571.94 1576.73 1578.33 1575.67 1585.56 1597.22 1585.12 1549.25 1518.6 
1492.46 1475.79 1486.99 1520.67 1548.14 1562.05 1561.2 1556.26 1554.48 
1561.95 1574.11 1588.09 1593.59 1592.06 1589.81 1576.13 1571.11 1498.57 
1452.97 1532.71 1521.65 1529.8 1529.42 1529.87 1529.44 1533.33 1537.56 
1528.34 1495.66 1465.7 1439.82 1422.46 1430.05 1461.45 1491.05 1509.92 
1513.05 1511.73 1508.69 1515.49 1529.26 1544.61 1547.78 1544.37 1543.92 
1529.53 1530.96 1441.46 1358.83 1456.33 1446.61 1454.99 1449.94 1449.04 
1449.56 1449.05 1447.68 1441.85 1413.85 1386.68 1362.89 1344.34 1345.48 
1372.56 1403.25 1425.32 1430.51 1431.3 1427.12 1433.43 1448.08 1464.57 
1465.78 1461.21 1462.53 1447.41 1451.46 1348.06 1330.2 1386.66 1392.18 
1405.69 1396.01 1394.24 1395.81 1392.29 1386.29 1385.15 1361.04 1336.89 
1317.51 1299.61 1291.01 1311.37 1342.89 1367.24 1373.86 1375.2 1368.76 
1376.34 1391.4 1409.26 1408.77 1403.77 1406.88 1387.62 1381.3 1317.97 
0.0423074 0.0628519 0.0766821 0.0856333 0.0918408 0.0969548 0.101853 0.106635 0.110835 
0.113857 0.115465 0.115847 0.115299 0.114043 0.112378 0.1108 0.109786 0.109498 
0.109717 0.110036 0.11006 0.109528 0.108326 0.106438 0.103777 0.0999876 0.0941918 
0.0848219 0.0697983 0.0472489 0.0423372 0.0628862 0.0767038 0.0856342 0.0918244 0.0969298 
0.101829 0.106619 0.110828 0.113855 0.115462 0.11584 0.115288 0.114027 0.112356 
0.110771 0.109754 0.109468 0.109692 0.110016 0.110045 0.109514 0.108314 0.106427 
0.10377 0.0999916 0.0942136 0.0848646 0.0698527 0.0472962 0.0423559 0.0629097 0.076719 
0.0856342 0.0918121 0.0969118 0.101812 0.106608 0.110824 0.113854 0.11546 0.115836 
0.115282 0.114018 0.112341 0.110752 0.109733 0.109448 0.109676 0.110004 0.110035 
0.109506 0.108305 0.106419 0.103764 0.0999927 0.0942272 0.0848932 0.0698892 0.0473254 
0.0423777 0.0629365 0.0767362 0.0856343 0.0917983 0.0968915 0.101793 0.106596 0.11082 
0.113854 0.115458 0.115831 0.115275 0.114007 0.112325 0.11073 0.109709 0.109426 
0.109658 0.10999 0.110024 0.109496 0.108295 0.106409 0.103758 0.099994 0.0942425 
0.0849254 0.0699304 0.0473592 0.0423992 0.0629633 0.0767533 0.0856342 0.0917843 0.0968711 
0.101774 0.106584 0.110816 0.113853 0.115457 0.115827 0.115269 0.113997 0.112309 
0.110709 0.109685 0.109404 0.10964 0.109977 0.110014 0.109487 0.108286 0.1064 
0.103751 0.0999949 0.0942575 0.0849574 0.0699714 0.0473925 0.0424211 0.0629906 0.0767708 
0.0856342 0.09177 0.0968503 0.101755 0.106572 0.110811 0.113853 0.115456 0.115823 
0.115262 0.113987 0.112293 0.110687 0.109661 0.109382 0.109622 0.109963 0.110003 
0.109477 0.108276 0.106391 0.103744 0.0999958 0.0942727 0.0849898 0.0700131 0.0474264 
0.0424432 0.0630182 0.0767885 0.0856341 0.0917556 0.0968293 0.101735 0.106559 0.110807 
0.113853 0.115454 0.115818 0.115255 0.113976 0.112277 0.110665 0.109637 0.10936 
0.109604 0.109949 0.109992 0.109468 0.108266 0.106381 0.103737 0.0999966 0.0942879 
0.0850226 0.0700552 0.0474605 0.0424655 0.0630461 0.0768063 0.085634 0.0917411 0.0968082 
0.101716 0.106547 0.110803 0.113853 0.115453 0.115814 0.115248 0.113966 0.112261 
0.110643 0.109613 0.109338 0.109586 0.109935 0.109981 0.109458 0.108256 0.106371 
0.10373 0.0999974 0.0943032 0.0850555 0.0700976 0.0474948 0.0424879 0.0630742 0.0768243 
0.0856338 0.0917265 0.0967869 0.101696 0.106534 0.110799 0.113853 0.115451 0.11581 
0.115241 0.113956 0.112245 0.110621 0.109588 0.109315 0.109568 0.109921 0.10997 
0.109448 0.108246 0.106361 0.103723 0.099998 0.0943185 0.0850887 0.0701403 0.0475294 
0.0425104 0.0631026 0.0768424 0.0856337 0.0917117 0.0967655 0.101676 0.106522 0.110795 
0.113853 0.11545 0.115805 0.115234 0.113945 0.112228 0.110599 0.109564 0.109293 
0.10955 0.109907 0.109959 0.109438 0.108236 0.106351 0.103715 0.0999987 0.0943338 
0.085122 0.0701834 0.0475642 0.042533 0.0631311 0.0768606 0.0856335 0.0916969 0.096744 
0.101656 0.106509 0.110791 0.113853 0.115448 0.115801 0.115228 0.113934 0.112212 
0.110576 0.109539 0.10927 0.109531 0.109893 0.109948 0.109428 0.108226 0.106341 
0.103708 0.0999992 0.0943491 0.0851555 0.0702267 0.0475991 0.0425558 0.0631599 0.076879 
0.0856333 0.091682 0.0967224 0.101636 0.106496 0.110787 0.113852 0.115447 0.115796 
0.115221 0.113924 0.112195 0.110554 0.109514 0.109247 0.109513 0.109879 0.109937 
0.109418 0.108216 0.106331 0.103701 0.0999997 0.0943645 0.0851892 0.0702703 0.0476343 
0.0425786 0.0631889 0.0768975 0.0856331 0.091667 0.0967006 0.101616 0.106484 0.110782 
0.113852 0.115446 0.115792 0.115214 0.113913 0.112179 0.110531 0.109489 0.109224 
0.109494 0.109865 0.109925 0.109408 0.108206 0.106321 0.103693 0.1 0.0943798 
0.0852231 0.0703141 0.0476696 0.0426015 0.0632181 0.0769161 0.0856329 0.0916519 0.0966788 
0.101595 0.106471 0.110778 0.113852 0.115444 0.115787 0.115207 0.113903 0.112162 
0.110509 0.109464 0.109201 0.109476 0.109851 0.109914 0.109398 0.108195 0.106311 
0.103686 0.1 0.0943951 0.085257 0.0703582 0.047705 0.0426245 0.0632474 0.0769348 
0.0856326 0.0916367 0.0966569 0.101575 0.106458 0.110774 0.113852 0.115442 0.115782 
0.1152 0.113892 0.112146 0.110486 0.109439 0.109178 0.109457 0.109837 0.109903 
0.109388 0.108185 0.106301 0.103678 0.100001 0.0944105 0.0852911 0.0704025 0.0477406 
0.0426476 0.063277 0.0769536 0.0856322 0.0916214 0.0966348 0.101554 0.106445 0.11077 
0.113852 0.115441 0.115778 0.115193 0.113881 0.112129 0.110463 0.109414 0.109155 
0.109438 0.109822 0.109892 0.109378 0.108175 0.106291 0.10367 0.100001 0.0944257 
0.0853254 0.0704471 0.0477763 0.0426707 0.0633068 0.0769725 0.0856318 0.091606 0.0966126 
0.101534 0.106432 0.110766 0.113852 0.115439 0.115773 0.115185 0.113871 0.112112 
0.11044 0.109389 0.109132 0.109419 0.109808 0.10988 0.109368 0.108164 0.10628 
0.103662 0.100001 0.094441 0.0853598 0.070492 0.0478122 0.0426939 0.0633368 0.0769915 
0.0856314 0.0915904 0.0965904 0.101513 0.106419 0.110762 0.113852 0.115438 0.115768 
0.115178 0.11386 0.112095 0.110417 0.109363 0.109108 0.109401 0.109794 0.109869 
0.109358 0.108154 0.10627 0.103655 0.100001 0.0944563 0.0853943 0.070537 0.0478482 
0.0427172 0.0633669 0.0770107 0.085631 0.0915748 0.096568 0.101493 0.106406 0.110758 
0.113853 0.115436 0.115763 0.115171 0.113849 0.112079 0.110394 0.109338 0.109085 
0.109382 0.109779 0.109858 0.109348 0.108143 0.10626 0.103647 0.100001 0.0944715 
0.0854289 0.0705823 0.0478843 0.0427406 0.0633973 0.0770299 0.0856304 0.0915591 0.0965455 
0.101472 0.106393 0.110754 0.113853 0.115435 0.115759 0.115164 0.113839 0.112062 
0.110371 0.109312 0.109062 0.109363 0.109765 0.109846 0.109337 0.108133 0.106249 
0.103639 0.100001 0.0944866 0.0854637 0.0706279 0.0479206 0.042764 0.0634278 0.0770492 
0.0856299 0.0915433 0.0965229 0.101451 0.10638 0.11075 0.113853 0.115433 0.115754 
0.115157 0.113828 0.112045 0.110348 0.109286 0.109038 0.109344 0.109751 0.109835 
0.109327 0.108123 0.106239 0.103631 0.100001 0.0945018 0.0854986 0.0706737 0.047957 
0.0427875 0.0634586 0.0770686 0.0856292 0.0915274 0.0965002 0.10143 0.106367 0.110746 
0.113853 0.115432 0.115749 0.11515 0.113817 0.112028 0.110325 0.109261 0.109015 
0.109325 0.109736 0.109824 0.109317 0.108112 0.106228 0.103622 0.100001 0.0945169 
0.0855336 0.0707197 0.0479935 0.042811 0.0634895 0.0770882 0.0856286 0.0915114 0.0964774 
0.101409 0.106354 0.110743 0.113853 0.11543 0.115744 0.115143 0.113807 0.112011 
0.110301 0.109235 0.108991 0.109306 0.109722 0.109812 0.109307 0.108102 0.106218 
0.103614 0.1 0.094532 0.0855687 0.0707659 0.0480302 0.0428347 0.0635206 0.0771078 
0.0856278 0.0914952 0.0964545 0.101388 0.106341 0.110739 0.113854 0.115428 0.115739 
0.115135 0.113796 0.111994 0.110278 0.109209 0.108967 0.109287 0.109707 0.109801 
0.109297 0.108091 0.106207 0.103606 0.0999997 0.094547 0.085604 0.0708125 0.048067 
0.0428583 0.063552 0.0771275 0.085627 0.091479 0.0964314 0.101366 0.106328 0.110735 
0.113854 0.115427 0.115734 0.115128 0.113785 0.111977 0.110254 0.109183 0.108944 
0.109268 0.109693 0.10979 0.109287 0.10808 0.106196 0.103598 0.0999992 0.094562 
0.0856393 0.0708592 0.0481039 0.0428821 0.0635835 0.0771473 0.0856262 0.0914626 0.0964083 
0.101345 0.106315 0.110731 0.113855 0.115425 0.115729 0.115121 0.113774 0.11196 
0.110231 0.109157 0.10892 0.109249 0.109678 0.109778 0.109277 0.10807 0.106186 
0.103589 0.0999985 0.0945769 0.0856748 0.0709062 0.0481409 0.0429059 0.0636153 0.0771673 
0.0856253 0.0914462 0.096385 0.101324 0.106301 0.110727 0.113855 0.115423 0.115724 
0.115114 0.113764 0.111943 0.110207 0.109131 0.108896 0.10923 0.109664 0.109767 
0.109266 0.108059 0.106175 0.103581 0.0999978 0.0945918 0.0857104 0.0709535 0.0481781 
0.0429297 0.0636473 0.0771873 0.0856243 0.0914296 0.0963616 0.101302 0.106288 0.110724 
0.113855 0.115422 0.115719 0.115107 0.113753 0.111926 0.110184 0.109104 0.108872 
0.10921 0.109649 0.109756 0.109256 0.108049 0.106164 0.103572 0.0999969 0.0946066 
0.0857461 0.071001 0.0482153 0.0429536 0.0636794 0.0772075 0.0856233 0.0914129 0.0963381 
0.101281 0.106275 0.11072 0.113856 0.11542 0.115713 0.115099 0.113742 0.111909 
0.11016 0.109078 0.108848 0.109191 0.109635 0.109744 0.109246 0.108038 0.106153 
0.103563 0.099996 0.0946214 0.085782 0.0710487 0.0482527 0.0429776 0.0637118 0.0772277 
0.0856222 0.0913961 0.0963145 0.101259 0.106261 0.110716 0.113857 0.115419 0.115708 
0.115092 0.113732 0.111892 0.110136 0.109051 0.108824 0.109172 0.10962 0.109733 
0.109236 0.108027 0.106143 0.103555 0.099995 0.0946361 0.085818 0.0710967 0.0482902 
0.0430016 0.0637444 0.0772481 0.085621 0.0913792 0.0962908 0.101237 0.106248 0.110713 
0.113857 0.115417 0.115703 0.115085 0.113721 0.111874 0.110112 0.109025 0.1088 
0.109153 0.109606 0.109721 0.109226 0.108017 0.106132 0.103546 0.0999938 0.0946508 
0.0858541 0.071145 0.0483279 0.0430257 0.0637773 0.0772685 0.0856198 0.0913622 0.0962669 
0.101215 0.106235 0.110709 0.113858 0.115415 0.115698 0.115077 0.11371 0.111857 
0.110088 0.108998 0.108776 0.109133 0.109591 0.10971 0.109216 0.108006 0.106121 
0.103537 0.0999926 0.0946654 0.0858903 0.0711935 0.0483656 0.0430498 0.0638103 0.0772891 
0.0856185 0.091345 0.096243 0.101193 0.106221 0.110706 0.113859 0.115414 0.115692 
0.11507 0.113699 0.11184 0.110064 0.108972 0.108752 0.109114 0.109577 0.109699 
0.109205 0.107995 0.10611 0.103528 0.0999913 0.09468 0.0859266 0.0712423 0.0484035 
0.0430739 0.0638436 0.0773098 0.0856171 0.0913278 0.0962189 0.101171 0.106208 0.110702 
0.113859 0.115412 0.115687 0.115063 0.113689 0.111823 0.11004 0.108945 0.108727 
0.109095 0.109562 0.109687 0.109195 0.107984 0.106099 0.103519 0.0999899 0.0946945 
0.0859631 0.0712913 0.0484415 0.0430982 0.0638771 0.0773305 0.0856156 0.0913104 0.0961947 
0.101149 0.106194 0.110699 0.11386 0.11541 0.115682 0.115056 0.113678 0.111805 
0.110016 0.108918 0.108703 0.109075 0.109548 0.109676 0.109185 0.107973 0.106088 
0.10351 0.0999884 0.0947089 0.0859996 0.0713407 0.0484795 0.0431224 0.0639108 0.0773514 
0.0856141 0.0912929 0.0961704 0.101127 0.10618 0.110695 0.113861 0.115409 0.115676 
0.115048 0.113667 0.111788 0.109991 0.108891 0.108679 0.109056 0.109533 0.109664 
0.109175 0.107963 0.106077 0.1035 0.0999867 0.0947233 0.0860363 0.0713902 0.0485178 
0.0431467 0.0639448 0.0773724 0.0856125 0.0912753 0.096146 0.101104 0.106167 0.110692 
0.113862 0.115407 0.115671 0.115041 0.113657 0.111771 0.109967 0.108864 0.108654 
0.109036 0.109518 0.109653 0.109164 0.107952 0.106065 0.103491 0.099985 0.0947376 
0.0860731 0.0714401 0.0485561 0.0431711 0.063979 0.0773935 0.0856109 0.0912576 0.0961215 
0.101082 0.106153 0.110688 0.113863 0.115405 0.115665 0.115034 0.113646 0.111753 
0.109942 0.108837 0.10863 0.109017 0.109504 0.109641 0.109154 0.107941 0.106054 
0.103482 0.0999832 0.0947518 0.0861101 0.0714902 0.0485945 0.0431955 0.0640134 0.0774147 
0.0856091 0.0912398 0.0960969 0.101059 0.106139 0.110685 0.113864 0.115403 0.11566 
0.115026 0.113635 0.111736 0.109918 0.10881 0.108605 0.108997 0.109489 0.10963 
0.109144 0.10793 0.106043 0.103472 0.0999812 0.094766 0.0861472 0.0715406 0.0486331 
0.0432199 0.0640481 0.0774361 0.0856073 0.0912218 0.0960721 0.101037 0.106126 0.110682 
0.113865 0.115402 0.115654 0.115019 0.113625 0.111719 0.109893 0.108782 0.108581 
0.108978 0.109474 0.109618 0.109134 0.107919 0.106032 0.103463 0.0999792 0.0947801 
0.0861843 0.0715913 0.0486717 0.0432444 0.064083 0.0774575 0.0856054 0.0912038 0.0960472 
0.101014 0.106112 0.110679 0.113866 0.1154 0.115648 0.115011 0.113614 0.111701 
0.109869 0.108755 0.108556 0.108958 0.10946 0.109607 0.109124 0.107908 0.10602 
0.103453 0.0999771 0.0947942 0.0862217 0.0716423 0.0487105 0.0432689 0.0641182 0.077479 
0.0856034 0.0911856 0.0960222 0.100991 0.106098 0.110675 0.113867 0.115398 0.115643 
0.115004 0.113603 0.111684 0.109844 0.108728 0.108531 0.108939 0.109445 0.109596 
0.109113 0.107897 0.106009 0.103443 0.0999748 0.0948081 0.0862591 0.0716936 0.0487493 
0.0432935 0.0641536 0.0775007 0.0856013 0.0911673 0.0959971 0.100969 0.106084 0.110672 
0.113868 0.115397 0.115637 0.114997 0.113593 0.111666 0.109819 0.1087 0.108506 
0.108919 0.10943 0.109584 0.109103 0.107886 0.105998 0.103434 0.0999724 0.094822 
0.0862966 0.0717452 0.0487883 0.043318 0.0641893 0.0775225 0.0855992 0.0911489 0.0959719 
0.100946 0.10607 0.110669 0.11387 0.115395 0.115631 0.114989 0.113582 0.111649 
0.109794 0.108672 0.108482 0.108899 0.109416 0.109573 0.109093 0.107875 0.105986 
0.103424 0.09997 0.0948358 0.0863343 0.071797 0.0488274 0.0433426 0.0642252 0.0775444 
0.0855969 0.0911303 0.0959465 0.100922 0.106056 0.110666 0.113871 0.115393 0.115625 
0.114982 0.113572 0.111631 0.109769 0.108645 0.108457 0.10888 0.109401 0.109561 
0.109083 0.107864 0.105975 0.103414 0.0999674 0.0948495 0.0863721 0.0718492 0.0488666 
0.0433673 0.0642614 0.0775664 0.0855946 0.0911117 0.0959211 0.100899 0.106042 0.110663 
0.113873 0.115391 0.11562 0.114975 0.113561 0.111614 0.109744 0.108617 0.108432 
0.10886 0.109386 0.10955 0.109072 0.107853 0.105963 0.103404 0.0999647 0.0948631 
0.0864101 0.0719016 0.0489059 0.043392 0.0642979 0.0775885 0.0855922 0.0910929 0.0958955 
0.100876 0.106028 0.11066 0.113874 0.11539 0.115614 0.114967 0.113551 0.111596 
0.109719 0.108589 0.108407 0.10884 0.109372 0.109538 0.109062 0.107842 0.105951 
0.103394 0.0999619 0.0948767 0.0864481 0.0719544 0.0489453 0.0434167 0.0643346 0.0776107 
0.0855897 0.091074 0.0958698 0.100853 0.106014 0.110657 0.113876 0.115388 0.115608 
0.11496 0.11354 0.111579 0.109694 0.108561 0.108382 0.10882 0.109357 0.109527 
0.109052 0.107831 0.10594 0.103384 0.099959 0.0948902 0.0864863 0.0720075 0.0489848 
0.0434414 0.0643717 0.0776331 0.0855871 0.091055 0.095844 0.100829 0.106 0.110655 
0.113877 0.115386 0.115602 0.114952 0.113529 0.111561 0.109669 0.108533 0.108357 
0.108801 0.109342 0.109515 0.109042 0.10782 0.105928 0.103373 0.099956 0.0949035 
0.0865246 0.0720609 0.0490243 0.0434661 0.0644089 0.0776556 0.0855844 0.0910359 0.095818 
0.100806 0.105986 0.110652 0.113879 0.115384 0.115596 0.114945 0.113519 0.111543 
0.109643 0.108505 0.108331 0.108781 0.109327 0.109504 0.109031 0.107808 0.105916 
0.103363 0.0999528 0.0949168 0.086563 0.0721146 0.049064 0.0434909 0.0644465 0.0776782 
0.0855816 0.0910166 0.095792 0.100782 0.105972 0.110649 0.113881 0.115382 0.11559 
0.114938 0.113508 0.111526 0.109618 0.108476 0.108306 0.108761 0.109313 0.109492 
0.109021 0.107797 0.105905 0.103353 0.0999496 0.09493 0.0866016 0.0721686 0.0491038 
0.0435157 0.0644844 0.0777009 0.0855787 0.0909972 0.0957658 0.100758 0.105958 0.110646 
0.113882 0.115381 0.115584 0.11493 0.113498 0.111508 0.109592 0.108448 0.108281 
0.108741 0.109298 0.109481 0.109011 0.107786 0.105893 0.103342 0.0999462 0.0949431 
0.0866403 0.0722229 0.0491437 0.0435405 0.0645225 0.0777237 0.0855757 0.0909778 0.0957395 
0.100735 0.105944 0.110644 0.113884 0.115379 0.115577 0.114923 0.113488 0.11149 
0.109567 0.108419 0.108255 0.108721 0.109283 0.109469 0.109001 0.107775 0.105881 
0.103332 0.0999427 0.0949561 0.0866791 0.0722776 0.0491836 0.0435653 0.064561 0.0777467 
0.0855726 0.0909581 0.0957131 0.100711 0.105929 0.110641 0.113886 0.115377 0.115571 
0.114915 0.113477 0.111473 0.109541 0.108391 0.10823 0.108701 0.109268 0.109458 
0.10899 0.107763 0.105869 0.103321 0.0999391 0.094969 0.086718 0.0723326 0.0492237 
0.0435901 0.0645997 0.0777697 0.0855694 0.0909384 0.0956866 0.100687 0.105915 0.110639 
0.113888 0.115375 0.115565 0.114908 0.113467 0.111455 0.109515 0.108362 0.108205 
0.108681 0.109253 0.109446 0.10898 0.107752 0.105857 0.10331 0.0999354 0.0949818 
0.086757 0.072388 0.0492638 0.043615 0.0646388 0.077793 0.0855661 0.0909186 0.09566 
0.100662 0.105901 0.110636 0.11389 0.115373 0.115558 0.1149 0.113456 0.111437 
0.109489 0.108333 0.108179 0.108661 0.109238 0.109434 0.10897 0.107741 0.105845 
0.103299 0.0999316 0.0949944 0.0867962 0.0724436 0.0493041 0.0436398 0.0646782 0.0778163 
0.0855627 0.0908986 0.0956332 0.100638 0.105886 0.110634 0.113892 0.115371 0.115552 
0.114893 0.113446 0.111419 0.109463 0.108305 0.108153 0.108641 0.109224 0.109423 
0.108959 0.107729 0.105833 0.103288 0.0999276 0.095007 0.0868355 0.0724997 0.0493444 
0.0436647 0.0647179 0.0778397 0.0855591 0.0908785 0.0956063 0.100614 0.105872 0.110631 
0.113895 0.115369 0.115546 0.114886 0.113436 0.111402 0.109437 0.108276 0.108128 
0.108621 0.109209 0.109411 0.108949 0.107718 0.105821 0.103277 0.0999235 0.0950195 
0.0868749 0.0725561 0.0493848 0.0436895 0.0647579 0.0778633 0.0855555 0.0908583 0.0955793 
0.10059 0.105857 0.110629 0.113897 0.115368 0.115539 0.114878 0.113425 0.111384 
0.109411 0.108247 0.108102 0.108601 0.109194 0.1094 0.108939 0.107706 0.105809 
0.103266 0.0999193 0.0950318 0.0869145 0.0726128 0.0494252 0.0437144 0.0647982 0.0778871 
0.0855517 0.090838 0.0955522 0.100565 0.105843 0.110627 0.113899 0.115366 0.115533 
0.114871 0.113415 0.111366 0.109385 0.108217 0.108076 0.10858 0.109179 0.109388 
0.108929 0.107695 0.105797 0.103255 0.099915 0.095044 0.0869542 0.0726699 0.0494657 
0.0437392 0.0648389 0.0779109 0.0855479 0.0908175 0.095525 0.100541 0.105828 0.110625 
0.113902 0.115364 0.115526 0.114863 0.113405 0.111348 0.109359 0.108188 0.10805 
0.10856 0.109164 0.109377 0.108918 0.107684 0.105785 0.103244 0.0999106 0.0950561 
0.0869939 0.0727273 0.0495064 0.0437641 0.0648799 0.0779349 0.0855439 0.090797 0.0954977 
0.100516 0.105814 0.110623 0.113904 0.115362 0.115519 0.114856 0.113394 0.11133 
0.109333 0.108159 0.108025 0.10854 0.109149 0.109365 0.108908 0.107672 0.105773 
0.103232 0.099906 0.0950681 0.0870339 0.0727852 0.049547 0.0437889 0.0649212 0.077959 
0.0855398 0.0907763 0.0954702 0.100491 0.105799 0.110621 0.113907 0.11536 0.115513 
0.114848 0.113384 0.111312 0.109306 0.108129 0.107999 0.10852 0.109134 0.109354 
0.108898 0.10766 0.10576 0.103221 0.0999013 0.0950799 0.0870739 0.0728434 0.0495878 
0.0438137 0.0649629 0.0779832 0.0855355 0.0907555 0.0954427 0.100466 0.105784 0.110619 
0.11391 0.115358 0.115506 0.114841 0.113374 0.111295 0.10928 0.1081 0.107973 
0.1085 0.10912 0.109342 0.108888 0.107649 0.105748 0.10321 0.0998965 0.0950917 
0.0871141 0.0729019 0.0496286 0.0438385 0.065005 0.0780076 0.0855312 0.0907346 0.095415 
0.100441 0.10577 0.110617 0.113912 0.115356 0.115499 0.114834 0.113364 0.111277 
0.109253 0.10807 0.107946 0.108479 0.109105 0.10933 0.108877 0.107637 0.105736 
0.103198 0.0998915 0.0951032 0.0871543 0.0729609 0.0496695 0.0438633 0.0650474 0.0780321 
0.0855267 0.0907136 0.0953872 0.100416 0.105755 0.110615 0.113915 0.115354 0.115492 
0.114826 0.113353 0.111259 0.109226 0.10804 0.10792 0.108459 0.10909 0.109319 
0.108867 0.107626 0.105723 0.103186 0.0998864 0.0951147 0.0871947 0.0730202 0.0497104 
0.0438881 0.0650902 0.0780568 0.0855221 0.0906924 0.0953593 0.100391 0.10574 0.110613 
0.113918 0.115352 0.115485 0.114819 0.113343 0.111241 0.109199 0.108011 0.107894 
0.108439 0.109075 0.109307 0.108857 0.107614 0.105711 0.103174 0.0998812 0.095126 
0.0872352 0.0730799 0.0497514 0.0439128 0.0651333 0.0780815 0.0855174 0.0906712 0.0953313 
0.100366 0.105725 0.110612 0.113921 0.11535 0.115478 0.114811 0.113333 0.111223 
0.109173 0.107981 0.107868 0.108418 0.10906 0.109296 0.108847 0.107602 0.105698 
0.103163 0.0998759 0.0951371 0.0872759 0.0731401 0.0497924 0.0439375 0.0651769 0.0781065 
0.0855125 0.0906498 0.0953032 0.100341 0.10571 0.11061 0.113924 0.115348 0.115471 
0.114804 0.113323 0.111205 0.109146 0.107951 0.107842 0.108398 0.109045 0.109284 
0.108836 0.107591 0.105686 0.103151 0.0998704 0.0951481 0.0873166 0.0732006 0.0498334 
0.0439622 0.0652208 0.0781316 0.0855075 0.0906283 0.0952749 0.100315 0.105695 0.110608 
0.113928 0.115346 0.115464 0.114797 0.113313 0.111187 0.109119 0.107921 0.107815 
0.108377 0.10903 0.109272 0.108826 0.107579 0.105673 0.103139 0.0998648 0.0951589 
0.0873575 0.0732615 0.0498745 0.0439869 0.0652651 0.0781568 0.0855024 0.0906067 0.0952466 
0.10029 0.10568 0.110607 0.113931 0.115344 0.115457 0.114789 0.113303 0.111169 
0.109091 0.10789 0.107789 0.108357 0.109015 0.109261 0.108816 0.107567 0.105661 
0.103126 0.099859 0.0951696 0.0873985 0.0733228 0.0499157 0.0440115 0.0653099 0.0781821 
0.0854971 0.0905851 0.0952182 0.100264 0.105665 0.110606 0.113934 0.115342 0.115449 
0.114782 0.113293 0.111151 0.109064 0.10786 0.107762 0.108336 0.109 0.109249 
0.108806 0.107555 0.105648 0.103114 0.0998532 0.0951801 0.0874395 0.0733846 0.0499569 
0.0440361 0.0653551 0.0782077 0.0854917 0.0905633 0.0951896 0.100239 0.10565 0.110604 
0.113938 0.11534 0.115442 0.114774 0.113283 0.111133 0.109037 0.107829 0.107736 
0.108316 0.108985 0.109237 0.108795 0.107543 0.105635 0.103102 0.0998471 0.0951905 
0.0874807 0.0734468 0.0499981 0.0440607 0.0654007 0.0782333 0.0854861 0.0905414 0.095161 
0.100213 0.105635 0.110603 0.113942 0.115338 0.115435 0.114767 0.113273 0.111114 
0.109009 0.107799 0.107709 0.108295 0.10897 0.109226 0.108785 0.107531 0.105623 
0.103089 0.099841 0.0952007 0.087522 0.0735093 0.0500393 0.0440852 0.0654467 0.0782591 
0.0854805 0.0905194 0.0951322 0.100187 0.10562 0.110602 0.113945 0.115336 0.115427 
0.11476 0.113263 0.111096 0.108982 0.107768 0.107683 0.108275 0.108955 0.109214 
0.108775 0.107519 0.10561 0.103077 0.0998347 0.0952106 0.0875634 0.0735724 0.0500805 
0.0441096 0.0654931 0.0782851 0.0854746 0.0904973 0.0951034 0.100161 0.105605 0.110601 
0.113949 0.115334 0.11542 0.114752 0.113254 0.111078 0.108954 0.107737 0.107656 
0.108254 0.10894 0.109202 0.108765 0.107507 0.105597 0.103064 0.0998282 0.0952204 
0.0876049 0.0736358 0.0501218 0.0441341 0.0655401 0.0783113 0.0854687 0.0904751 0.0950744 
0.100135 0.10559 0.1106 0.113953 0.115332 0.115412 0.114745 0.113244 0.11106 
0.108927 0.107707 0.107629 0.108233 0.108925 0.10919 0.108754 0.107495 0.105584 
0.103051 0.0998216 0.0952301 0.0876465 0.0736997 0.050163 0.0441584 0.0655875 0.0783376 
0.0854626 0.0904528 0.0950454 0.100109 0.105575 0.1106 0.113957 0.11533 0.115405 
0.114738 0.113234 0.111042 0.108899 0.107676 0.107602 0.108213 0.10891 0.109179 
0.108744 0.107483 0.105571 0.103039 0.0998148 0.0952395 0.0876882 0.073764 0.0502042 
0.0441827 0.0656353 0.078364 0.0854563 0.0904304 0.0950162 0.100083 0.10556 0.110599 
0.113961 0.115328 0.115397 0.11473 0.113224 0.111024 0.108871 0.107644 0.107575 
0.108192 0.108894 0.109167 0.108734 0.107471 0.105558 0.103026 0.0998079 0.0952487 
0.08773 0.0738288 0.0502455 0.044207 0.0656837 0.0783907 0.0854499 0.090408 0.094987 
0.100057 0.105545 0.110598 0.113966 0.115326 0.115389 0.114723 0.113215 0.111006 
0.108843 0.107613 0.107548 0.108171 0.108879 0.109155 0.108724 0.107459 0.105545 
0.103013 0.0998009 0.0952577 0.0877719 0.0738941 0.0502867 0.0442312 0.0657326 0.0784175 
0.0854434 0.0903855 0.0949577 0.10003 0.105529 0.110598 0.11397 0.115324 0.115381 
0.114716 0.113205 0.110987 0.108815 0.107582 0.107521 0.10815 0.108864 0.109143 
0.108713 0.107446 0.105532 0.102999 0.0997936 0.0952665 0.0878138 0.0739597 0.0503279 
0.0442554 0.0657819 0.0784445 0.0854368 0.0903629 0.0949284 0.100004 0.105514 0.110598 
0.113975 0.115322 0.115373 0.114709 0.113195 0.110969 0.108787 0.10755 0.107494 
0.108129 0.108849 0.109131 0.108703 0.107434 0.105519 0.102986 0.0997863 0.095275 
0.0878558 0.0740259 0.050369 0.0442795 0.0658318 0.0784717 0.0854299 0.0903402 0.0948989 
0.0999777 0.105499 0.110597 0.11398 0.11532 0.115365 0.114701 0.113186 0.110951 
0.108758 0.107519 0.107467 0.108108 0.108834 0.10912 0.108693 0.107422 0.105506 
0.102973 0.0997787 0.0952833 0.0878979 0.0740925 0.0504102 0.0443035 0.0658823 0.0784991 
0.085423 0.0903175 0.0948694 0.0999512 0.105484 0.110597 0.113984 0.115318 0.115357 
0.114694 0.113176 0.110932 0.10873 0.107487 0.10744 0.108087 0.108819 0.109108 
0.108682 0.107409 0.105492 0.102959 0.099771 0.0952914 0.0879401 0.0741596 0.0504512 
0.0443275 0.0659333 0.0785267 0.0854159 0.0902947 0.0948398 0.0999247 0.105468 0.110597 
0.113989 0.115316 0.115349 0.114687 0.113167 0.110914 0.108701 0.107455 0.107413 
0.108066 0.108803 0.109096 0.108672 0.107397 0.105479 0.102945 0.0997631 0.0952993 
0.0879824 0.0742272 0.0504922 0.0443514 0.0659849 0.0785544 0.0854087 0.0902718 0.0948101 
0.0998982 0.105453 0.110598 0.113995 0.115313 0.115341 0.11468 0.113157 0.110896 
0.108673 0.107423 0.107385 0.108045 0.108788 0.109084 0.108661 0.107384 0.105465 
0.102932 0.099755 0.0953068 0.0880246 0.0742952 0.0505332 0.0443753 0.0660371 0.0785824 
0.0854014 0.0902489 0.0947804 0.0998716 0.105438 0.110598 0.114 0.115311 0.115333 
0.114673 0.113148 0.110877 0.108644 0.107391 0.107358 0.108024 0.108773 0.109072 
0.108651 0.107371 0.105452 0.102918 0.0997468 0.0953142 0.088067 0.0743637 0.0505741 
0.0443991 0.0660899 0.0786107 0.0853939 0.090226 0.0947507 0.0998449 0.105423 0.110598 
0.114005 0.115309 0.115324 0.114666 0.113139 0.110859 0.108615 0.107359 0.10733 
0.108003 0.108757 0.10906 0.108641 0.107359 0.105438 0.102904 0.0997383 0.0953212 
0.0881094 0.0744328 0.0506148 0.0444229 0.0661433 0.0786391 0.0853863 0.0902031 0.0947209 
0.0998183 0.105407 0.110599 0.114011 0.115307 0.115316 0.114658 0.113129 0.11084 
0.108586 0.107327 0.107303 0.107982 0.108742 0.109048 0.10863 0.107346 0.105425 
0.10289 0.0997297 0.0953279 0.0881518 0.0745023 0.0506555 0.0444466 0.0661974 0.0786678 
0.0853786 0.0901801 0.0946911 0.0997916 0.105392 0.1106 0.114017 0.115305 0.115307 
0.114651 0.11312 0.110822 0.108557 0.107294 0.107275 0.107961 0.108726 0.109035 
0.10862 0.107333 0.105411 0.102875 0.0997209 0.0953344 0.0881943 0.0745723 0.0506961 
0.0444703 0.0662522 0.0786968 0.0853708 0.0901572 0.0946613 0.0997649 0.105377 0.110601 
0.114023 0.115303 0.115299 0.114644 0.113111 0.110803 0.108527 0.107261 0.107247 
0.107939 0.108711 0.109023 0.108609 0.10732 0.105397 0.102861 0.0997118 0.0953406 
0.0882368 0.0746428 0.0507366 0.0444939 0.0663077 0.078726 0.0853629 0.0901342 0.0946314 
0.0997382 0.105362 0.110602 0.114029 0.115301 0.11529 0.114637 0.113102 0.110785 
0.108498 0.107229 0.107219 0.107918 0.108695 0.109011 0.108598 0.107307 0.105383 
0.102846 0.0997026 0.0953464 0.0882793 0.0747138 0.0507769 0.0445175 0.066364 0.0787556 
0.0853549 0.0901113 0.0946016 0.0997115 0.105347 0.110603 0.114035 0.115299 0.115281 
0.11463 0.113092 0.110766 0.108468 0.107196 0.107191 0.107896 0.10868 0.108998 
0.108588 0.107293 0.105369 0.102831 0.0996932 0.0953519 0.0883218 0.0747853 0.0508171 
0.0445411 0.066421 0.0787854 0.0853468 0.0900884 0.0945718 0.0996849 0.105332 0.110605 
0.114042 0.115297 0.115272 0.114623 0.113083 0.110747 0.108438 0.107162 0.107163 
0.107875 0.108664 0.108986 0.108577 0.10728 0.105354 0.102816 0.0996835 0.0953571 
0.0883643 0.0748574 0.0508571 0.0445647 0.0664788 0.0788156 0.0853387 0.0900656 0.094542 
0.0996583 0.105317 0.110607 0.114049 0.115295 0.115263 0.114616 0.113074 0.110728 
0.108408 0.107129 0.107135 0.107853 0.108648 0.108973 0.108566 0.107266 0.10534 
0.102801 0.0996736 0.095362 0.0884068 0.07493 0.050897 0.0445883 0.0665375 0.0788461 
0.0853305 0.0900429 0.0945123 0.0996317 0.105302 0.110609 0.114056 0.115293 0.115254 
0.114609 0.113065 0.110709 0.108378 0.107095 0.107107 0.107831 0.108632 0.10896 
0.108555 0.107253 0.105326 0.102786 0.0996635 0.0953665 0.0884493 0.0750031 0.0509367 
0.0446119 0.0665971 0.078877 0.0853223 0.0900203 0.0944827 0.0996052 0.105287 0.110611 
0.114063 0.115291 0.115245 0.114602 0.113056 0.11069 0.108348 0.107061 0.107078 
0.107809 0.108616 0.108948 0.108544 0.107239 0.105311 0.10277 0.0996531 0.0953706 
0.0884918 0.0750767 0.0509763 0.0446356 0.0666576 0.0789083 0.0853142 0.0899978 0.0944531 
0.0995787 0.105272 0.110613 0.11407 0.115288 0.115236 0.114594 0.113046 0.110671 
0.108317 0.107027 0.107049 0.107787 0.1086 0.108934 0.108533 0.107225 0.105296 
0.102754 0.0996425 0.0953744 0.0885342 0.0751509 0.0510156 0.0446594 0.0667192 0.0789401 
0.085306 0.0899755 0.0944237 0.0995524 0.105258 0.110616 0.114078 0.115286 0.115226 
0.114587 0.113037 0.110651 0.108286 0.106993 0.10702 0.107764 0.108583 0.108921 
0.108521 0.10721 0.105281 0.102738 0.0996316 0.0953778 0.0885767 0.0752257 0.0510547 
0.0446832 0.0667817 0.0789724 0.0852979 0.0899534 0.0943944 0.0995262 0.105243 0.110619 
0.114086 0.115284 0.115217 0.11458 0.113028 0.110632 0.108254 0.106958 0.106991 
0.107742 0.108567 0.108908 0.10851 0.107196 0.105266 0.102722 0.0996205 0.0953808 
0.0886191 0.0753011 0.0510937 0.0447072 0.0668455 0.0790052 0.0852899 0.0899315 0.0943653 
0.0995002 0.105229 0.110622 0.114094 0.115282 0.115207 0.114573 0.113018 0.110612 
0.108223 0.106923 0.106961 0.107719 0.10855 0.108894 0.108498 0.107181 0.105251 
0.102706 0.0996092 0.0953834 0.0886615 0.0753771 0.0511324 0.0447314 0.0669104 0.0790386 
0.0852821 0.0899099 0.0943364 0.0994743 0.105215 0.110626 0.114102 0.11528 0.115197 
0.114565 0.113008 0.110592 0.10819 0.106888 0.106932 0.107696 0.108533 0.10888 
0.108486 0.107166 0.105235 0.102689 0.0995976 0.0953856 0.0887038 0.0754537 0.051171 
0.0447559 0.0669766 0.0790727 0.0852745 0.0898887 0.0943078 0.0994487 0.105201 0.11063 
0.114111 0.115277 0.115186 0.114557 0.112998 0.110571 0.108158 0.106852 0.106901 
0.107672 0.108515 0.108866 0.108474 0.107151 0.105219 0.102672 0.0995857 0.0953875 
0.0887462 0.075531 0.0512094 0.0447806 0.0670443 0.0791075 0.0852671 0.0898678 0.0942795 
0.0994233 0.105188 0.110634 0.11412 0.115275 0.115176 0.114549 0.112988 0.11055 
0.108125 0.106815 0.106871 0.107648 0.108497 0.108851 0.108462 0.107136 0.105203 
0.102655 0.0995736 0.095389 0.0887886 0.0756091 0.0512476 0.0448058 0.0671135 0.0791432 
0.0852601 0.0898474 0.0942516 0.0993982 0.105174 0.110638 0.114129 0.115272 0.115165 
0.114541 0.112978 0.110529 0.108091 0.106778 0.10684 0.107624 0.108479 0.108836 
0.108449 0.10712 0.105187 0.102637 0.0995613 0.0953902 0.088831 0.0756878 0.0512856 
0.0448314 0.0671843 0.0791798 0.0852536 0.0898275 0.0942241 0.0993734 0.105161 0.110643 
0.114138 0.115269 0.115153 0.114532 0.112967 0.110507 0.108056 0.10674 0.106808 
0.107599 0.10846 0.108821 0.108436 0.107103 0.10517 0.10262 0.0995487 0.095391 
0.0888735 0.0757675 0.0513235 0.0448576 0.067257 0.0792175 0.0852475 0.0898083 0.0941971 
0.099349 0.105148 0.110648 0.114147 0.115266 0.115141 0.114523 0.112955 0.110484 
0.10802 0.106702 0.106775 0.107573 0.108441 0.108805 0.108422 0.107087 0.105153 
0.102602 0.099536 0.0953916 0.0889161 0.075848 0.0513614 0.0448846 0.0673317 0.0792564 
0.0852421 0.0897898 0.0941707 0.0993251 0.105136 0.110654 0.114157 0.115263 0.115129 
0.114514 0.112943 0.11046 0.107984 0.106662 0.106742 0.107547 0.108421 0.108788 
0.108408 0.10707 0.105136 0.102584 0.0995231 0.0953919 0.088959 0.0759296 0.0513992 
0.0449125 0.0674087 0.0792967 0.0852376 0.0897721 0.094145 0.0993017 0.105124 0.11066 
0.114166 0.115259 0.115115 0.114503 0.11293 0.110436 0.107946 0.106621 0.106708 
0.107519 0.1084 0.108771 0.108394 0.107052 0.105119 0.102566 0.09951 0.095392 
0.089002 0.0760123 0.0514372 0.0449414 0.0674882 0.0793386 0.085234 0.0897555 0.09412 
0.0992789 0.105112 0.110666 0.114176 0.115255 0.115101 0.114492 0.112916 0.11041 
0.107907 0.106579 0.106672 0.107491 0.108378 0.108753 0.108379 0.107034 0.105101 
0.102547 0.0994969 0.095392 0.0890455 0.0760963 0.0514753 0.0449717 0.0675705 0.0793823 
0.0852315 0.08974 0.094096 0.0992568 0.105101 0.110673 0.114186 0.11525 0.115086 
0.11448 0.1129 0.110383 0.107866 0.106535 0.106635 0.107461 0.108355 0.108734 
0.108363 0.107015 0.105083 0.102528 0.0994838 0.0953921 0.0890895 0.0761818 0.0515137 
0.0450035 0.067656 0.0794282 0.0852305 0.0897259 0.094073 0.0992354 0.105091 0.11068 
0.114195 0.115244 0.115069 0.114466 0.112883 0.110353 0.107823 0.10649 0.106596 
0.10743 0.108331 0.108713 0.108346 0.106996 0.105065 0.10251 0.0994708 0.0953924 
0.0891342 0.076269 0.0515526 0.0450374 0.0677452 0.0794766 0.0852313 0.0897135 0.0940513 
0.0992149 0.105081 0.110687 0.114204 0.115237 0.115051 0.11445 0.112864 0.110322 
0.107778 0.106442 0.106556 0.107396 0.108305 0.108691 0.108328 0.106976 0.105046 
0.102491 0.0994581 0.0953929 0.0891799 0.0763583 0.0515923 0.0450735 0.0678385 0.079528 
0.085234 0.0897028 0.0940309 0.0991955 0.105071 0.110695 0.114213 0.115228 0.115031 
0.114433 0.112843 0.110288 0.10773 0.106391 0.106513 0.107361 0.108277 0.108668 
0.10831 0.106955 0.105027 0.102472 0.0994457 0.0953941 0.0892267 0.07645 0.0516329 
0.0451126 0.0679367 0.0795827 0.0852393 0.0896944 0.0940123 0.0991772 0.105062 0.110703 
0.114221 0.115218 0.115008 0.114412 0.112819 0.110251 0.107679 0.106337 0.106467 
0.107323 0.108247 0.108643 0.10829 0.106934 0.105008 0.102454 0.0994339 0.0953961 
0.0892751 0.0765446 0.051675 0.0451551 0.0680404 0.0796415 0.0852474 0.0896886 0.0939955 
0.0991602 0.105054 0.110711 0.114229 0.115206 0.114983 0.114389 0.112791 0.11021 
0.107623 0.10628 0.106417 0.107282 0.108214 0.108615 0.108268 0.106911 0.104988 
0.102435 0.0994229 0.0953993 0.0893255 0.0766426 0.0517188 0.0452018 0.0681506 0.0797051 
0.0852592 0.0896858 0.0939809 0.0991446 0.105046 0.110719 0.114234 0.115191 0.114954 
0.114362 0.112759 0.110164 0.107563 0.106218 0.106364 0.107237 0.108178 0.108585 
0.108244 0.106887 0.104968 0.102417 0.099413 0.0954041 0.0893785 0.0767448 0.0517651 
0.0452536 0.0682684 0.0797745 0.0852752 0.0896865 0.0939689 0.0991307 0.10504 0.110726 
0.114239 0.115173 0.11492 0.114329 0.112721 0.110113 0.107498 0.10615 0.106305 
0.107187 0.108138 0.108552 0.108219 0.106862 0.104948 0.1024 0.0994047 0.0954111 
0.0894348 0.0768519 0.0518144 0.0453117 0.0683952 0.0798506 0.0852963 0.0896914 0.0939598 
0.0991186 0.105033 0.110733 0.114241 0.11515 0.114881 0.114291 0.112678 0.110055 
0.107425 0.106076 0.106241 0.107132 0.108094 0.108515 0.108191 0.106835 0.104927 
0.102384 0.0993982 0.0954209 0.0894951 0.0769652 0.0518678 0.0453775 0.0685328 0.0799348 
0.0853235 0.0897013 0.0939539 0.0991084 0.105027 0.110739 0.11424 0.115123 0.114836 
0.114246 0.112626 0.109989 0.107345 0.105995 0.106169 0.107071 0.108044 0.108474 
0.10816 0.106806 0.104907 0.102368 0.0993942 0.0954343 0.0895605 0.0770859 0.0519262 
0.0454526 0.0686831 0.0800288 0.0853581 0.0897169 0.0939519 0.0991003 0.105022 0.110744 
0.114234 0.115088 0.114782 0.114193 0.112566 0.109913 0.107255 0.105905 0.10609 
0.107003 0.107987 0.108428 0.108125 0.106776 0.104886 0.102354 0.0993933 0.0954523 
0.0896324 0.0772157 0.051991 0.0455392 0.0688488 0.0801346 0.0854015 0.0897394 0.0939541 
0.0990944 0.105016 0.110746 0.114224 0.115046 0.114719 0.114128 0.112494 0.109826 
0.107154 0.105804 0.106 0.106925 0.107923 0.108375 0.108086 0.106743 0.104865 
0.102342 0.0993963 0.0954761 0.0897123 0.0773568 0.0520641 0.04564 0.0690332 0.0802547 
0.0854555 0.0897698 0.0939611 0.0990907 0.105009 0.110745 0.114207 0.114993 0.114643 
0.114051 0.112409 0.109725 0.107039 0.10569 0.105899 0.106837 0.10785 0.108315 
0.108042 0.106707 0.104843 0.102332 0.099404 0.0955069 0.0898023 0.0775117 0.0521477 
0.0457586 0.0692405 0.0803922 0.0855222 0.0898098 0.0939735 0.0990891 0.105001 0.110739 
0.11418 0.114927 0.114553 0.113958 0.112308 0.109609 0.106909 0.105563 0.105785 
0.106737 0.107766 0.108246 0.107992 0.106667 0.104821 0.102324 0.0994174 0.0955466 
0.0899048 0.077684 0.0522447 0.0458994 0.0694757 0.080551 0.0856043 0.0898607 0.0939915 
0.0990892 0.104991 0.110727 0.114142 0.114846 0.114444 0.113847 0.112187 0.109473 
0.106762 0.105418 0.105655 0.106622 0.10767 0.108167 0.107934 0.106621 0.104798 
0.102318 0.0994377 0.095597 0.0900229 0.0778779 0.0523587 0.0460678 0.0697452 0.0807352 
0.0857038 0.0899235 0.0940148 0.0990892 0.104975 0.110703 0.114088 0.114742 0.114311 
0.113711 0.112043 0.109314 0.106592 0.105253 0.105506 0.10649 0.107557 0.108074 
0.107865 0.106569 0.104771 0.102313 0.0994647 0.0956594 0.0901597 0.0780984 0.0524942 
0.0462709 0.0700568 0.0809502 0.0858237 0.0899998 0.094043 0.099088 0.10495 0.110665 
0.114012 0.114612 0.11415 0.113547 0.111871 0.109129 0.106398 0.105066 0.105336 
0.106337 0.107426 0.107964 0.107782 0.106506 0.10474 0.102309 0.0994992 0.0957358 
0.0903195 0.0783523 0.0526574 0.0465226 0.0704264 0.081209 0.0859741 0.0900982 0.0940833 
0.0990913 0.104923 0.110617 0.113917 0.114457 0.113963 0.113357 0.111675 0.108923 
0.106185 0.104862 0.10515 0.106171 0.107281 0.107843 0.107692 0.10644 0.10471 
0.102311 0.0995496 0.0958359 0.090515 0.0786553 0.0528627 0.0468437 0.0708749 0.0815269 
0.0861649 0.0902258 0.0941395 0.0991008 0.104892 0.110555 0.1138 0.114273 0.113745 
0.113139 0.111453 0.108695 0.105955 0.104644 0.104951 0.105991 0.107125 0.107711 
0.107593 0.106368 0.104681 0.102323 0.0996197 0.0959666 0.0907582 0.0790252 0.0531281 
0.0472217 0.071378 0.0818644 0.0863452 0.0903259 0.0941488 0.0990473 0.104781 0.110397 
0.113572 0.113971 0.113411 0.112809 0.111126 0.108369 0.105635 0.104341 0.104668 
0.105726 0.10688 0.107491 0.107408 0.106216 0.104579 0.102271 0.0996417 0.096065 
0.090997 0.0794232 0.0534248 0.0476259 0.0718838 0.0821561 0.0864417 0.0903239 0.094034 
0.0988496 0.104503 0.110049 0.113138 0.113456 0.112866 0.112276 0.110606 0.107865 
0.10515 0.103879 0.104225 0.105297 0.106467 0.107099 0.107051 0.105896 0.104318 
0.10207 0.0995321 0.0960512 0.0911637 0.0798021 0.0537321 0.0484326 0.0727944 0.0828243 
0.0868931 0.0906805 0.0942772 0.0990121 0.104585 0.110058 0.113057 0.113296 0.112683 
0.112111 0.110462 0.107743 0.105053 0.103806 0.104169 0.10525 0.106431 0.107079 
0.107064 0.105943 0.104423 0.102236 0.0997952 0.0964173 0.0917477 0.0806541 0.0545563 
0.0505826 0.0751259 0.0849176 0.0887721 0.092504 0.0960242 0.100727 0.106269 0.111713 
0.114647 0.114817 0.114189 0.113639 0.112003 0.109296 0.106617 0.105385 0.105762 
0.106854 0.108045 0.108706 0.108717 0.107616 0.106137 0.10399 0.101627 0.0983292 
0.0938804 0.0830432 0.0568202 0.0546415 0.0795539 0.0891423 0.0927999 0.0965339 0.100034 
0.104776 0.110364 0.115847 0.118757 0.118875 0.118239 0.117712 0.116079 0.11336 
0.110671 0.109437 0.109826 0.11093 0.112135 0.112808 0.112836 0.111734 0.11027 
0.10813 0.10581 0.102545 0.098285 0.0876315 0.0610222 0.0606132 0.0861566 0.095601 
0.0990985 0.102901 0.106437 0.111289 0.116996 0.122578 0.125501 0.125582 0.124951 
0.124452 0.122812 0.120066 0.117346 0.116098 0.116494 0.117612 0.118833 0.119514 
0.119548 0.118426 0.11695 0.114781 0.112463 0.109175 0.105059 0.0945189 0.0673134 
0.0686725 0.0950212 0.104378 0.107771 0.111719 0.115356 0.120386 0.126279 0.132019 
0.134988 0.135049 0.134435 0.133971 0.13232 0.129536 0.126771 0.125497 0.125898 
0.12703 0.128264 0.128946 0.128975 0.12781 0.126292 0.124057 0.121693 0.118321 
0.114296 0.10382 0.0758409 0.0790797 0.106365 0.115672 0.119026 0.123207 0.127016 
0.1323 0.138449 0.144404 0.147454 0.147515 0.146935 0.146513 0.144851 0.142021 
0.139197 0.137888 0.138291 0.139435 0.140678 0.141355 0.141365 0.140132 0.138537 
0.136189 0.133724 0.130198 0.126204 0.115756 0.086871 0.0921304 0.120444 0.129735 
0.133127 0.137639 0.1417 0.147319 0.153798 0.160028 0.163199 0.163281 0.162752 
0.162383 0.16071 0.157828 0.154933 0.153582 0.153984 0.155138 0.156388 0.15705 
0.157024 0.155696 0.153986 0.151473 0.148841 0.145081 0.141046 0.130593 0.100718 
0.108119 0.137516 0.146832 0.150357 0.155301 0.1597 0.165738 0.172625 0.179192 
0.182525 0.182651 0.182193 0.181888 0.180204 0.177266 0.174289 0.172889 0.173286 
0.17445 0.175702 0.176344 0.176266 0.174816 0.172952 0.170223 0.167355 0.163272 
0.159099 0.148591 0.117687 0.127265 0.157767 0.167161 0.170918 0.176389 0.181203 
0.187739 0.195105 0.202069 0.205605 0.205801 0.205433 0.205203 0.203509 0.20051 
0.19744 0.195985 0.196376 0.19755 0.198804 0.199418 0.199278 0.197685 0.195636 
0.192651 0.189492 0.185014 0.180598 0.169945 0.137951 0.149444 0.181082 0.19062 
0.19469 0.20074 0.206017 0.2131 0.221 0.228409 0.232184 0.232471 0.23221 
0.232062 0.230362 0.227297 0.224126 0.222612 0.222998 0.224185 0.225441 0.226027 
0.225818 0.224072 0.221826 0.218572 0.215104 0.210205 0.205472 0.194597 0.161425 
0.173835 0.206599 0.216294 0.220696 0.227307 0.233033 0.240662 0.249106 0.256973 
0.261003 0.26139 0.261244 0.261185 0.259481 0.256349 0.253077 0.251505 0.251889 
0.253095 0.254359 0.254924 0.254652 0.252763 0.250331 0.246833 0.24309 0.23782 
0.232789 0.221714 0.187409 0.198393 0.231988 0.241688 0.24631 0.253354 0.259432 
0.267522 0.276442 0.284714 0.288969 0.28944 0.289401 0.289428 0.287729 0.284543 
0.281185 0.279568 0.279958 0.281194 0.282475 0.283035 0.28272 0.28072 0.278147 
0.274471 0.270546 0.265046 0.259892 0.248885 0.213796 0.219147 0.25294 0.26228 
0.266867 0.274108 0.280348 0.28871 0.297929 0.306455 0.310837 0.311346 0.311387 
0.311491 0.309818 0.306615 0.303211 0.301579 0.301991 0.303261 0.304568 0.305141 
0.304818 0.302769 0.300133 0.296383 0.292403 0.286855 0.281815 0.271296 0.236321 
0.232013 0.26514 0.273797 0.278121 0.285316 0.291495 0.299878 0.309147 0.317709 
0.322083 0.322562 0.322648 0.322817 0.321195 0.31803 0.314644 0.313037 0.313481 
0.314786 0.31612 0.316724 0.316434 0.314409 0.311807 0.308104 0.3042 0.298748 
0.293944 0.284049 0.249946 0.237134 0.269188 0.277214 0.281235 0.288262 0.294237 
0.302468 0.311604 0.320042 0.324307 0.324711 0.32481 0.32503 0.323473 0.320381 
0.317054 0.3155 0.315986 0.317325 0.318687 0.319336 0.31911 0.317164 0.314666 
0.311093 0.307353 0.302077 0.297531 0.288162 0.254974 0.23895 0.270133 0.27773 
0.281509 0.288373 0.294131 0.302184 0.311159 0.319452 0.323593 0.323908 0.324002 
0.324259 0.322758 0.319733 0.316465 0.314965 0.315498 0.31688 0.318284 0.318991 
0.318844 0.316991 0.314615 0.311186 0.307619 0.302517 0.29821 0.289286 0.257043 
0.240496 0.27082 0.278075 0.281659 0.288408 0.29399 0.301907 0.310764 0.318951 
0.322994 0.323225 0.323308 0.323595 0.322135 0.319157 0.315928 0.314475 0.315059 
0.316495 0.317954 0.318729 0.318667 0.316905 0.314641 0.311335 0.307916 0.302947 
0.298829 0.290257 0.258959 0.24184 0.271279 0.27825 0.281682 0.288351 0.293797 
0.301611 0.310385 0.3185 0.322469 0.322628 0.3227 0.323014 0.321585 0.318644 
0.315443 0.31403 0.314667 0.316162 0.317684 0.318533 0.318559 0.316882 0.314719 
0.311522 0.308226 0.303358 0.299391 0.291112 0.26077 0.243028 0.271559 0.278287 
0.281598 0.288216 0.293556 0.301295 0.310013 0.318082 0.322 0.322101 0.322164 
0.322505 0.321105 0.318195 0.315014 0.313638 0.314328 0.315886 0.317476 0.318401 
0.318515 0.31692 0.31485 0.311746 0.308556 0.303766 0.299923 0.291899 0.262531 
0.244086 0.271687 0.278201 0.281415 0.288003 0.293263 0.300947 0.309633 0.317676 
0.321565 0.32162 0.321679 0.322053 0.320682 0.317799 0.314636 0.313295 0.314038 
0.315662 0.31732 0.318324 0.318526 0.317009 0.315025 0.312006 0.308907 0.304179 
0.300441 0.292648 0.264274 0.245033 0.271682 0.278004 0.281141 0.287713 0.292915 
0.30056 0.30923 0.31727 0.321149 0.32117 0.321232 0.321643 0.320304 0.31745 
0.314302 0.312995 0.313793 0.315483 0.317213 0.318296 0.318586 0.317145 0.315242 
0.312301 0.309285 0.304609 0.300962 0.293383 0.266025 0.245882 0.271558 0.277707 
0.280782 0.28735 0.292508 0.300127 0.308799 0.316855 0.320742 0.320738 0.320809 
0.321266 0.319963 0.31714 0.314008 0.312734 0.313587 0.315346 0.317149 0.318314 
0.318692 0.317325 0.315502 0.312634 0.309697 0.305065 0.301501 0.294126 0.267805 
0.246642 0.271325 0.277314 0.28034 0.286911 0.292039 0.299644 0.308331 0.316422 
0.320333 0.320314 0.320402 0.320913 0.319651 0.316864 0.313747 0.312507 0.313415 
0.315246 0.317124 0.318372 0.31884 0.31755 0.315805 0.313011 0.310149 0.305559 
0.302074 0.294894 0.269633 0.247319 0.270988 0.27683 0.279815 0.286399 0.291504 
0.299105 0.307821 0.315963 0.319915 0.31989 0.320003 0.320577 0.319363 0.316614 
0.313514 0.312307 0.313274 0.315178 0.317133 0.318468 0.31903 0.317818 0.316154 
0.313435 0.31065 0.306103 0.302694 0.295705 0.271527 0.247916 0.270551 0.276256 
0.279206 0.285811 0.290901 0.298506 0.307263 0.315472 0.319482 0.31946 0.319606 
0.320252 0.319093 0.316387 0.313304 0.312131 0.313157 0.315138 0.317172 0.318599 
0.31926 0.31813 0.316552 0.313912 0.311209 0.306708 0.303377 0.296575 0.273504 
0.248434 0.270015 0.275591 0.278511 0.285143 0.290224 0.297841 0.306651 0.314944 
0.319028 0.31902 0.319206 0.319935 0.318838 0.31618 0.313114 0.311975 0.31306 
0.31512 0.317238 0.318761 0.319526 0.318486 0.317001 0.314448 0.311836 0.307388 
0.304139 0.297525 0.275586 0.248873 0.269381 0.274834 0.277728 0.284391 0.289467 
0.297103 0.305977 0.314372 0.31855 0.318566 0.318801 0.319624 0.318595 0.315988 
0.31294 0.311832 0.312977 0.31512 0.317325 0.318949 0.319827 0.318885 0.317502 
0.315049 0.312541 0.308156 0.304998 0.298574 0.277793 0.249232 0.268646 0.273983 
0.27685 0.283546 0.288621 0.296284 0.305236 0.313752 0.318046 0.318097 0.318391 
0.319319 0.318364 0.315811 0.312779 0.3117 0.312904 0.315131 0.317426 0.319157 
0.320157 0.319324 0.318057 0.315719 0.313334 0.309028 0.305973 0.299747 0.280151 
0.249511 0.26781 0.273033 0.275871 0.2826 0.287675 0.295372 0.304417 0.313079 
0.317513 0.317614 0.317978 0.319024 0.318146 0.315649 0.312629 0.311574 0.312833 
0.315146 0.317533 0.319378 0.320509 0.319799 0.318663 0.316461 0.314225 0.31002 
0.307089 0.30107 0.282689 0.249709 0.266872 0.271979 0.27478 0.281538 0.286613 
0.294352 0.30351 0.312348 0.316954 0.317122 0.317568 0.318745 0.317948 0.315503 
0.31249 0.311449 0.312758 0.315156 0.317635 0.3196 0.320873 0.3203 0.319316 
0.317278 0.315228 0.311155 0.308378 0.302583 0.285449 0.249832 0.265835 0.270815 
0.273562 0.280337 0.285406 0.293202 0.302503 0.311558 0.316378 0.316634 0.31718 
0.318504 0.31778 0.315375 0.312358 0.311317 0.312664 0.315146 0.317716 0.319805 
0.32123 0.320812 0.320005 0.318174 0.316365 0.312478 0.309901 0.304357 0.288508 
0.249899 0.264713 0.269537 0.272193 0.278956 0.284009 0.291882 0.301374 0.31071 
0.315803 0.316176 0.316845 0.31833 0.31766 0.315268 0.312226 0.311165 0.312535 
0.315098 0.317756 0.319968 0.321551 0.321302 0.3207 0.319131 0.317645 0.314023 
0.311718 0.306465 0.291946 0.24993 0.263526 0.268158 0.270674 0.27738 0.282387 
0.290353 0.300089 0.309782 0.315217 0.315745 0.316563 0.318228 0.317594 0.315187 
0.312104 0.311002 0.312374 0.315011 0.317749 0.320075 0.32181 0.321731 0.321341 
0.320078 0.318991 0.315712 0.313755 0.30883 0.295688 0.249906 0.262273 0.266688 
0.269024 0.275634 0.280557 0.288609 0.298621 0.30873 0.314571 0.315291 0.316296 
0.318174 0.317574 0.315149 0.31203 0.310868 0.31221 0.314905 0.317702 0.320119 
0.321992 0.322071 0.321884 0.320946 0.320307 0.317424 0.315872 0.311303 0.299589 
0.249888 0.26097 0.265046 0.267064 0.27347 0.278283 0.28652 0.297004 0.307713 
0.314056 0.314999 0.316293 0.318473 0.317722 0.315121 0.311926 0.310662 0.311925 
0.314676 0.317526 0.320017 0.322015 0.32226 0.322331 0.321926 0.322063 0.319912 
0.319033 0.31493 0.304716 0.25047 0.259949 0.263146 0.264206 0.269844 0.274419 
0.283351 0.295233 0.307356 0.314548 0.315773 0.31759 0.320214 0.318507 0.314902 
0.311322 0.309856 0.311008 0.313913 0.31692 0.319509 0.321597 0.321951 0.32243 
0.323307 0.325487 0.325412 0.326191 0.322935 0.314363 0.252285 0.259817 0.261681 
0.260916 0.264791 0.268495 0.278461 0.292626 0.307239 0.31602 0.317895 0.32032 
0.322714 0.320069 0.314587 0.310176 0.308516 0.309589 0.312721 0.316006 0.318678 
0.320617 0.320677 0.321208 0.323515 0.328551 0.331607 0.33479 0.332656 0.325993 
0.252681 0.25934 0.262284 0.261405 0.265 0.267045 0.275514 0.288092 0.302437 
0.312377 0.315979 0.318657 0.317279 0.319939 0.315931 0.311513 0.310297 0.311377 
0.314027 0.316974 0.319244 0.320286 0.319224 0.318136 0.317543 0.319679 0.320273 
0.321589 0.319045 0.314466 0.247449 0.254441 0.262359 0.266141 0.275089 0.278003 
0.280677 0.28564 0.291995 0.297752 0.301506 0.305073 0.304295 0.312775 0.319048 
0.318267 0.318605 0.319808 0.321114 0.32227 0.323055 0.322244 0.319149 0.314778 
0.306093 0.296931 0.286741 0.279248 0.272801 0.268508 0.242838 0.2464 0.256017 
0.264405 0.278948 0.288581 0.287458 0.287697 0.285898 0.283957 0.283426 0.287249 
0.299741 0.305113 0.321454 0.325119 0.326839 0.328737 0.329281 0.328456 0.327377 
0.324951 0.319751 0.312719 0.299358 0.28101 0.261612 0.246771 0.234593 0.228301 
0.252288 0.252878 0.255636 0.26166 0.27285 0.284219 0.285795 0.285518 0.288371 
0.285959 0.281489 0.282641 0.298452 0.311726 0.323673 0.32665 0.328643 0.33159 
0.332085 0.330941 0.32905 0.326026 0.320055 0.311983 0.298733 0.279305 0.257245 
0.242253 0.227069 0.221797 0.275957 0.28472 0.284215 0.284524 0.288009 0.290369 
0.295386 0.29311 0.301635 0.303991 0.298297 0.295207 0.301717 0.319339 0.324731 
0.326655 0.328773 0.33181 0.333118 0.332127 0.330234 0.327154 0.321141 0.313083 
0.299911 0.28217 0.260244 0.246793 0.233197 0.230976 0.312319 0.321913 0.336394 
0.335896 0.338835 0.333644 0.338913 0.336056 0.337375 0.341234 0.332109 0.322792 
0.321933 0.323716 0.326268 0.32819 0.329765 0.333251 0.335292 0.33404 0.331756 
0.329293 0.32336 0.31578 0.30356 0.286852 0.266807 0.254599 0.243173 0.240454 
0.37964 0.379213 0.394233 0.397783 0.407909 0.402949 0.400882 0.399136 0.393762 
0.39871 0.386942 0.369567 0.354563 0.344892 0.3343 0.331347 0.331512 0.335107 
0.337252 0.336842 0.33386 0.330376 0.325256 0.318135 0.308005 0.294998 0.278019 
0.268816 0.259732 0.261596 0.49043 0.490051 0.485755 0.488022 0.497348 0.496062 
0.476577 0.472059 0.461968 0.466894 0.457509 0.433495 0.405651 0.377061 0.348819 
0.335193 0.331509 0.335658 0.338392 0.338552 0.3356 0.330137 0.324054 0.317243 
0.311453 0.304856 0.292366 0.285819 0.27919 0.285183 0.638865 0.639358 0.642745 
0.63801 0.642254 0.643432 0.616 0.595736 0.57189 0.5557 0.538272 0.500413 
0.461264 0.415194 0.373791 0.344358 0.331785 0.335149 0.337439 0.336171 0.333214 
0.328086 0.320161 0.314216 0.311565 0.312413 0.308369 0.305806 0.298652 0.306996 
0.804591 0.808258 0.822549 0.820832 0.824348 0.818049 0.801194 0.761178 0.723159 
0.670865 0.620937 0.565629 0.502779 0.451104 0.411159 0.373229 0.351655 0.340988 
0.33704 0.334688 0.330723 0.324741 0.319117 0.315243 0.31473 0.32045 0.323878 
0.32665 0.318456 0.32639 0.920063 0.918733 0.933947 0.931038 0.920563 0.910425 
0.885383 0.850402 0.798984 0.750514 0.688569 0.624993 0.551349 0.486594 0.449517 
0.417383 0.390292 0.365245 0.348034 0.336644 0.334409 0.328851 0.325742 0.325208 
0.328778 0.335744 0.341275 0.349082 0.34265 0.34829 0.932526 0.924236 0.923434 
0.918305 0.895257 0.886565 0.861661 0.829889 0.78701 0.754911 0.72385 0.668012 
0.607818 0.544378 0.493148 0.457905 0.423641 0.397139 0.372073 0.351146 0.348824 
0.347558 0.344396 0.34635 0.351493 0.359861 0.367633 0.377761 0.370563 0.379103 
0.899319 0.865825 0.863239 0.860664 0.845533 0.833326 0.8195 0.790538 0.754823 
0.741679 0.730305 0.688441 0.651186 0.611945 0.552622 0.495772 0.45408 0.426998 
0.40767 0.392328 0.386877 0.389275 0.388278 0.385178 0.384049 0.393174 0.402401 
0.415727 0.412483 0.419605 0.86262 0.810175 0.796903 0.799954 0.801872 0.790636 
0.785505 0.767252 0.746331 0.731971 0.731359 0.710394 0.682652 0.662643 0.612824 
0.53842 0.488433 0.466179 0.460733 0.460955 0.4638 0.472193 0.473753 0.459978 
0.444124 0.437393 0.448213 0.46405 0.465211 0.489373 0.80397 0.758809 0.742112 
0.739909 0.737915 0.742281 0.737548 0.737981 0.748 0.738145 0.740512 0.735504 
0.721051 0.707793 0.670301 0.594911 0.540779 0.520262 0.523524 0.550336 0.568434 
0.583575 0.589466 0.571009 0.539026 0.511953 0.505134 0.522372 0.528396 0.557091 
0.715365 0.681244 0.685092 0.683971 0.684861 0.687928 0.691938 0.707276 0.722645 
0.743395 0.747512 0.746994 0.748165 0.744688 0.726949 0.67125 0.619218 0.604247 
0.615496 0.639728 0.666669 0.674772 0.68368 0.681812 0.646593 0.616309 0.586973 
0.599484 0.611918 0.648317 0.643679 0.599909 0.616898 0.625971 0.637844 0.654415 
0.658481 0.67798 0.70092 0.720206 0.739018 0.75286 0.757606 0.763091 0.770326 
0.751764 0.716778 0.708151 0.717799 0.726718 0.728304 0.724114 0.726991 0.745908 
0.75388 0.730514 0.703021 0.697532 0.702203 0.744421 0.606221 0.546746 0.559416 
0.570477 0.588104 0.615282 0.62888 0.641842 0.671032 0.697226 0.721298 0.748148 
0.762724 0.773912 0.794995 0.813716 0.805193 0.794794 0.790203 0.775301 0.754184 
0.739384 0.741723 0.759416 0.804863 0.821738 0.81494 0.788948 0.772281 0.795334 
0.5673 0.509504 0.512547 0.52351 0.538061 0.568396 0.593087 0.607691 0.638431 
0.674675 0.703108 0.726156 0.752303 0.770946 0.798665 0.838795 0.848538 0.83456 
0.806733 0.780397 0.751198 0.736133 0.74031 0.754175 0.785353 0.818994 0.84891 
0.829929 0.793755 0.808677 0.52171 0.465488 0.469659 0.480346 0.490269 0.508088 
0.544978 0.575809 0.608052 0.653222 0.679496 0.696497 0.718561 0.744668 0.777566 
0.817649 0.839715 0.823155 0.791636 0.756609 0.732743 0.71973 0.719656 0.730793 
0.751701 0.772565 0.801098 0.814099 0.773326 0.800095 0.479269 0.42546 0.428163 
0.441595 0.451326 0.46348 0.486854 0.53266 0.575394 0.618779 0.644308 0.656183 
0.671138 0.697877 0.731568 0.766139 0.790018 0.782942 0.765559 0.728844 0.701167 
0.688821 0.684895 0.691874 0.706463 0.722244 0.749139 0.76189 0.735009 0.763432 
0.439549 0.383616 0.389638 0.403991 0.416801 0.438595 0.449835 0.492471 0.531345 
0.567498 0.592089 0.600121 0.61315 0.637317 0.661246 0.694479 0.711416 0.726552 
0.721907 0.699746 0.664404 0.646103 0.640719 0.63814 0.649601 0.65565 0.682575 
0.693992 0.67544 0.713904 0.403432 0.343829 0.354277 0.364788 0.381511 0.406383 
0.425393 0.452473 0.484398 0.503351 0.515111 0.529234 0.543779 0.561847 0.576746 
0.59665 0.613849 0.627791 0.6449 0.64372 0.616184 0.593552 0.583713 0.577603 
0.581696 0.586105 0.602335 0.608469 0.599058 0.657004 0.374309 0.311424 0.32327 
0.332609 0.347399 0.37298 0.390187 0.407987 0.430276 0.438207 0.434916 0.447337 
0.463923 0.476117 0.487803 0.490666 0.507249 0.521 0.535883 0.549555 0.54355 
0.527525 0.517601 0.51131 0.512913 0.51932 0.525855 0.521765 0.513814 0.575134 
0.348526 0.286878 0.294108 0.303057 0.315833 0.336115 0.348393 0.364762 0.376557 
0.376545 0.36835 0.370741 0.385298 0.392724 0.401023 0.403147 0.413323 0.425775 
0.441123 0.454014 0.46002 0.453789 0.446083 0.442971 0.445225 0.447961 0.453959 
0.439153 0.428372 0.484438 0.330125 0.26356 0.269398 0.275068 0.285477 0.299967 
0.309316 0.321464 0.328549 0.324748 0.315792 0.307891 0.319376 0.326168 0.327969 
0.337144 0.338606 0.354026 0.365833 0.374367 0.378003 0.378394 0.376814 0.376852 
0.379748 0.376195 0.385507 0.367318 0.351741 0.408004 0.31428 0.242816 0.24877 
0.253312 0.257382 0.269889 0.275495 0.28438 0.287747 0.282742 0.273616 0.267156 
0.267813 0.274369 0.277811 0.284694 0.288576 0.294851 0.305844 0.309984 0.309058 
0.308234 0.309215 0.31508 0.320974 0.31696 0.327381 0.311852 0.294262 0.349613 
0.297693 0.2282 0.228213 0.235019 0.235834 0.242851 0.240617 0.251264 0.255816 
0.246135 0.238614 0.239196 0.234637 0.235826 0.237956 0.242081 0.250988 0.2526 
0.258907 0.258807 0.257688 0.257006 0.257056 0.25979 0.26995 0.266778 0.273031 
0.269143 0.253286 0.314004 0.276695 0.21323 0.211081 0.215885 0.213033 0.216609 
0.211746 0.214788 0.219952 0.217753 0.210365 0.210494 0.210283 0.206839 0.206037 
0.209281 0.213124 0.219021 0.221936 0.220542 0.217357 0.219237 0.220511 0.219631 
0.225833 0.226198 0.227213 0.223477 0.216362 0.280237 0.24413 0.184208 0.186539 
0.187742 0.184975 0.188159 0.182044 0.185706 0.187215 0.184581 0.179115 0.179325 
0.180541 0.177007 0.175693 0.179887 0.181198 0.183384 0.186371 0.187636 0.180986 
0.183648 0.184326 0.185111 0.188568 0.18785 0.193109 0.18168 0.178846 0.237957 
0.213698 0.153991 0.156962 0.161902 0.155437 0.162463 0.159146 0.161512 0.165723 
0.15897 0.154491 0.153265 0.154392 0.152324 0.150803 0.153837 0.156378 0.156822 
0.157498 0.159362 0.155935 0.154797 0.157164 0.157671 0.160074 0.158745 0.163043 
0.152048 0.14806 0.205796 0.225988 0.175409 0.175183 0.184753 0.177412 0.184061 
0.181589 0.182164 0.186427 0.188186 0.180381 0.178928 0.180896 0.179661 0.177791 
0.178112 0.17833 0.179075 0.178102 0.179832 0.177634 0.176845 0.178059 0.178703 
0.180163 0.180415 0.181355 0.170569 0.170255 0.217604 0.289259 0.286765 0.271988 
0.279408 0.275658 0.275144 0.276207 0.275775 0.275989 0.278311 0.281556 0.282779 
0.282651 0.282633 0.281585 0.278778 0.27584 0.273778 0.27297 0.27259 0.272307 
0.271186 0.270915 0.271009 0.270973 0.270713 0.274708 0.268286 0.284114 0.287716 

Froude 1 9270 float
0.0795403 0.0781334 0.078246 0.0784531 0.0793533 0.0799985 0.079311 0.0783922 0.0776947 
0.075625 0.0748692 0.0748547 0.0740995 0.0735105 0.0745306 0.0769634 0.0788639 0.078337 
0.0784661 0.0790168 0.0805849 0.0805734 0.0794288 0.0785642 0.0793437 0.080053 0.0791547 
0.0778364 0.0765905 0.0780954 0.0610435 0.0597148 0.0652364 0.0645693 0.0646171 0.0647609 
0.0642666 0.0633223 0.063031 0.0623906 0.060929 0.0617057 0.0618172 0.0614217 0.0612342 
0.0621417 0.0633303 0.0630796 0.0627748 0.0633342 0.0638661 0.0647169 0.0641985 0.0631852 
0.063164 0.0638502 0.0639979 0.0637192 0.0581445 0.0601251 0.0610316 0.0703735 0.072966 
0.0729044 0.072538 0.0723932 0.0715006 0.0710557 0.0707336 0.0696104 0.068558 0.0683354 
0.068521 0.0684302 0.0687552 0.0697558 0.0713989 0.0714978 0.0710143 0.0716005 0.0720476 
0.072067 0.0718319 0.0710306 0.0708438 0.0712574 0.0709161 0.0712521 0.0684631 0.0600931 
0.0644693 0.0765461 0.0785824 0.0787627 0.0789357 0.0782295 0.077066 0.0764285 0.0769474 
0.0755227 0.0741377 0.07413 0.0744529 0.0736284 0.0738724 0.0749379 0.0770408 0.0777782 
0.0779105 0.0786431 0.0783671 0.0782824 0.0774218 0.077078 0.0768772 0.0774113 0.0760636 
0.0760487 0.073427 0.0635618 0.0699414 0.0826677 0.0865062 0.0859043 0.0860334 0.0855349 
0.0843879 0.0835035 0.0821902 0.0834888 0.081368 0.0809765 0.0817783 0.0812742 0.0807025 
0.0815886 0.0829588 0.0842487 0.0845228 0.0858667 0.0859908 0.0853926 0.0846996 0.0844337 
0.0841149 0.0843667 0.0852303 0.0825904 0.0804122 0.0687839 0.0766416 0.0888847 0.0924886 
0.0927532 0.092643 0.0920703 0.0913609 0.0903963 0.089009 0.0885891 0.0890797 0.0879107 
0.0881675 0.0886267 0.0880886 0.0879173 0.0884133 0.0891285 0.0891622 0.0897351 0.090779 
0.0908058 0.0912346 0.0913075 0.0915461 0.0913641 0.0918577 0.0917064 0.0876951 0.075027 
0.0811197 0.0932379 0.0963014 0.0967539 0.0960591 0.0952493 0.0945081 0.0938457 0.0929921 
0.0918006 0.092408 0.0916437 0.0909945 0.0917978 0.0916594 0.0913267 0.0910282 0.0905926 
0.0904739 0.0903687 0.0908422 0.0918623 0.0930485 0.0942119 0.0950799 0.0956395 0.0958399 
0.0957376 0.0914992 0.0791742 0.0822395 0.0939533 0.0966336 0.0966707 0.0958311 0.0949229 
0.0941497 0.0934625 0.0926927 0.0919551 0.0916404 0.0912024 0.0907373 0.0908592 0.090927 
0.0906609 0.0902501 0.0897799 0.0895088 0.0892985 0.0895145 0.0903706 0.0915556 0.0929003 
0.0940704 0.094953 0.0955244 0.09548 0.0921042 0.0797887 0.0821316 0.0933462 0.0957979 
0.0957649 0.0951057 0.0943806 0.0937259 0.0930683 0.092356 0.0918239 0.091331 0.0909573 
0.0906075 0.0904436 0.0904272 0.0902117 0.0900358 0.089911 0.089813 0.0896497 0.0897204 
0.0901603 0.0908449 0.0918223 0.0927863 0.0935934 0.0941691 0.0941922 0.0915525 0.0797407 
0.0828691 0.0938841 0.0966586 0.0969869 0.0967404 0.0963816 0.0960295 0.0956739 0.0952136 
0.0948463 0.0945513 0.0943021 0.0939901 0.0937677 0.0937103 0.0935182 0.0934287 0.0934928 
0.0935934 0.0935221 0.0934635 0.0935981 0.0937976 0.0942397 0.0947889 0.0952703 0.0954636 
0.095144 0.0924073 0.0808082 0.0839881 0.0952602 0.0988476 0.09956 0.0997148 0.0996861 
0.099637 0.0995932 0.0995672 0.0993966 0.099311 0.0992478 0.0990887 0.098856 0.0987411 
0.0986741 0.0984578 0.0984806 0.0985161 0.09859 0.0985052 0.0984996 0.098564 0.0985169 
0.0987019 0.0988128 0.0987794 0.0978822 0.0945073 0.0826784 0.0838577 0.0961453 0.0997819 
0.100725 0.10094 0.101017 0.101073 0.101128 0.101187 0.101245 0.101221 0.101179 
0.101117 0.101013 0.100878 0.10076 0.10069 0.100596 0.10054 0.100516 0.100541 
0.100537 0.100517 0.10051 0.100461 0.100429 0.100265 0.0994173 0.0958146 0.0836718 
0.0842263 0.0962621 0.0997486 0.100606 0.100801 0.100862 0.100901 0.100935 0.100965 
0.100982 0.100964 0.100928 0.100871 0.10079 0.100698 0.100613 0.100543 0.100479 
0.100435 0.100411 0.100404 0.100393 0.10038 0.100368 0.100349 0.100323 0.100166 
0.099348 0.095887 0.0838859 0.084462 0.0964071 0.0997922 0.100599 0.100772 0.100821 
0.10085 0.100873 0.10089 0.100897 0.100882 0.100852 0.100806 0.100746 0.100677 
0.100611 0.100553 0.100501 0.100462 0.100435 0.10042 0.100406 0.100392 0.100382 
0.100368 0.100343 0.100195 0.0994098 0.0960342 0.0841125 0.0846563 0.0965202 0.0998233 
0.100586 0.100737 0.100773 0.100791 0.100804 0.100812 0.100811 0.100797 0.100771 
0.100734 0.100687 0.100635 0.100582 0.100535 0.100492 0.100458 0.100432 0.100413 
0.100399 0.100386 0.100377 0.100369 0.100348 0.100212 0.0994569 0.0961511 0.0843016 
0.0848227 0.0966144 0.09985 0.100577 0.10071 0.100733 0.100742 0.100747 0.100748 
0.100743 0.100729 0.100707 0.100676 0.100638 0.100597 0.100555 0.100516 0.100481 
0.100451 0.100427 0.100409 0.100394 0.100384 0.100377 0.100372 0.100357 0.100232 
0.0995035 0.0962573 0.0844766 0.0849724 0.0966939 0.0998703 0.100568 0.100685 0.100698 
0.100699 0.100698 0.100694 0.100686 0.100672 0.100652 0.100626 0.100595 0.100562 
0.100528 0.100495 0.100466 0.10044 0.100419 0.100402 0.100389 0.100381 0.100376 
0.100375 0.100365 0.100249 0.0995455 0.0963536 0.0846409 0.0851113 0.0967629 0.0998855 
0.100557 0.100661 0.100667 0.100661 0.100655 0.100647 0.100637 0.100623 0.100604 
0.100582 0.100556 0.100529 0.100501 0.100474 0.100449 0.100427 0.100409 0.100394 
0.100384 0.100377 0.100375 0.100377 0.100371 0.100264 0.0995832 0.0964425 0.0847982 
0.085243 0.0968245 0.0998964 0.100545 0.100639 0.100638 0.100627 0.100617 0.100606 
0.100594 0.10058 0.100563 0.100543 0.100521 0.100498 0.100475 0.100452 0.100431 
0.100413 0.100397 0.100385 0.100377 0.100373 0.100373 0.100378 0.100375 0.100277 
0.0996166 0.0965254 0.0849502 0.0853701 0.0968808 0.099904 0.100531 0.100616 0.100611 
0.100596 0.100582 0.10057 0.100557 0.100542 0.100526 0.100508 0.100489 0.100469 
0.10045 0.100431 0.100413 0.100398 0.100385 0.100376 0.100369 0.100367 0.10037 
0.100377 0.100378 0.100286 0.0996464 0.0966036 0.0850983 0.0854942 0.0969334 0.0999092 
0.100517 0.100595 0.100585 0.100567 0.100551 0.100537 0.100523 0.100508 0.100493 
0.100477 0.10046 0.100443 0.100426 0.10041 0.100395 0.100383 0.100372 0.100365 
0.100361 0.100361 0.100366 0.100375 0.100379 0.100294 0.0996729 0.0966779 0.0852434 
0.0856166 0.0969834 0.0999126 0.100502 0.100573 0.10056 0.10054 0.100523 0.100507 
0.100492 0.100477 0.100463 0.100448 0.100433 0.100418 0.100403 0.10039 0.100378 
0.100367 0.100359 0.100354 0.100352 0.100353 0.10036 0.100371 0.100378 0.100299 
0.0996965 0.0967488 0.0853861 0.0857382 0.0970314 0.0999147 0.100487 0.100552 0.100536 
0.100515 0.100496 0.100479 0.100464 0.100449 0.100435 0.100421 0.100407 0.100394 
0.100382 0.10037 0.10036 0.100351 0.100345 0.100342 0.100342 0.100345 0.100353 
0.100366 0.100375 0.100302 0.0997176 0.0968168 0.0855272 0.0858594 0.0970782 0.0999157 
0.100471 0.100531 0.100513 0.10049 0.10047 0.100453 0.100437 0.100423 0.100409 
0.100396 0.100383 0.100372 0.100361 0.100351 0.100342 0.100336 0.100331 0.10033 
0.100331 0.100336 0.100346 0.10036 0.100371 0.100303 0.0997363 0.0968824 0.0856668 
0.0859809 0.0971242 0.0999161 0.100454 0.10051 0.100491 0.100467 0.100446 0.100428 
0.100412 0.100398 0.100385 0.100372 0.100361 0.10035 0.10034 0.100332 0.100325 
0.10032 0.100317 0.100317 0.10032 0.100326 0.100337 0.100353 0.100365 0.100302 
0.0997531 0.0969459 0.0858054 0.0861028 0.0971695 0.099916 0.100438 0.100489 0.100469 
0.100444 0.100423 0.100405 0.100389 0.100374 0.100361 0.10035 0.100339 0.100329 
0.100321 0.100314 0.100308 0.100304 0.100303 0.100304 0.100308 0.100315 0.100328 
0.100345 0.100358 0.1003 0.0997681 0.0970075 0.0859433 0.0862255 0.0972145 0.0999155 
0.100422 0.100469 0.100447 0.100422 0.1004 0.100382 0.100366 0.100352 0.100339 
0.100328 0.100318 0.100309 0.100302 0.100296 0.100291 0.100289 0.100288 0.10029 
0.100295 0.100304 0.100317 0.100335 0.100351 0.100297 0.0997815 0.0970675 0.0860808 
0.0863491 0.0972592 0.0999148 0.100406 0.100449 0.100426 0.100401 0.100379 0.10036 
0.100344 0.10033 0.100318 0.100307 0.100298 0.10029 0.100283 0.100278 0.100274 
0.100273 0.100273 0.100276 0.100282 0.100292 0.100306 0.100325 0.100342 0.100293 
0.0997934 0.097126 0.0862179 0.0864737 0.0973039 0.0999139 0.100389 0.100429 0.100405 
0.10038 0.100358 0.100339 0.100323 0.100309 0.100297 0.100287 0.100278 0.100271 
0.100265 0.10026 0.100258 0.100257 0.100258 0.100262 0.100269 0.10028 0.100295 
0.100314 0.100332 0.100287 0.099804 0.0971833 0.086355 0.0865996 0.0973484 0.0999128 
0.100373 0.100409 0.100385 0.100359 0.100337 0.100318 0.100302 0.100289 0.100277 
0.100267 0.100259 0.100252 0.100247 0.100243 0.100241 0.100241 0.100243 0.100248 
0.100256 0.100267 0.100283 0.100303 0.100322 0.100281 0.0998135 0.0972394 0.0864921 
0.0867266 0.097393 0.0999116 0.100357 0.10039 0.100365 0.100339 0.100317 0.100298 
0.100282 0.100269 0.100258 0.100248 0.10024 0.100234 0.100229 0.100226 0.100224 
0.100225 0.100228 0.100233 0.100242 0.100254 0.10027 0.100291 0.100311 0.100274 
0.0998219 0.0972945 0.0866294 0.0868548 0.0974376 0.0999103 0.100341 0.10037 0.100345 
0.100319 0.100297 0.100278 0.100263 0.100249 0.100238 0.100229 0.100221 0.100215 
0.100211 0.100209 0.100208 0.100209 0.100213 0.100219 0.100228 0.10024 0.100257 
0.100278 0.100299 0.100266 0.0998293 0.0973486 0.0867671 0.0869844 0.0974823 0.099909 
0.100325 0.100351 0.100325 0.100299 0.100277 0.100259 0.100243 0.10023 0.100219 
0.10021 0.100203 0.100197 0.100194 0.100192 0.100191 0.100193 0.100197 0.100204 
0.100213 0.100226 0.100243 0.100265 0.100287 0.100257 0.0998358 0.0974019 0.0869051 
0.0871153 0.0975269 0.0999075 0.100309 0.100332 0.100306 0.10028 0.100258 0.100239 
0.100224 0.100211 0.1002 0.100192 0.100185 0.10018 0.100176 0.100175 0.100175 
0.100177 0.100181 0.100188 0.100198 0.100212 0.100229 0.100252 0.100274 0.100248 
0.0998414 0.0974544 0.0870438 0.0872475 0.0975716 0.0999059 0.100293 0.100313 0.100287 
0.10026 0.100238 0.10022 0.100205 0.100192 0.100182 0.100173 0.100167 0.100162 
0.100159 0.100158 0.100158 0.100161 0.100166 0.100173 0.100183 0.100197 0.100215 
0.100238 0.100261 0.100238 0.0998463 0.0975062 0.087183 0.0873811 0.0976164 0.0999043 
0.100278 0.100295 0.100268 0.100241 0.100219 0.100201 0.100186 0.100174 0.100164 
0.100155 0.100149 0.100144 0.100142 0.100141 0.100142 0.100145 0.10015 0.100157 
0.100168 0.100182 0.1002 0.100223 0.100248 0.100227 0.0998505 0.0975573 0.0873229 
0.0875161 0.0976611 0.0999025 0.100262 0.100276 0.100249 0.100222 0.100201 0.100183 
0.100168 0.100155 0.100145 0.100137 0.100131 0.100127 0.100124 0.100124 0.100125 
0.100128 0.100134 0.100142 0.100153 0.100167 0.100185 0.100209 0.100234 0.100217 
0.099854 0.0976078 0.0874635 0.0876524 0.0977057 0.0999006 0.100246 0.100258 0.10023 
0.100204 0.100182 0.100164 0.100149 0.100137 0.100127 0.100119 0.100113 0.100109 
0.100107 0.100107 0.100108 0.100112 0.100118 0.100126 0.100137 0.100152 0.10017 
0.100194 0.100219 0.100205 0.0998568 0.0976577 0.087605 0.08779 0.0977504 0.0998985 
0.10023 0.10024 0.100211 0.100185 0.100163 0.100146 0.100131 0.100119 0.100109 
0.100101 0.100096 0.100092 0.10009 0.10009 0.100091 0.100095 0.100101 0.10011 
0.100121 0.100136 0.100155 0.100179 0.100205 0.100194 0.0998591 0.0977071 0.0877474 
0.0879291 0.0977949 0.0998963 0.100215 0.100221 0.100193 0.100167 0.100145 0.100127 
0.100113 0.100101 0.100091 0.100084 0.100078 0.100074 0.100073 0.100073 0.100075 
0.100079 0.100085 0.100094 0.100105 0.10012 0.100139 0.100164 0.10019 0.100182 
0.0998607 0.0977559 0.0878906 0.0880695 0.0978394 0.0998939 0.100199 0.100203 0.100174 
0.100148 0.100127 0.100109 0.100095 0.100083 0.100073 0.100066 0.10006 0.100057 
0.100055 0.100056 0.100058 0.100062 0.100069 0.100077 0.100089 0.100104 0.100124 
0.100148 0.100175 0.100169 0.0998618 0.0978043 0.0880349 0.0882114 0.0978838 0.0998913 
0.100183 0.100185 0.100156 0.10013 0.100108 0.100091 0.100077 0.100065 0.100055 
0.100048 0.100043 0.10004 0.100038 0.100038 0.100041 0.100045 0.100052 0.100061 
0.100073 0.100088 0.100108 0.100132 0.10016 0.100156 0.0998624 0.0978521 0.0881801 
0.0883546 0.097928 0.0998885 0.100168 0.100167 0.100138 0.100112 0.10009 0.100073 
0.100058 0.100047 0.100038 0.10003 0.100025 0.100022 0.100021 0.100021 0.100024 
0.100028 0.100035 0.100045 0.100057 0.100072 0.100092 0.100116 0.100144 0.100143 
0.0998625 0.0978995 0.0883264 0.0884992 0.097972 0.0998855 0.100152 0.100149 0.10012 
0.100093 0.100072 0.100055 0.10004 0.100029 0.10002 0.100013 0.100008 0.100005 
0.100003 0.100004 0.100007 0.100012 0.100019 0.100028 0.10004 0.100056 0.100075 
0.1001 0.100128 0.10013 0.0998621 0.0979463 0.0884738 0.0886451 0.0980159 0.0998823 
0.100136 0.100131 0.100101 0.100075 0.100054 0.100037 0.100023 0.100011 0.100002 
0.0999951 0.0999901 0.0999872 0.0999861 0.0999869 0.0999897 0.0999945 0.100002 0.100011 
0.100024 0.100039 0.100059 0.100084 0.100112 0.100117 0.0998612 0.0979927 0.0886223 
0.0887925 0.0980595 0.0998788 0.100121 0.100113 0.100083 0.100057 0.100036 0.100019 
0.100005 0.0999933 0.0999842 0.0999774 0.0999725 0.0999697 0.0999687 0.0999696 0.0999725 
0.0999775 0.0999847 0.0999943 0.100007 0.100023 0.100043 0.100067 0.100096 0.100103 
0.0998598 0.0980387 0.088772 0.0889414 0.0981029 0.0998751 0.100105 0.100095 0.100065 
0.100039 0.100018 0.100001 0.0999867 0.0999754 0.0999664 0.0999597 0.0999549 0.0999522 
0.0999513 0.0999523 0.0999553 0.0999604 0.0999677 0.0999774 0.0999901 0.100006 0.100026 
0.100051 0.10008 0.100089 0.099858 0.0980842 0.0889229 0.0890916 0.098146 0.0998712 
0.100089 0.100077 0.100047 0.100021 0.0999999 0.0999828 0.0999687 0.0999575 0.0999486 
0.099942 0.0999373 0.0999346 0.0999338 0.0999349 0.099938 0.0999432 0.0999506 0.0999604 
0.0999731 0.099989 0.100009 0.100034 0.100064 0.100074 0.0998557 0.0981292 0.0890749 
0.0892432 0.0981889 0.0998669 0.100073 0.10006 0.100029 0.100003 0.0999819 0.0999648 
0.0999508 0.0999397 0.0999309 0.0999243 0.0999197 0.099917 0.0999163 0.0999175 0.0999207 
0.0999259 0.0999335 0.0999433 0.0999561 0.0999721 0.0999923 0.100017 0.100047 0.10006 
0.099853 0.0981737 0.0892283 0.0893963 0.0982314 0.0998624 0.100057 0.100042 0.100011 
0.099985 0.0999639 0.0999469 0.0999329 0.0999218 0.0999131 0.0999065 0.099902 0.0998994 
0.0998988 0.0999001 0.0999033 0.0999086 0.0999162 0.0999262 0.099939 0.0999551 0.0999753 
0.1 0.100031 0.100045 0.0998498 0.0982178 0.0893829 0.0895509 0.0982736 0.0998575 
0.100041 0.100024 0.0999929 0.0999669 0.0999459 0.0999289 0.099915 0.099904 0.0998952 
0.0998888 0.0998843 0.0998818 0.0998812 0.0998825 0.0998859 0.0998912 0.0998989 0.0999089 
0.0999219 0.0999379 0.0999582 0.0999834 0.100014 0.10003 0.0998463 0.0982614 0.0895388 
0.0897069 0.0983155 0.0998524 0.100025 0.100006 0.0999748 0.0999489 0.0999279 0.099911 
0.0998971 0.0998861 0.0998774 0.099871 0.0998666 0.0998641 0.0998636 0.099865 0.0998684 
0.0998738 0.0998815 0.0998916 0.0999046 0.0999207 0.0999411 0.0999663 0.099997 0.100015 
0.0998423 0.0983044 0.089696 0.0898643 0.0983569 0.099847 0.100008 0.0999882 0.0999568 
0.0999309 0.0999099 0.099893 0.0998792 0.0998682 0.0998596 0.0998532 0.0998488 0.0998464 
0.0998459 0.0998474 0.0998508 0.0998563 0.0998641 0.0998742 0.0998873 0.0999034 0.0999238 
0.0999491 0.09998 0.0999997 0.0998378 0.098347 0.0898545 0.0900233 0.098398 0.0998412 
0.0999919 0.0999703 0.0999387 0.0999129 0.0998918 0.099875 0.0998612 0.0998503 0.0998417 
0.0998354 0.099831 0.0998287 0.0998282 0.0998297 0.0998332 0.0998387 0.0998466 0.0998567 
0.0998699 0.0998861 0.0999065 0.0999318 0.0999629 0.0999842 0.099833 0.0983891 0.0900145 
0.0901837 0.0984386 0.0998352 0.0999755 0.0999523 0.0999207 0.0998948 0.0998738 0.099857 
0.0998432 0.0998324 0.0998238 0.0998175 0.0998132 0.0998109 0.0998105 0.099812 0.0998156 
0.0998211 0.099829 0.0998392 0.0998524 0.0998686 0.0998891 0.0999144 0.0999457 0.0999685 
0.0998278 0.0984306 0.0901758 0.0903457 0.0984788 0.0998288 0.099959 0.0999344 0.0999026 
0.0998768 0.0998558 0.099839 0.0998252 0.0998144 0.0998058 0.0997996 0.0997953 0.0997931 
0.0997927 0.0997943 0.0997979 0.0998035 0.0998114 0.0998216 0.0998348 0.0998511 0.0998716 
0.099897 0.0999285 0.0999527 0.0998221 0.0984716 0.0903386 0.0905092 0.0985185 0.0998221 
0.0999424 0.0999165 0.0998845 0.0998587 0.0998377 0.099821 0.0998072 0.0997964 0.0997879 
0.0997817 0.0997774 0.0997752 0.0997749 0.0997765 0.0997801 0.0997858 0.0997937 0.099804 
0.0998172 0.0998335 0.099854 0.0998795 0.0999111 0.0999367 0.0998161 0.098512 0.0905028 
0.0906742 0.0985577 0.099815 0.0999257 0.0998985 0.0998664 0.0998406 0.0998197 0.0998029 
0.0997892 0.0997784 0.0997699 0.0997637 0.0997595 0.0997573 0.099757 0.0997587 0.0997623 
0.099768 0.099776 0.0997863 0.0997995 0.0998158 0.0998364 0.0998619 0.0998937 0.0999206 
0.0998096 0.0985518 0.0906684 0.0908408 0.0985963 0.0998076 0.0999089 0.0998805 0.0998483 
0.0998225 0.0998016 0.0997849 0.0997711 0.0997604 0.0997519 0.0997457 0.0997415 0.0997394 
0.0997391 0.0997408 0.0997445 0.0997502 0.0997582 0.0997685 0.0997818 0.0997981 0.0998187 
0.0998442 0.0998761 0.0999043 0.0998028 0.0985911 0.0908356 0.0910089 0.0986344 0.0997999 
0.099892 0.0998624 0.0998301 0.0998044 0.0997834 0.0997668 0.0997531 0.0997423 0.0997338 
0.0997277 0.0997235 0.0997214 0.0997212 0.0997229 0.0997266 0.0997323 0.0997403 0.0997507 
0.099764 0.0997804 0.099801 0.0998264 0.0998585 0.0998879 0.0997955 0.0986297 0.0910043 
0.0911786 0.0986719 0.0997918 0.099875 0.0998443 0.0998119 0.0997862 0.0997653 0.0997486 
0.0997349 0.0997242 0.0997158 0.0997096 0.0997055 0.0997034 0.0997032 0.0997049 0.0997086 
0.0997144 0.0997224 0.0997328 0.0997462 0.0997625 0.0997832 0.0998086 0.0998408 0.0998713 
0.0997879 0.0986677 0.0911745 0.09135 0.0987088 0.0997833 0.0998579 0.0998262 0.0997937 
0.0997681 0.0997471 0.0997305 0.0997168 0.0997061 0.0996977 0.0996915 0.0996874 0.0996853 
0.0996851 0.0996869 0.0996906 0.0996964 0.0997045 0.0997149 0.0997283 0.0997446 0.0997653 
0.0997908 0.0998231 0.0998546 0.0997798 0.098705 0.0913462 0.0915229 0.098745 0.0997745 
0.0998408 0.0998081 0.0997755 0.0997499 0.0997289 0.0997123 0.0996986 0.0996879 0.0996795 
0.0996734 0.0996693 0.0996672 0.0996671 0.0996688 0.0996726 0.0996784 0.0996865 0.0996969 
0.0997103 0.0997267 0.0997474 0.0997728 0.0998053 0.0998378 0.0997714 0.0987416 0.0915196 
0.0916975 0.0987806 0.0997654 0.0998235 0.0997899 0.0997573 0.0997316 0.0997107 0.0996941 
0.0996804 0.0996697 0.0996613 0.0996553 0.0996512 0.0996491 0.099649 0.0996507 0.0996545 
0.0996603 0.0996685 0.0996789 0.0996923 0.0997087 0.0997294 0.0997549 0.0997874 0.0998208 
0.0997625 0.0987776 0.0916945 0.0918738 0.0988155 0.0997558 0.0998061 0.0997717 0.099739 
0.0997134 0.0996924 0.0996758 0.0996622 0.0996515 0.0996431 0.0996371 0.099633 0.0996309 
0.0996308 0.0996326 0.0996364 0.0996422 0.0996504 0.0996608 0.0996742 0.0996906 0.0997114 
0.0997368 0.0997694 0.0998037 0.0997533 0.0988128 0.0918711 0.0920517 0.0988497 0.0997459 
0.0997887 0.0997534 0.0997206 0.0996951 0.0996741 0.0996576 0.0996439 0.0996333 0.0996249 
0.0996189 0.0996148 0.0996127 0.0996126 0.0996144 0.0996183 0.0996241 0.0996322 0.0996427 
0.0996561 0.0996725 0.0996933 0.0997187 0.0997514 0.0997865 0.0997437 0.0988472 0.0920493 
0.0922314 0.0988831 0.0997357 0.0997711 0.0997351 0.0997023 0.0996767 0.0996558 0.0996393 
0.0996256 0.099615 0.0996066 0.0996006 0.0995965 0.0995945 0.0995944 0.0995962 0.0996001 
0.0996059 0.0996141 0.0996245 0.099638 0.0996544 0.0996751 0.0997006 0.0997333 0.0997692 
0.0997336 0.0988809 0.0922292 0.0924127 0.0989157 0.0997251 0.0997535 0.0997168 0.0996839 
0.0996584 0.0996375 0.0996209 0.0996073 0.0995967 0.0995883 0.0995823 0.0995783 0.0995763 
0.0995762 0.099578 0.0995818 0.0995877 0.0995959 0.0996063 0.0996198 0.0996362 0.099657 
0.0996824 0.0997152 0.0997517 0.0997232 0.0989137 0.0924108 0.0925958 0.0989475 0.0997141 
0.0997357 0.0996984 0.0996655 0.09964 0.0996191 0.0996026 0.099589 0.0995783 0.09957 
0.099564 0.09956 0.099558 0.0995579 0.0995597 0.0995636 0.0995694 0.0995776 0.0995881 
0.0996015 0.0996179 0.0996387 0.0996641 0.0996969 0.0997342 0.0997124 0.0989457 0.0925941 
0.0927807 0.0989784 0.0997027 0.0997179 0.09968 0.099647 0.0996216 0.0996007 0.0995842 
0.0995706 0.09956 0.0995517 0.0995457 0.0995416 0.0995396 0.0995396 0.0995414 0.0995453 
0.0995511 0.0995593 0.0995698 0.0995832 0.0995996 0.0996204 0.0996458 0.0996787 0.0997165 
0.0997012 0.0989769 0.0927791 0.0929673 0.0990085 0.099691 0.0996999 0.0996615 0.0996285 
0.0996031 0.0995822 0.0995657 0.0995522 0.0995416 0.0995333 0.0995273 0.0995233 0.0995213 
0.0995212 0.0995231 0.0995269 0.0995328 0.099541 0.0995514 0.0995649 0.0995813 0.0996021 
0.0996274 0.0996604 0.0996987 0.0996897 0.0990071 0.0929659 0.0931557 0.0990376 0.0996788 
0.0996819 0.099643 0.09961 0.0995846 0.0995637 0.0995473 0.0995337 0.0995232 0.0995149 
0.0995089 0.0995049 0.0995029 0.0995029 0.0995047 0.0995086 0.0995144 0.0995226 0.0995331 
0.0995465 0.0995629 0.0995837 0.099609 0.099642 0.0996808 0.0996777 0.0990363 0.0931545 
0.093346 0.0990657 0.0996663 0.0996638 0.0996245 0.0995914 0.0995661 0.0995452 0.0995288 
0.0995153 0.0995047 0.0994964 0.0994905 0.0994865 0.0994845 0.0994845 0.0994864 0.0994902 
0.0994961 0.0995042 0.0995147 0.0995281 0.0995445 0.0995653 0.0995905 0.0996235 0.0996628 
0.0996653 0.0990646 0.0933449 0.0935381 0.0990929 0.0996535 0.0996455 0.0996059 0.0995728 
0.0995475 0.0995267 0.0995103 0.0994968 0.0994862 0.099478 0.0994721 0.0994681 0.0994661 
0.0994661 0.099468 0.0994718 0.0994777 0.0994858 0.0994963 0.0995097 0.099526 0.0995468 
0.099572 0.099605 0.0996447 0.0996526 0.0990919 0.0935371 0.093732 0.099119 0.0996402 
0.0996272 0.0995872 0.0995542 0.0995289 0.0995081 0.0994917 0.0994783 0.0994678 0.0994595 
0.0994536 0.0994497 0.0994477 0.0994477 0.0994496 0.0994534 0.0994592 0.0994674 0.0994778 
0.0994912 0.0995075 0.0995282 0.0995535 0.0995864 0.0996264 0.0996394 0.0991181 0.0937312 
0.0939278 0.099144 0.0996266 0.0996088 0.0995685 0.0995354 0.0995102 0.0994895 0.0994731 
0.0994597 0.0994493 0.0994411 0.0994352 0.0994313 0.0994293 0.0994293 0.0994312 0.099435 
0.0994408 0.0994489 0.0994593 0.0994727 0.099489 0.0995097 0.0995348 0.0995678 0.0996081 
0.0996259 0.0991432 0.0939271 0.0941255 0.0991678 0.0996126 0.0995902 0.0995497 0.0995167 
0.0994916 0.0994708 0.0994546 0.0994412 0.0994307 0.0994226 0.0994167 0.0994129 0.0994109 
0.0994109 0.0994128 0.0994166 0.0994224 0.0994304 0.0994408 0.0994541 0.0994704 0.099491 
0.0995161 0.0995491 0.0995896 0.099612 0.0991672 0.0941249 0.0943251 0.0991905 0.0995982 
0.0995716 0.0995308 0.0994979 0.0994728 0.0994522 0.0994359 0.0994226 0.0994122 0.0994042 
0.0993983 0.0993945 0.0993925 0.0993925 0.0993944 0.0993982 0.0994039 0.099412 0.0994223 
0.0994356 0.0994518 0.0994724 0.0994974 0.0995303 0.099571 0.0995976 0.0991899 0.0943246 
0.0945267 0.0992119 0.0995834 0.0995528 0.0995119 0.099479 0.099454 0.0994335 0.0994173 
0.0994041 0.0993937 0.0993857 0.0993799 0.0993761 0.0993742 0.0993742 0.099376 0.0993798 
0.0993855 0.0993935 0.0994038 0.099417 0.0994331 0.0994536 0.0994786 0.0995115 0.0995523 
0.0995829 0.0992114 0.0945262 0.0947302 0.0992321 0.0995682 0.0995339 0.0994929 0.0994601 
0.0994352 0.0994147 0.0993987 0.0993855 0.0993752 0.0993673 0.0993615 0.0993578 0.0993559 
0.0993559 0.0993577 0.0993614 0.0993671 0.099375 0.0993853 0.0993984 0.0994144 0.0994349 
0.0994597 0.0994925 0.0995335 0.0995678 0.0992316 0.0947297 0.0949356 0.0992508 0.0995526 
0.0995149 0.0994738 0.0994411 0.0994163 0.099396 0.09938 0.099367 0.0993568 0.0993489 
0.0993432 0.0993395 0.0993376 0.0993376 0.0993394 0.0993431 0.0993488 0.0993566 0.0993668 
0.0993797 0.0993957 0.099416 0.0994408 0.0994735 0.0995145 0.0995522 0.0992504 0.0949352 
0.0951429 0.0992681 0.0995365 0.0994957 0.0994546 0.099422 0.0993974 0.0993772 0.0993613 
0.0993484 0.0993384 0.0993306 0.099325 0.0993213 0.0993195 0.0993195 0.0993212 0.0993249 
0.0993305 0.0993382 0.0993483 0.0993611 0.099377 0.0993971 0.0994217 0.0994543 0.0994954 
0.0995362 0.0992678 0.0951426 0.0953522 0.0992839 0.09952 0.0994763 0.0994353 0.0994029 
0.0993784 0.0993584 0.0993427 0.0993299 0.09932 0.0993124 0.0993068 0.0993032 0.0993014 
0.0993014 0.0993032 0.0993067 0.0993123 0.0993199 0.0993298 0.0993425 0.0993582 0.0993782 
0.0994026 0.0994351 0.099476 0.0995197 0.0992836 0.0953519 0.0955634 0.0992981 0.099503 
0.0994568 0.0994159 0.0993836 0.0993594 0.0993396 0.099324 0.0993115 0.0993017 0.0992942 
0.0992888 0.0992853 0.0992835 0.0992835 0.0992852 0.0992887 0.0992941 0.0993016 0.0993114 
0.0993239 0.0993394 0.0993592 0.0993834 0.0994156 0.0994565 0.0995028 0.0992979 0.0955632 
0.0957766 0.0993106 0.0994856 0.099437 0.0993963 0.0993643 0.0993402 0.0993207 0.0993054 
0.0992932 0.0992836 0.0992762 0.0992709 0.0992675 0.0992658 0.0992658 0.0992674 0.0992709 
0.0992761 0.0992835 0.099293 0.0993053 0.0993206 0.0993401 0.0993641 0.0993961 0.0994368 
0.0994854 0.0993104 0.0957764 0.0959916 0.0993214 0.0994676 0.099417 0.0993765 0.0993448 
0.0993211 0.0993019 0.0992869 0.0992749 0.0992655 0.0992584 0.0992533 0.0992499 0.0992483 
0.0992483 0.0992499 0.0992532 0.0992583 0.0992654 0.0992748 0.0992868 0.0993018 0.0993209 
0.0993446 0.0993763 0.0994168 0.0994674 0.0993211 0.0959914 0.0962085 0.0993301 0.0994489 
0.0993967 0.0993565 0.0993252 0.0993018 0.0992831 0.0992684 0.0992567 0.0992477 0.0992408 
0.0992358 0.0992326 0.099231 0.099231 0.0992326 0.0992358 0.0992407 0.0992476 0.0992567 
0.0992683 0.099283 0.0993017 0.099325 0.0993563 0.0993965 0.0994488 0.09933 0.0962084 
0.0964272 0.0993368 0.0994297 0.099376 0.0993362 0.0993054 0.0992825 0.0992643 0.09925 
0.0992388 0.0992301 0.0992235 0.0992187 0.0992157 0.0992141 0.0992141 0.0992156 0.0992187 
0.0992234 0.09923 0.0992387 0.0992499 0.0992642 0.0992824 0.0993053 0.0993361 0.0993759 
0.0994296 0.0993367 0.096427 0.0966475 0.0993413 0.0994097 0.0993549 0.0993156 0.0992855 
0.0992632 0.0992455 0.0992318 0.099221 0.0992127 0.0992065 0.099202 0.0991991 0.0991977 
0.0991977 0.0991991 0.099202 0.0992064 0.0992127 0.099221 0.0992317 0.0992454 0.0992631 
0.0992854 0.0993155 0.0993548 0.0994096 0.0993411 0.0966474 0.0968694 0.0993432 0.0993888 
0.0993333 0.0992947 0.0992654 0.0992437 0.0992268 0.0992137 0.0992036 0.0991957 0.0991899 
0.0991857 0.099183 0.0991817 0.0991817 0.099183 0.0991857 0.0991899 0.0991957 0.0992035 
0.0992137 0.0992268 0.0992437 0.0992653 0.0992946 0.0993332 0.0993887 0.0993431 0.0968693 
0.0970927 0.0993425 0.099367 0.0993112 0.0992734 0.0992451 0.0992243 0.0992083 0.099196 
0.0991865 0.0991792 0.0991739 0.09917 0.0991676 0.0991663 0.0991663 0.0991675 0.09917 
0.0991738 0.0991792 0.0991865 0.0991959 0.0992083 0.0992243 0.099245 0.0992733 0.0993111 
0.0993669 0.0993424 0.0970926 0.0973171 0.0993387 0.099344 0.0992883 0.0992517 0.0992246 
0.0992049 0.09919 0.0991786 0.0991699 0.0991633 0.0991584 0.099155 0.0991528 0.0991517 
0.0991517 0.0991528 0.099155 0.0991584 0.0991633 0.0991699 0.0991785 0.09919 0.0992049 
0.0992246 0.0992516 0.0992883 0.0993439 0.0993386 0.0973171 0.0975423 0.0993315 0.0993196 
0.0992647 0.0992294 0.099204 0.0991856 0.099172 0.0991616 0.0991539 0.099148 0.0991438 
0.0991408 0.0991389 0.0991379 0.0991379 0.0991388 0.0991408 0.0991438 0.099148 0.0991539 
0.0991616 0.099172 0.0991856 0.099204 0.0992294 0.0992646 0.0993195 0.0993314 0.0975423 
0.0977677 0.0993203 0.0992935 0.0992401 0.0992067 0.0991833 0.0991666 0.0991545 0.0991454 
0.0991387 0.0991337 0.0991301 0.0991275 0.0991259 0.0991251 0.0991251 0.0991259 0.0991275 
0.09913 0.0991337 0.0991387 0.0991454 0.0991544 0.0991666 0.0991833 0.0992066 0.09924 
0.0992935 0.0993202 0.0977677 0.0979925 0.0993044 0.0992654 0.0992145 0.0991835 0.0991627 
0.099148 0.0991376 0.09913 0.0991245 0.0991204 0.0991174 0.0991154 0.0991141 0.0991135 
0.0991135 0.0991141 0.0991154 0.0991174 0.0991204 0.0991244 0.09913 0.0991376 0.099148 
0.0991627 0.0991835 0.0992145 0.0992654 0.0993044 0.0979925 0.0982151 0.0992832 0.099235 
0.099188 0.0991602 0.0991425 0.0991302 0.0991218 0.0991158 0.0991115 0.0991083 0.0991061 
0.0991046 0.0991037 0.0991032 0.0991032 0.0991036 0.0991046 0.0991061 0.0991083 0.0991115 
0.0991158 0.0991218 0.0991302 0.0991424 0.0991602 0.099188 0.099235 0.0992832 0.0982151 
0.0984344 0.0992556 0.0992018 0.0991605 0.0991368 0.0991228 0.0991134 0.0991073 0.099103 
0.0991 0.0990978 0.0990963 0.0990953 0.0990946 0.0990943 0.0990943 0.0990946 0.0990953 
0.0990963 0.0990978 0.0991 0.099103 0.0991073 0.0991134 0.0991228 0.0991368 0.0991605 
0.0992018 0.0992556 0.0984344 0.0986492 0.0992201 0.0991646 0.0991317 0.0991139 0.0991045 
0.0990985 0.0990947 0.0990921 0.0990903 0.099089 0.0990882 0.0990876 0.0990872 0.099087 
0.099087 0.0990872 0.0990876 0.0990882 0.099089 0.0990903 0.0990921 0.0990947 0.0990984 
0.0991045 0.0991139 0.0991317 0.0991645 0.0992201 0.0986492 0.0988464 0.0991743 0.099125 
0.0991045 0.0990943 0.0990897 0.0990868 0.099085 0.0990839 0.0990831 0.0990825 0.0990822 
0.0990819 0.0990817 0.0990817 0.0990817 0.0990817 0.0990819 0.0990822 0.0990825 0.0990831 
0.0990839 0.099085 0.0990868 0.0990896 0.0990943 0.0991045 0.099125 0.0991743 0.0988464 
0.0989846 0.0991252 0.0990961 0.0990872 0.0990832 0.0990815 0.0990805 0.09908 0.0990796 
0.0990793 0.0990791 0.099079 0.0990789 0.0990789 0.0990788 0.0990788 0.0990789 0.0990789 
0.099079 0.0990791 0.0990793 0.0990796 0.09908 0.0990805 0.0990815 0.0990832 0.0990872 
0.0990961 0.0991252 0.0989846 0.0624564 0.064411 0.0638614 0.0644782 0.0647516 0.0649444 
0.0640349 0.0644833 0.065021 0.0646023 0.0644018 0.0646135 0.0644339 0.0641351 0.0642395 
0.0646658 0.0647156 0.0645724 0.0642717 0.0638894 0.063983 0.0642994 0.0642128 0.0642347 
0.0642713 0.0643072 0.0643494 0.0641076 0.0647649 0.0621724 0.0643926 0.0661127 0.0655647 
0.0659464 0.0662426 0.0662874 0.0657447 0.0661 0.0665934 0.0662171 0.0657097 0.0656536 
0.0654826 0.0652455 0.0655065 0.0661048 0.0663667 0.0663268 0.0660642 0.065784 0.0658152 
0.0659776 0.0659422 0.0659829 0.0660827 0.066129 0.066097 0.0658876 0.0662924 0.0640431 
0.0634975 0.0646264 0.0643247 0.0646502 0.06494 0.0649886 0.0646242 0.0648843 0.0652565 
0.0649005 0.0642945 0.0640313 0.0637682 0.0635624 0.0639172 0.0646502 0.065071 0.0651344 
0.0649422 0.0647212 0.0647343 0.0648628 0.0648769 0.0649583 0.0650625 0.0650859 0.0650146 
0.0647618 0.0648232 0.0631885 0.0616445 0.0625396 0.0623941 0.0626707 0.0629115 0.0629689 
0.0627474 0.0628948 0.0631115 0.0627756 0.0621249 0.0617057 0.0613523 0.0611606 0.0615681 
0.0623863 0.06294 0.0631256 0.0630318 0.0628933 0.0628916 0.0629883 0.0630518 0.0631799 
0.0632766 0.0632697 0.0631765 0.0628754 0.0627285 0.0613827 0.0600715 0.0611285 0.0609879 
0.0612211 0.0613859 0.0614461 0.0613186 0.0613418 0.0613883 0.061067 0.0604075 0.059899 
0.0594793 0.0592792 0.0596946 0.0605645 0.0612314 0.0615421 0.0615481 0.0614985 0.061485 
0.061558 0.0616581 0.0618272 0.0619082 0.0618745 0.0617863 0.0614421 0.061275 0.0598409 
0.0586113 0.0601239 0.0599055 0.0601098 0.0601987 0.0602618 0.0601795 0.0600799 0.0599586 
0.0596383 0.0589944 0.0584601 0.057998 0.0577604 0.0581435 0.0590544 0.0598273 0.0602419 
0.0603156 0.0603493 0.0603396 0.0604008 0.0605099 0.0607042 0.0607741 0.0607296 0.0606617 
0.0602675 0.060186 0.0583682 0.056507 0.0584323 0.0582255 0.0584211 0.0584442 0.0585105 
0.0584445 0.0582482 0.057991 0.0576802 0.0570957 0.0565888 0.0561129 0.0558123 0.056097 
0.0570109 0.0578706 0.0583413 0.0584391 0.0585329 0.0585443 0.0585969 0.0586905 0.0589017 
0.0589747 0.0589388 0.0588872 0.0584416 0.0583797 0.0562077 0.0558315 0.0569663 0.0570544 
0.0573259 0.0572891 0.0573753 0.0573173 0.0570445 0.0566732 0.0563875 0.0558754 0.0554294 
0.0549927 0.0546582 0.0547647 0.0556271 0.0565664 0.0570488 0.0571516 0.0572765 0.0573101 
0.0573876 0.0574362 0.0576518 0.0577395 0.0577366 0.0576884 0.0571264 0.0568312 0.0554411 
0.0366633 0.0446872 0.0493594 0.0521609 0.0540183 0.0555019 0.0568867 0.0582068 0.0593419 
0.0601456 0.0605688 0.0606689 0.0605252 0.0601946 0.0597537 0.0593326 0.0590605 0.0589828 
0.0590418 0.0591276 0.0591342 0.058991 0.0586665 0.058153 0.0574214 0.0563633 0.0547054 
0.0519132 0.0470919 0.0387453 0.0366762 0.0446993 0.0493664 0.0521611 0.0540135 0.0554948 
0.05688 0.0582023 0.05934 0.0601449 0.0605678 0.060667 0.0605224 0.0601905 0.0597477 
0.0593248 0.0590519 0.0589748 0.0590351 0.0591223 0.0591299 0.0589873 0.058663 0.0581499 
0.0574195 0.0563644 0.0547117 0.0519262 0.0471102 0.0387647 0.0366843 0.0447077 0.0493713 
0.0521611 0.0540098 0.0554896 0.0568752 0.0581994 0.0593389 0.0601447 0.0605674 0.0606659 
0.0605207 0.060188 0.0597438 0.0593196 0.0590461 0.0589695 0.0590308 0.059119 0.0591273 
0.058985 0.0586607 0.0581476 0.0574179 0.0563647 0.0547156 0.0519349 0.0471225 0.0387766 
0.0366937 0.0447172 0.0493768 0.0521611 0.0540058 0.0554837 0.0568699 0.058196 0.0593378 
0.0601446 0.060567 0.0606647 0.0605189 0.0601852 0.0597395 0.0593138 0.0590397 0.0589635 
0.059026 0.0591153 0.0591244 0.0589824 0.0586581 0.0581451 0.057416 0.056365 0.05472 
0.0519447 0.0471363 0.0387905 0.036703 0.0447267 0.0493823 0.052161 0.0540016 0.0554779 
0.0568646 0.0581927 0.0593366 0.0601445 0.0605665 0.0606635 0.0605171 0.0601824 0.0597353 
0.059308 0.0590333 0.0589576 0.0590212 0.0591116 0.0591215 0.0589798 0.0586555 0.0581425 
0.0574142 0.0563653 0.0547244 0.0519545 0.0471501 0.0388041 0.0367125 0.0447363 0.0493879 
0.052161 0.0539974 0.0554719 0.0568591 0.0581893 0.0593355 0.0601444 0.0605661 0.0606623 
0.0605153 0.0601797 0.059731 0.0593021 0.0590268 0.0589517 0.0590163 0.0591079 0.0591186 
0.0589772 0.0586528 0.0581399 0.0574122 0.0563655 0.0547287 0.0519644 0.0471642 0.0388179 
0.036722 0.0447461 0.0493935 0.052161 0.0539931 0.0554659 0.0568536 0.0581859 0.0593344 
0.0601443 0.0605657 0.0606612 0.0605135 0.0601769 0.0597266 0.0592963 0.0590203 0.0589456 
0.0590115 0.0591042 0.0591157 0.0589746 0.0586501 0.0581372 0.0574102 0.0563657 0.0547331 
0.0519744 0.0471783 0.0388319 0.0367316 0.044756 0.0493993 0.0521609 0.0539888 0.0554598 
0.0568481 0.0581825 0.0593332 0.0601442 0.0605654 0.06066 0.0605117 0.0601741 0.0597223 
0.0592903 0.0590137 0.0589396 0.0590065 0.0591004 0.0591127 0.0589719 0.0586474 0.0581345 
0.0574082 0.0563659 0.0547375 0.0519844 0.0471926 0.0388459 0.0367413 0.0447659 0.049405 
0.0521608 0.0539845 0.0554537 0.0568425 0.0581791 0.0593321 0.0601442 0.060565 0.0606589 
0.0605098 0.0601713 0.0597179 0.0592844 0.0590071 0.0589335 0.0590016 0.0590967 0.0591097 
0.0589692 0.0586446 0.0581318 0.0574062 0.0563661 0.054742 0.0519945 0.0472069 0.03886 
0.036751 0.044776 0.0494108 0.0521608 0.0539802 0.0554475 0.0568369 0.0581756 0.059331 
0.0601441 0.0605646 0.0606577 0.060508 0.0601685 0.0597135 0.0592784 0.0590004 0.0589274 
0.0589966 0.0590929 0.0591067 0.0589665 0.0586419 0.058129 0.0574042 0.0563662 0.0547464 
0.0520047 0.0472214 0.0388742 0.0367608 0.0447861 0.0494167 0.0521607 0.0539758 0.0554413 
0.0568313 0.0581721 0.0593298 0.0601441 0.0605641 0.0606565 0.0605062 0.0601657 0.0597092 
0.0592724 0.0589938 0.0589212 0.0589916 0.0590891 0.0591037 0.0589638 0.0586391 0.0581263 
0.0574021 0.0563663 0.0547508 0.0520149 0.0472359 0.0388885 0.0367706 0.0447963 0.0494226 
0.0521606 0.0539714 0.0554351 0.0568257 0.0581686 0.0593287 0.060144 0.0605637 0.0606553 
0.0605043 0.0601629 0.0597047 0.0592664 0.058987 0.058915 0.0589866 0.0590852 0.0591007 
0.0589611 0.0586363 0.0581235 0.0574 0.0563665 0.0547552 0.0520252 0.0472506 0.0389028 
0.0367804 0.0448065 0.0494285 0.0521605 0.0539669 0.0554288 0.05682 0.0581651 0.0593276 
0.060144 0.0605633 0.060654 0.0605025 0.0601601 0.0597003 0.0592603 0.0589803 0.0589088 
0.0589816 0.0590814 0.0590976 0.0589584 0.0586335 0.0581207 0.0573979 0.0563665 0.0547597 
0.0520355 0.0472653 0.0389172 0.0367903 0.0448169 0.0494344 0.0521604 0.0539624 0.0554226 
0.0568143 0.0581616 0.0593264 0.0601439 0.0605629 0.0606528 0.0605006 0.0601572 0.0596959 
0.0592542 0.0589735 0.0589026 0.0589766 0.0590775 0.0590946 0.0589557 0.0586307 0.0581179 
0.0573958 0.0563666 0.0547641 0.0520458 0.0472801 0.0389317 0.0368002 0.0448273 0.0494404 
0.0521603 0.0539579 0.0554162 0.0568086 0.0581581 0.0593253 0.0601439 0.0605625 0.0606516 
0.0604987 0.0601544 0.0596914 0.0592481 0.0589667 0.0588964 0.0589715 0.0590737 0.0590915 
0.0589529 0.0586279 0.0581151 0.0573936 0.0563667 0.0547685 0.0520562 0.047295 0.0389462 
0.0368102 0.0448377 0.0494464 0.0521602 0.0539534 0.0554099 0.0568028 0.0581545 0.0593242 
0.0601439 0.060562 0.0606503 0.0604969 0.0601516 0.0596869 0.0592419 0.0589599 0.0588901 
0.0589664 0.0590698 0.0590885 0.0589502 0.058625 0.0581123 0.0573915 0.0563667 0.0547729 
0.0520667 0.0473099 0.0389607 0.0368201 0.0448483 0.0494525 0.0521601 0.0539489 0.0554035 
0.0567971 0.058151 0.0593231 0.0601439 0.0605616 0.0606491 0.060495 0.0601487 0.0596825 
0.0592358 0.0589531 0.0588838 0.0589614 0.059066 0.0590854 0.0589475 0.0586222 0.0581094 
0.0573893 0.0563667 0.0547773 0.0520771 0.0473249 0.0389753 0.0368301 0.0448588 0.0494586 
0.0521599 0.0539443 0.0553971 0.0567913 0.0581474 0.059322 0.0601439 0.0605612 0.0606478 
0.0604931 0.0601459 0.059678 0.0592296 0.0589462 0.0588775 0.0589563 0.0590621 0.0590824 
0.0589447 0.0586194 0.0581066 0.0573871 0.0563667 0.0547817 0.0520876 0.0473401 0.03899 
0.0368402 0.0448695 0.0494647 0.0521597 0.0539396 0.0553907 0.0567854 0.0581439 0.0593209 
0.0601439 0.0605607 0.0606465 0.0604912 0.060143 0.0596735 0.0592234 0.0589393 0.0588712 
0.0589512 0.0590582 0.0590793 0.058942 0.0586165 0.0581037 0.0573849 0.0563667 0.0547861 
0.0520982 0.0473552 0.0390047 0.0368502 0.0448802 0.0494709 0.0521596 0.053935 0.0553842 
0.0567796 0.0581403 0.0593198 0.0601439 0.0605603 0.0606452 0.0604893 0.0601402 0.059669 
0.0592172 0.0589324 0.0588648 0.058946 0.0590543 0.0590762 0.0589392 0.0586137 0.0581009 
0.0573827 0.0563666 0.0547905 0.0521087 0.0473705 0.0390194 0.0368603 0.044891 0.049477 
0.0521594 0.0539303 0.0553777 0.0567737 0.0581367 0.0593188 0.0601439 0.0605599 0.0606439 
0.0604874 0.0601373 0.0596644 0.0592109 0.0589254 0.0588585 0.0589409 0.0590504 0.0590732 
0.0589365 0.0586108 0.058098 0.0573804 0.0563665 0.0547948 0.0521194 0.0473858 0.0390342 
0.0368704 0.0449019 0.0494833 0.0521591 0.0539256 0.0553712 0.0567678 0.0581331 0.0593177 
0.060144 0.0605594 0.0606426 0.0604855 0.0601345 0.0596599 0.0592046 0.0589184 0.0588521 
0.0589358 0.0590465 0.0590701 0.0589337 0.058608 0.0580951 0.0573781 0.0563664 0.0547992 
0.05213 0.0474012 0.0390491 0.0368805 0.0449128 0.0494895 0.0521589 0.0539209 0.0553646 
0.0567619 0.0581295 0.0593166 0.060144 0.060559 0.0606413 0.0604836 0.0601316 0.0596554 
0.0591984 0.0589115 0.0588457 0.0589306 0.0590426 0.059067 0.0589309 0.0586051 0.0580922 
0.0573758 0.0563663 0.0548035 0.0521407 0.0474167 0.039064 0.0368907 0.0449238 0.0494958 
0.0521587 0.0539161 0.055358 0.056756 0.0581259 0.0593156 0.0601441 0.0605585 0.0606399 
0.0604816 0.0601288 0.0596508 0.059192 0.0589044 0.0588393 0.0589255 0.0590387 0.0590639 
0.0589282 0.0586022 0.0580893 0.0573735 0.0563662 0.0548079 0.0521514 0.0474323 0.0390789 
0.0369009 0.0449349 0.0495021 0.0521584 0.0539113 0.0553513 0.05675 0.0581223 0.0593145 
0.0601441 0.0605581 0.0606386 0.0604797 0.0601259 0.0596463 0.0591857 0.0588974 0.0588328 
0.0589203 0.0590348 0.0590608 0.0589254 0.0585993 0.0580863 0.0573712 0.056366 0.0548122 
0.0521621 0.0474479 0.0390939 0.0369111 0.044946 0.0495084 0.0521581 0.0539064 0.0553447 
0.056744 0.0581186 0.0593135 0.0601442 0.0605576 0.0606372 0.0604778 0.060123 0.0596417 
0.0591794 0.0588903 0.0588264 0.0589151 0.0590309 0.0590578 0.0589227 0.0585964 0.0580834 
0.0573688 0.0563658 0.0548165 0.0521729 0.0474636 0.0391089 0.0369213 0.0449572 0.0495148 
0.0521578 0.0539015 0.055338 0.056738 0.058115 0.0593125 0.0601443 0.0605572 0.0606359 
0.0604759 0.0601202 0.0596371 0.059173 0.0588832 0.0588199 0.0589099 0.0590269 0.0590547 
0.0589199 0.0585935 0.0580804 0.0573664 0.0563655 0.0548208 0.0521838 0.0474794 0.039124 
0.0369315 0.0449685 0.0495212 0.0521575 0.0538966 0.0553312 0.0567319 0.0581113 0.0593114 
0.0601444 0.0605567 0.0606345 0.0604739 0.0601173 0.0596325 0.0591666 0.0588761 0.0588134 
0.0589047 0.059023 0.0590516 0.0589171 0.0585906 0.0580774 0.057364 0.0563653 0.0548251 
0.0521946 0.0474953 0.0391391 0.0369418 0.0449798 0.0495277 0.0521572 0.0538917 0.0553245 
0.0567259 0.0581076 0.0593104 0.0601445 0.0605562 0.0606331 0.060472 0.0601145 0.059628 
0.0591602 0.058869 0.0588069 0.0588995 0.0590191 0.0590485 0.0589143 0.0585877 0.0580745 
0.0573616 0.056365 0.0548293 0.0522055 0.0475112 0.0391543 0.0369521 0.0449912 0.0495341 
0.0521568 0.0538867 0.0553177 0.0567198 0.058104 0.0593094 0.0601446 0.0605558 0.0606317 
0.0604701 0.0601116 0.0596234 0.0591538 0.0588618 0.0588004 0.0588943 0.0590151 0.0590454 
0.0589116 0.0585848 0.0580715 0.0573591 0.0563647 0.0548336 0.0522164 0.0475273 0.0391695 
0.0369624 0.0450027 0.0495406 0.0521564 0.0538817 0.0553108 0.0567136 0.0581003 0.0593084 
0.0601448 0.0605553 0.0606303 0.0604681 0.0601088 0.0596188 0.0591473 0.0588546 0.0587939 
0.0588891 0.0590112 0.0590423 0.0589088 0.0585818 0.0580685 0.0573567 0.0563643 0.0548378 
0.0522274 0.0475434 0.0391847 0.0369727 0.0450143 0.0495472 0.052156 0.0538767 0.0553039 
0.0567075 0.0580966 0.0593074 0.0601449 0.0605549 0.0606289 0.0604662 0.0601059 0.0596142 
0.0591408 0.0588474 0.0587873 0.0588839 0.0590073 0.0590392 0.058906 0.0585789 0.0580654 
0.0573542 0.056364 0.054842 0.0522384 0.0475596 0.0392 0.0369831 0.0450259 0.0495537 
0.0521556 0.0538716 0.055297 0.0567013 0.0580929 0.0593065 0.0601451 0.0605544 0.0606275 
0.0604643 0.060103 0.0596095 0.0591344 0.0588402 0.0587808 0.0588786 0.0590033 0.0590361 
0.0589032 0.058576 0.0580624 0.0573517 0.0563636 0.0548462 0.0522494 0.0475758 0.0392153 
0.0369934 0.0450377 0.0495603 0.0521552 0.0538665 0.0552901 0.0566951 0.0580891 0.0593055 
0.0601453 0.0605539 0.0606261 0.0604623 0.0601002 0.0596049 0.0591278 0.0588329 0.0587742 
0.0588734 0.0589994 0.059033 0.0589005 0.058573 0.0580594 0.0573491 0.0563631 0.0548504 
0.0522604 0.0475922 0.0392307 0.0370038 0.0450495 0.049567 0.0521547 0.0538613 0.0552831 
0.0566889 0.0580854 0.0593046 0.0601454 0.0605535 0.0606246 0.0604604 0.0600973 0.0596003 
0.0591213 0.0588257 0.0587676 0.0588681 0.0589954 0.0590299 0.0588977 0.05857 0.0580563 
0.0573466 0.0563627 0.0548545 0.0522715 0.0476086 0.0392461 0.0370142 0.0450613 0.0495737 
0.0521542 0.0538562 0.0552761 0.0566826 0.0580817 0.0593036 0.0601457 0.060553 0.0606232 
0.0604584 0.0600945 0.0595956 0.0591148 0.0588184 0.058761 0.0588629 0.0589915 0.0590268 
0.0588949 0.0585671 0.0580533 0.057344 0.0563622 0.0548587 0.0522827 0.0476251 0.0392615 
0.0370246 0.0450733 0.0495804 0.0521537 0.0538509 0.0552691 0.0566763 0.0580779 0.0593027 
0.0601459 0.0605525 0.0606217 0.0604565 0.0600917 0.059591 0.0591082 0.058811 0.0587544 
0.0588576 0.0589875 0.0590237 0.0588921 0.0585641 0.0580502 0.0573414 0.0563617 0.0548628 
0.0522938 0.0476417 0.039277 0.037035 0.0450853 0.0495871 0.0521532 0.0538457 0.055262 
0.05667 0.0580742 0.0593018 0.0601461 0.0605521 0.0606203 0.0604545 0.0600888 0.0595864 
0.0591016 0.0588037 0.0587477 0.0588523 0.0589835 0.0590206 0.0588893 0.0585611 0.0580471 
0.0573388 0.0563612 0.0548669 0.052305 0.0476584 0.0392925 0.0370455 0.0450974 0.0495939 
0.0521526 0.0538404 0.0552549 0.0566637 0.0580704 0.0593008 0.0601463 0.0605516 0.0606188 
0.0604525 0.060086 0.0595817 0.059095 0.0587963 0.058741 0.058847 0.0589796 0.0590175 
0.0588866 0.0585581 0.058044 0.0573361 0.0563606 0.054871 0.0523163 0.0476752 0.0393081 
0.037056 0.0451096 0.0496007 0.0521521 0.0538351 0.0552478 0.0566573 0.0580666 0.0592999 
0.0601466 0.0605511 0.0606173 0.0604506 0.0600831 0.059577 0.0590883 0.0587889 0.0587344 
0.0588417 0.0589756 0.0590144 0.0588838 0.0585552 0.0580409 0.0573335 0.05636 0.054875 
0.0523275 0.0476921 0.0393237 0.0370664 0.0451219 0.0496075 0.0521515 0.0538297 0.0552406 
0.0566509 0.0580628 0.0592991 0.0601469 0.0605506 0.0606158 0.0604486 0.0600803 0.0595724 
0.0590817 0.0587815 0.0587277 0.0588364 0.0589716 0.0590113 0.058881 0.0585522 0.0580377 
0.0573308 0.0563594 0.0548791 0.0523388 0.047709 0.0393393 0.0370769 0.0451343 0.0496144 
0.0521508 0.0538243 0.0552334 0.0566445 0.058059 0.0592982 0.0601472 0.0605502 0.0606143 
0.0604467 0.0600775 0.0595677 0.059075 0.058774 0.058721 0.0588311 0.0589676 0.0590082 
0.0588782 0.0585492 0.0580346 0.0573281 0.0563587 0.0548831 0.0523502 0.0477261 0.039355 
0.0370874 0.0451467 0.0496213 0.0521502 0.0538189 0.0552261 0.0566381 0.0580552 0.0592973 
0.0601475 0.0605497 0.0606127 0.0604447 0.0600746 0.059563 0.0590683 0.0587665 0.0587142 
0.0588257 0.0589637 0.059005 0.0588754 0.0585461 0.0580314 0.0573253 0.056358 0.0548871 
0.0523615 0.0477432 0.0393707 0.0370979 0.0451592 0.0496283 0.0521495 0.0538135 0.0552188 
0.0566316 0.0580514 0.0592965 0.0601478 0.0605492 0.0606112 0.0604427 0.0600718 0.0595583 
0.0590616 0.058759 0.0587075 0.0588204 0.0589597 0.0590019 0.0588726 0.0585431 0.0580283 
0.0573226 0.0563573 0.054891 0.0523729 0.0477605 0.0393865 0.0371085 0.0451719 0.0496352 
0.0521488 0.053808 0.0552115 0.0566251 0.0580475 0.0592956 0.0601481 0.0605487 0.0606097 
0.0604408 0.060069 0.0595536 0.0590548 0.0587515 0.0587007 0.058815 0.0589557 0.0589988 
0.0588698 0.0585401 0.0580251 0.0573198 0.0563565 0.054895 0.0523844 0.0477778 0.0394023 
0.037119 0.0451846 0.0496423 0.0521481 0.0538024 0.0552042 0.0566186 0.0580437 0.0592948 
0.0601485 0.0605482 0.0606081 0.0604388 0.0600661 0.0595489 0.0590481 0.058744 0.0586939 
0.0588097 0.0589517 0.0589957 0.058867 0.0585371 0.0580219 0.057317 0.0563558 0.0548989 
0.0523959 0.0477952 0.0394181 0.0371295 0.0451974 0.0496493 0.0521473 0.0537969 0.0551968 
0.056612 0.0580398 0.059294 0.0601488 0.0605477 0.0606065 0.0604368 0.0600633 0.0595442 
0.0590413 0.0587364 0.0586871 0.0588043 0.0589477 0.0589926 0.0588642 0.058534 0.0580187 
0.0573142 0.0563549 0.0549028 0.0524074 0.0478127 0.0394339 0.0371401 0.0452103 0.0496564 
0.0521465 0.0537913 0.0551894 0.0566055 0.0580359 0.0592932 0.0601492 0.0605472 0.0606049 
0.0604349 0.0600605 0.0595395 0.0590345 0.0587288 0.0586803 0.058799 0.0589437 0.0589895 
0.0588614 0.058531 0.0580155 0.0573113 0.0563541 0.0549067 0.0524189 0.0478303 0.0394498 
0.0371506 0.0452232 0.0496635 0.0521457 0.0537856 0.0551819 0.0565988 0.0580321 0.0592924 
0.0601496 0.0605467 0.0606033 0.0604329 0.0600577 0.0595348 0.0590276 0.0587212 0.0586735 
0.0587936 0.0589397 0.0589863 0.0588587 0.0585279 0.0580123 0.0573085 0.0563532 0.0549105 
0.0524305 0.047848 0.0394657 0.0371612 0.0452363 0.0496707 0.0521448 0.05378 0.0551744 
0.0565922 0.0580282 0.0592916 0.06015 0.0605462 0.0606017 0.0604309 0.0600549 0.05953 
0.0590208 0.0587135 0.0586666 0.0587882 0.0589357 0.0589832 0.0588559 0.0585249 0.0580091 
0.0573056 0.0563523 0.0549143 0.0524421 0.0478658 0.0394817 0.0371718 0.0452495 0.0496779 
0.052144 0.0537742 0.0551669 0.0565856 0.0580243 0.0592909 0.0601504 0.0605457 0.0606001 
0.0604289 0.0600521 0.0595253 0.0590139 0.0587058 0.0586598 0.0587828 0.0589317 0.0589801 
0.0588531 0.0585218 0.0580058 0.0573026 0.0563514 0.0549181 0.0524538 0.0478837 0.0394977 
0.0371823 0.0452628 0.0496852 0.0521431 0.0537685 0.0551593 0.0565789 0.0580203 0.0592901 
0.0601509 0.0605452 0.0605985 0.060427 0.0600493 0.0595206 0.059007 0.0586981 0.0586529 
0.0587774 0.0589277 0.0589769 0.0588503 0.0585187 0.0580026 0.0572997 0.0563504 0.0549219 
0.0524655 0.0479017 0.0395137 0.0371929 0.0452761 0.0496924 0.0521421 0.0537627 0.0551517 
0.0565722 0.0580164 0.0592894 0.0601514 0.0605447 0.0605968 0.060425 0.0600465 0.0595158 
0.0590001 0.0586904 0.058646 0.058772 0.0589237 0.0589738 0.0588475 0.0585156 0.0579993 
0.0572967 0.0563494 0.0549256 0.0524772 0.0479199 0.0395297 0.0372035 0.0452896 0.0496998 
0.0521412 0.0537569 0.0551441 0.0565654 0.0580125 0.0592887 0.0601518 0.0605442 0.0605952 
0.060423 0.0600437 0.0595111 0.0589932 0.0586826 0.0586391 0.0587665 0.0589196 0.0589707 
0.0588447 0.0585125 0.057996 0.0572938 0.0563483 0.0549293 0.052489 0.0479381 0.0395458 
0.0372141 0.0453032 0.0497071 0.0521402 0.053751 0.0551364 0.0565586 0.0580085 0.059288 
0.0601523 0.0605437 0.0605935 0.060421 0.0600409 0.0595063 0.0589862 0.0586748 0.0586322 
0.0587611 0.0589156 0.0589676 0.0588419 0.0585094 0.0579927 0.0572908 0.0563473 0.054933 
0.0525008 0.0479564 0.0395619 0.0372247 0.0453168 0.0497145 0.0521391 0.0537452 0.0551287 
0.0565519 0.0580046 0.0592873 0.0601529 0.0605432 0.0605918 0.0604191 0.0600381 0.0595015 
0.0589792 0.058667 0.0586252 0.0587557 0.0589116 0.0589644 0.0588391 0.0585063 0.0579894 
0.0572877 0.0563462 0.0549366 0.0525126 0.0479748 0.039578 0.0372353 0.0453306 0.0497219 
0.0521381 0.0537392 0.055121 0.056545 0.0580006 0.0592866 0.0601534 0.0605427 0.0605901 
0.0604171 0.0600354 0.0594968 0.0589722 0.0586592 0.0586182 0.0587502 0.0589076 0.0589613 
0.0588363 0.0585032 0.0579861 0.0572847 0.056345 0.0549402 0.0525244 0.0479933 0.0395942 
0.0372458 0.0453445 0.0497294 0.052137 0.0537333 0.0551132 0.0565382 0.0579966 0.0592859 
0.060154 0.0605422 0.0605884 0.0604151 0.0600326 0.059492 0.0589652 0.0586513 0.0586113 
0.0587447 0.0589035 0.0589581 0.0588335 0.0585001 0.0579828 0.0572816 0.0563438 0.0549438 
0.0525363 0.048012 0.0396104 0.0372564 0.0453585 0.0497369 0.0521358 0.0537273 0.0551054 
0.0565313 0.0579926 0.0592853 0.0601545 0.0605417 0.0605867 0.0604131 0.0600298 0.0594872 
0.0589581 0.0586434 0.0586043 0.0587393 0.0588995 0.058955 0.0588307 0.058497 0.0579794 
0.0572785 0.0563426 0.0549474 0.0525483 0.0480307 0.0396266 0.037267 0.0453726 0.0497445 
0.0521347 0.0537212 0.0550976 0.0565244 0.0579886 0.0592847 0.0601551 0.0605411 0.0605849 
0.0604111 0.0600271 0.0594824 0.058951 0.0586355 0.0585973 0.0587338 0.0588955 0.0589519 
0.0588279 0.0584938 0.0579761 0.0572754 0.0563414 0.0549509 0.0525603 0.0480496 0.0396428 
0.0372776 0.0453868 0.0497521 0.0521335 0.0537152 0.0550897 0.0565175 0.0579846 0.0592841 
0.0601558 0.0605406 0.0605832 0.0604092 0.0600243 0.0594776 0.0589439 0.0586276 0.0585902 
0.0587283 0.0588914 0.0589487 0.0588251 0.0584907 0.0579727 0.0572722 0.0563401 0.0549544 
0.0525723 0.0480685 0.0396591 0.0372881 0.0454011 0.0497597 0.0521322 0.0537091 0.0550818 
0.0565105 0.0579806 0.0592835 0.0601564 0.0605401 0.0605814 0.0604072 0.0600216 0.0594728 
0.0589368 0.0586196 0.0585832 0.0587228 0.0588874 0.0589456 0.0588223 0.0584875 0.0579694 
0.0572691 0.0563388 0.0549578 0.0525843 0.0480876 0.0396753 0.0372987 0.0454156 0.0497674 
0.052131 0.0537029 0.0550739 0.0565035 0.0579765 0.0592829 0.0601571 0.0605396 0.0605796 
0.0604052 0.0600188 0.059468 0.0589296 0.0586116 0.0585761 0.0587173 0.0588834 0.0589424 
0.0588195 0.0584844 0.057966 0.0572659 0.0563375 0.0549612 0.0525964 0.0481068 0.0396916 
0.0373092 0.0454302 0.0497751 0.0521296 0.0536967 0.0550659 0.0564965 0.0579725 0.0592824 
0.0601577 0.060539 0.0605778 0.0604032 0.0600161 0.0594632 0.0589225 0.0586036 0.058569 
0.0587118 0.0588793 0.0589393 0.0588167 0.0584812 0.0579626 0.0572626 0.0563361 0.0549646 
0.0526085 0.0481261 0.0397079 0.0373198 0.0454448 0.0497828 0.0521283 0.0536905 0.0550579 
0.0564895 0.0579684 0.0592818 0.0601585 0.0605385 0.060576 0.0604012 0.0600134 0.0594584 
0.0589153 0.0585955 0.058562 0.0587063 0.0588753 0.0589361 0.0588139 0.058478 0.0579592 
0.0572594 0.0563347 0.0549679 0.0526206 0.0481456 0.0397243 0.0373303 0.0454596 0.0497906 
0.0521269 0.0536843 0.0550499 0.0564824 0.0579644 0.0592813 0.0601592 0.060538 0.0605741 
0.0603993 0.0600107 0.0594536 0.058908 0.0585874 0.0585548 0.0587008 0.0588712 0.058933 
0.0588111 0.0584748 0.0579557 0.0572561 0.0563332 0.0549712 0.0526328 0.0481651 0.0397406 
0.0373408 0.0454746 0.0497985 0.0521255 0.053678 0.0550418 0.0564753 0.0579603 0.0592808 
0.0601599 0.0605374 0.0605723 0.0603973 0.060008 0.0594488 0.0589008 0.0585793 0.0585477 
0.0586952 0.0588671 0.0589298 0.0588083 0.0584716 0.0579523 0.0572528 0.0563317 0.0549744 
0.052645 0.0481848 0.039757 0.0373514 0.0454896 0.0498064 0.052124 0.0536717 0.0550337 
0.0564682 0.0579562 0.0592804 0.0601607 0.0605369 0.0605704 0.0603953 0.0600053 0.0594439 
0.0588935 0.0585712 0.0585406 0.0586897 0.0588631 0.0589267 0.0588056 0.0584684 0.0579489 
0.0572495 0.0563302 0.0549776 0.0526572 0.0482046 0.0397733 0.0373618 0.0455048 0.0498143 
0.0521225 0.0536654 0.0550255 0.056461 0.0579521 0.0592799 0.0601615 0.0605363 0.0605685 
0.0603933 0.0600026 0.0594391 0.0588862 0.058563 0.0585334 0.0586841 0.058859 0.0589235 
0.0588028 0.0584652 0.0579454 0.0572462 0.0563286 0.0549807 0.0526695 0.0482245 0.0397897 
0.0373723 0.0455201 0.0498223 0.052121 0.053659 0.0550174 0.0564539 0.057948 0.0592795 
0.0601624 0.0605358 0.0605666 0.0603914 0.0599999 0.0594342 0.0588789 0.0585548 0.0585262 
0.0586786 0.058855 0.0589203 0.0588 0.058462 0.0579419 0.0572428 0.056327 0.0549839 
0.0526818 0.0482446 0.0398061 0.0373828 0.0455356 0.0498303 0.0521194 0.0536526 0.0550091 
0.0564467 0.0579439 0.0592791 0.0601632 0.0605352 0.0605647 0.0603894 0.0599972 0.0594294 
0.0588715 0.0585466 0.058519 0.058673 0.0588509 0.0589172 0.0587972 0.0584588 0.0579385 
0.0572394 0.0563253 0.0549869 0.0526941 0.0482647 0.0398225 0.0373932 0.0455512 0.0498384 
0.0521177 0.0536461 0.0550009 0.0564395 0.0579397 0.0592787 0.0601641 0.0605347 0.0605628 
0.0603874 0.0599945 0.0594246 0.0588642 0.0585383 0.0585118 0.0586674 0.0588468 0.058914 
0.0587944 0.0584555 0.057935 0.057236 0.0563237 0.0549899 0.0527065 0.048285 0.0398389 
0.0374037 0.0455669 0.0498465 0.0521161 0.0536396 0.0549926 0.0564322 0.0579356 0.0592783 
0.060165 0.0605341 0.0605608 0.0603855 0.0599919 0.0594197 0.0588568 0.05853 0.0585046 
0.0586618 0.0588427 0.0589108 0.0587916 0.0584523 0.0579315 0.0572325 0.0563219 0.0549929 
0.0527189 0.0483054 0.0398553 0.0374141 0.0455828 0.0498546 0.0521144 0.0536331 0.0549843 
0.0564249 0.0579314 0.059278 0.0601659 0.0605336 0.0605589 0.0603835 0.0599892 0.0594148 
0.0588493 0.0585217 0.0584974 0.0586562 0.0588387 0.0589077 0.0587888 0.058449 0.0579279 
0.057229 0.0563202 0.0549958 0.0527313 0.048326 0.0398717 0.0374245 0.0455988 0.0498628 
0.0521126 0.0536266 0.054976 0.0564176 0.0579273 0.0592777 0.0601669 0.060533 0.0605569 
0.0603815 0.0599866 0.05941 0.0588419 0.0585133 0.0584901 0.0586506 0.0588346 0.0589045 
0.058786 0.0584457 0.0579244 0.0572255 0.0563184 0.0549987 0.0527437 0.0483467 0.0398881 
0.0374348 0.0456149 0.0498711 0.0521108 0.05362 0.0549676 0.0564103 0.0579231 0.0592774 
0.0601679 0.0605324 0.0605549 0.0603796 0.059984 0.0594051 0.0588344 0.058505 0.0584828 
0.058645 0.0588305 0.0589013 0.0587832 0.0584424 0.0579209 0.057222 0.0563165 0.0550015 
0.0527562 0.0483675 0.0399045 0.0374452 0.0456313 0.0498794 0.052109 0.0536134 0.0549593 
0.056403 0.057919 0.0592771 0.0601689 0.0605319 0.0605529 0.0603776 0.0599813 0.0594002 
0.0588269 0.0584965 0.0584755 0.0586394 0.0588264 0.0588981 0.0587804 0.0584391 0.0579173 
0.0572184 0.0563146 0.0550042 0.0527687 0.0483885 0.0399209 0.0374555 0.0456477 0.0498877 
0.0521071 0.0536068 0.0549508 0.0563956 0.0579148 0.0592769 0.06017 0.0605313 0.0605509 
0.0603757 0.0599787 0.0593953 0.0588194 0.0584881 0.0584682 0.0586337 0.0588223 0.0588949 
0.0587776 0.0584358 0.0579137 0.0572148 0.0563127 0.0550069 0.0527812 0.0484096 0.0399373 
0.0374658 0.0456644 0.0498962 0.0521052 0.0536001 0.0549424 0.0563882 0.0579106 0.0592767 
0.060171 0.0605307 0.0605488 0.0603737 0.0599761 0.0593904 0.0588118 0.0584796 0.0584609 
0.0586281 0.0588182 0.0588917 0.0587748 0.0584325 0.0579101 0.0572112 0.0563107 0.0550096 
0.0527938 0.0484308 0.0399537 0.0374761 0.0456812 0.0499046 0.0521032 0.0535935 0.0549339 
0.0563808 0.0579064 0.0592765 0.0601722 0.0605302 0.0605467 0.0603718 0.0599736 0.0593856 
0.0588042 0.0584711 0.0584535 0.0586224 0.0588141 0.0588885 0.058772 0.0584291 0.0579065 
0.0572076 0.0563087 0.0550121 0.0528063 0.0484522 0.0399701 0.0374863 0.0456981 0.0499131 
0.0521012 0.0535868 0.0549254 0.0563734 0.0579022 0.0592764 0.0601733 0.0605296 0.0605446 
0.0603699 0.059971 0.0593807 0.0587966 0.0584626 0.0584461 0.0586168 0.05881 0.0588853 
0.0587692 0.0584258 0.0579029 0.0572039 0.0563066 0.0550146 0.0528189 0.0484737 0.0399864 
0.0374965 0.0457153 0.0499217 0.0520991 0.05358 0.0549169 0.056366 0.057898 0.0592763 
0.0601745 0.060529 0.0605425 0.0603679 0.0599684 0.0593757 0.0587889 0.058454 0.0584388 
0.0586111 0.0588058 0.0588821 0.0587663 0.0584224 0.0578993 0.0572002 0.0563045 0.0550171 
0.0528316 0.0484953 0.0400028 0.0375067 0.0457326 0.0499303 0.052097 0.0535733 0.0549084 
0.0563585 0.0578938 0.0592762 0.0601757 0.0605285 0.0605404 0.060366 0.0599658 0.0593708 
0.0587813 0.0584454 0.0584313 0.0586054 0.0588017 0.0588788 0.0587635 0.058419 0.0578956 
0.0571964 0.0563024 0.0550195 0.0528442 0.0485171 0.0400191 0.0375169 0.0457501 0.049939 
0.0520949 0.0535665 0.0548998 0.056351 0.0578896 0.0592762 0.060177 0.0605279 0.0605383 
0.0603641 0.0599633 0.0593659 0.0587735 0.0584367 0.0584239 0.0585997 0.0587976 0.0588756 
0.0587607 0.0584156 0.0578919 0.0571926 0.0563002 0.0550218 0.0528568 0.0485391 0.0400353 
0.037527 0.0457678 0.0499478 0.0520927 0.0535598 0.0548912 0.0563435 0.0578854 0.0592761 
0.0601783 0.0605273 0.0605361 0.0603621 0.0599608 0.059361 0.0587658 0.0584281 0.0584165 
0.058594 0.0587934 0.0588723 0.0587579 0.0584121 0.0578882 0.0571888 0.0562979 0.055024 
0.0528695 0.0485611 0.0400516 0.0375371 0.0457857 0.0499566 0.0520905 0.053553 0.0548826 
0.056336 0.0578811 0.0592762 0.0601796 0.0605267 0.0605339 0.0603602 0.0599582 0.059356 
0.058758 0.0584193 0.058409 0.0585882 0.0587893 0.0588691 0.058755 0.0584087 0.0578845 
0.057185 0.0562956 0.0550262 0.0528822 0.0485834 0.0400678 0.0375472 0.0458038 0.0499655 
0.0520882 0.0535461 0.054874 0.0563285 0.0578769 0.0592762 0.060181 0.0605262 0.0605317 
0.0603583 0.0599557 0.0593511 0.0587502 0.0584106 0.0584015 0.0585825 0.0587851 0.0588658 
0.0587522 0.0584052 0.0578808 0.0571811 0.0562933 0.0550283 0.0528949 0.0486058 0.040084 
0.0375573 0.045822 0.0499744 0.0520859 0.0535393 0.0548653 0.0563209 0.0578727 0.0592763 
0.0601824 0.0605256 0.0605295 0.0603564 0.0599532 0.0593461 0.0587424 0.0584018 0.058394 
0.0585767 0.0587809 0.0588625 0.0587493 0.0584017 0.057877 0.0571771 0.0562909 0.0550303 
0.0529076 0.0486283 0.0401001 0.0375673 0.0458406 0.0499834 0.0520836 0.0535325 0.0548567 
0.0563134 0.0578685 0.0592765 0.0601839 0.060525 0.0605273 0.0603545 0.0599507 0.0593411 
0.0587345 0.058393 0.0583865 0.0585709 0.0587767 0.0588592 0.0587465 0.0583982 0.0578732 
0.0571732 0.0562884 0.0550322 0.0529203 0.048651 0.0401162 0.0375773 0.0458593 0.0499925 
0.0520812 0.0535257 0.054848 0.0563059 0.0578643 0.0592767 0.0601854 0.0605244 0.060525 
0.0603526 0.0599482 0.0593361 0.0587266 0.0583841 0.0583789 0.0585652 0.0587725 0.0588559 
0.0587436 0.0583946 0.0578694 0.0571692 0.0562859 0.055034 0.052933 0.0486738 0.0401323 
0.0375873 0.0458782 0.0500017 0.0520788 0.0535188 0.0548394 0.0562983 0.0578601 0.0592769 
0.060187 0.0605239 0.0605227 0.0603507 0.0599458 0.0593311 0.0587186 0.0583752 0.0583713 
0.0585593 0.0587683 0.0588526 0.0587407 0.058391 0.0578656 0.0571651 0.0562833 0.0550358 
0.0529457 0.0486968 0.0401483 0.0375973 0.0458974 0.050011 0.0520764 0.053512 0.0548307 
0.0562907 0.0578559 0.0592772 0.0601886 0.0605233 0.0605204 0.0603488 0.0599433 0.0593261 
0.0587106 0.0583662 0.0583637 0.0585535 0.058764 0.0588492 0.0587378 0.0583874 0.0578617 
0.057161 0.0562807 0.0550375 0.0529585 0.0487199 0.0401642 0.0376072 0.0459169 0.0500203 
0.0520739 0.0535052 0.054822 0.0562832 0.0578518 0.0592775 0.0601902 0.0605227 0.0605181 
0.0603469 0.0599408 0.0593211 0.0587026 0.0583572 0.058356 0.0585476 0.0587598 0.0588458 
0.0587349 0.0583838 0.0578578 0.0571569 0.056278 0.055039 0.0529712 0.0487432 0.0401801 
0.0376172 0.0459366 0.0500298 0.0520714 0.0534983 0.0548134 0.0562756 0.0578476 0.0592779 
0.0601919 0.0605222 0.0605157 0.060345 0.0599384 0.059316 0.0586945 0.0583481 0.0583484 
0.0585417 0.0587555 0.0588424 0.058732 0.0583801 0.0578538 0.0571527 0.0562752 0.0550405 
0.0529839 0.0487667 0.0401959 0.0376271 0.0459565 0.0500393 0.0520689 0.0534916 0.0548047 
0.0562681 0.0578435 0.0592784 0.0601937 0.0605216 0.0605134 0.0603431 0.0599359 0.0593109 
0.0586863 0.058339 0.0583406 0.0585358 0.0587512 0.058839 0.058729 0.0583764 0.0578499 
0.0571484 0.0562724 0.0550419 0.0529966 0.0487903 0.0402116 0.0376371 0.0459768 0.050049 
0.0520664 0.0534848 0.0547961 0.0562606 0.0578394 0.0592789 0.0601955 0.060521 0.0605109 
0.0603412 0.0599334 0.0593058 0.0586781 0.0583298 0.0583329 0.0585298 0.0587468 0.0588355 
0.058726 0.0583726 0.0578459 0.0571441 0.0562695 0.0550431 0.0530094 0.0488141 0.0402273 
0.037647 0.0459974 0.0500588 0.0520639 0.053478 0.0547875 0.0562531 0.0578353 0.0592794 
0.0601974 0.0605204 0.0605085 0.0603393 0.059931 0.0593006 0.0586698 0.0583206 0.0583251 
0.0585238 0.0587424 0.058832 0.058723 0.0583688 0.0578418 0.0571398 0.0562666 0.0550443 
0.0530221 0.048838 0.0402429 0.037657 0.0460182 0.0500687 0.0520614 0.0534713 0.0547789 
0.0562456 0.0578312 0.0592801 0.0601993 0.0605198 0.060506 0.0603374 0.0599285 0.0592955 
0.0586615 0.0583112 0.0583172 0.0585178 0.058738 0.0588285 0.0587199 0.058365 0.0578377 
0.0571353 0.0562636 0.0550454 0.0530348 0.0488621 0.0402584 0.037667 0.0460395 0.0500788 
0.0520589 0.0534647 0.0547703 0.0562381 0.0578272 0.0592808 0.0602013 0.0605193 0.0605035 
0.0603355 0.059926 0.0592902 0.0586531 0.0583018 0.0583093 0.0585117 0.0587335 0.0588249 
0.0587168 0.0583611 0.0578336 0.0571309 0.0562605 0.0550463 0.0530474 0.0488864 0.0402738 
0.0376771 0.046061 0.050089 0.0520564 0.0534581 0.0547618 0.0562307 0.0578232 0.0592815 
0.0602034 0.0605187 0.0605009 0.0603336 0.0599235 0.0592849 0.0586445 0.0582924 0.0583013 
0.0585055 0.058729 0.0588212 0.0587137 0.0583571 0.0578294 0.0571263 0.0562573 0.0550472 
0.0530601 0.0489109 0.0402892 0.0376872 0.046083 0.0500994 0.0520539 0.0534516 0.0547534 
0.0562233 0.0578193 0.0592824 0.0602055 0.0605181 0.0604983 0.0603316 0.0599209 0.0592796 
0.0586359 0.0582828 0.0582932 0.0584992 0.0587244 0.0588175 0.0587105 0.0583531 0.0578251 
0.0571217 0.0562541 0.0550479 0.0530728 0.0489355 0.0403044 0.0376973 0.0461053 0.0501099 
0.0520515 0.0534451 0.054745 0.056216 0.0578154 0.0592833 0.0602076 0.0605174 0.0604956 
0.0603296 0.0599183 0.0592742 0.0586271 0.0582731 0.0582851 0.0584929 0.0587198 0.0588137 
0.0587073 0.058349 0.0578208 0.0571171 0.0562508 0.0550485 0.0530854 0.0489604 0.0403196 
0.0377076 0.0461281 0.0501207 0.0520492 0.0534388 0.0547366 0.0562087 0.0578115 0.0592843 
0.0602099 0.0605168 0.0604929 0.0603275 0.0599157 0.0592686 0.0586183 0.0582633 0.0582768 
0.0584865 0.058715 0.0588099 0.0587039 0.0583448 0.0578164 0.0571123 0.0562474 0.055049 
0.0530981 0.0489854 0.0403347 0.037718 0.0461514 0.0501317 0.0520469 0.0534326 0.0547284 
0.0562015 0.0578078 0.0592854 0.0602122 0.0605161 0.0604901 0.0603254 0.0599129 0.059263 
0.0586092 0.0582533 0.0582684 0.05848 0.0587102 0.0588059 0.0587006 0.0583406 0.057812 
0.0571075 0.056244 0.0550494 0.0531107 0.0490107 0.0403497 0.0377286 0.0461752 0.050143 
0.0520447 0.0534265 0.0547203 0.0561944 0.0578041 0.0592866 0.0602145 0.0605154 0.0604872 
0.0603232 0.0599101 0.0592572 0.0586 0.0582431 0.0582599 0.0584733 0.0587052 0.0588018 
0.0586971 0.0583362 0.0578075 0.0571027 0.0562405 0.0550498 0.0531234 0.0490362 0.0403647 
0.0377394 0.0461995 0.0501546 0.0520427 0.0534205 0.0547123 0.0561874 0.0578004 0.0592879 
0.0602169 0.0605146 0.0604841 0.0603209 0.0599072 0.0592513 0.0585906 0.0582328 0.0582512 
0.0584665 0.0587001 0.0587976 0.0586935 0.0583318 0.0578029 0.0570977 0.0562369 0.05505 
0.0531361 0.0490619 0.0403796 0.0377504 0.0462245 0.0501665 0.0520408 0.0534148 0.0547044 
0.0561804 0.0577969 0.0592892 0.0602193 0.0605138 0.060481 0.0603185 0.0599041 0.0592452 
0.0585809 0.0582222 0.0582423 0.0584595 0.0586948 0.0587933 0.0586898 0.0583272 0.0577983 
0.0570927 0.0562333 0.0550501 0.0531488 0.049088 0.0403944 0.0377617 0.0462502 0.0501788 
0.0520392 0.0534093 0.0546967 0.0561737 0.0577935 0.0592907 0.0602218 0.0605129 0.0604777 
0.0603159 0.0599008 0.0592388 0.058571 0.0582114 0.0582332 0.0584523 0.0586894 0.0587887 
0.058686 0.0583225 0.0577935 0.0570877 0.0562296 0.0550502 0.0531616 0.0491144 0.0404093 
0.0377734 0.0462766 0.0501915 0.0520378 0.053404 0.0546892 0.056167 0.0577901 0.0592923 
0.0602243 0.0605118 0.0604741 0.0603131 0.0598973 0.0592322 0.0585607 0.0582002 0.0582238 
0.0584448 0.0586837 0.058784 0.0586821 0.0583177 0.0577887 0.0570826 0.0562259 0.0550502 
0.0531744 0.0491411 0.0404242 0.0377856 0.0463038 0.0502048 0.0520366 0.053399 0.0546819 
0.0561605 0.0577869 0.0592939 0.0602268 0.0605107 0.0604704 0.0603101 0.0598935 0.0592252 
0.05855 0.0581887 0.0582141 0.058437 0.0586777 0.0587791 0.0586779 0.0583128 0.0577838 
0.0570774 0.0562221 0.0550502 0.0531874 0.0491682 0.0404391 0.0377983 0.046332 0.0502186 
0.0520359 0.0533944 0.0546749 0.0561543 0.0577839 0.0592957 0.0602293 0.0605093 0.0604663 
0.0603068 0.0598894 0.0592179 0.0585389 0.0581767 0.058204 0.0584289 0.0586715 0.0587739 
0.0586736 0.0583077 0.0577788 0.0570722 0.0562184 0.0550502 0.0532005 0.0491958 0.0404542 
0.0378117 0.0463613 0.0502331 0.0520356 0.0533902 0.0546682 0.0561482 0.0577809 0.0592976 
0.0602318 0.0605077 0.0604619 0.0603032 0.0598849 0.05921 0.0585273 0.0581642 0.0581934 
0.0584203 0.0586649 0.0587683 0.058669 0.0583024 0.0577737 0.057067 0.0562147 0.0550502 
0.0532138 0.0492239 0.0404695 0.0378259 0.0463919 0.0502484 0.0520358 0.0533865 0.0546619 
0.0561424 0.0577781 0.0592995 0.0602342 0.0605059 0.0604571 0.060299 0.0598798 0.0592015 
0.058515 0.0581511 0.0581822 0.0584113 0.0586578 0.0587624 0.0586642 0.0582969 0.0577686 
0.0570617 0.0562111 0.0550504 0.0532274 0.0492527 0.040485 0.037841 0.0464238 0.0502646 
0.0520366 0.0533833 0.054656 0.0561369 0.0577755 0.0593016 0.0602365 0.0605036 0.0604518 
0.0602944 0.0598741 0.0591924 0.0585019 0.0581373 0.0581704 0.0584016 0.0586502 0.0587561 
0.0586591 0.0582912 0.0577633 0.0570565 0.0562076 0.0550507 0.0532414 0.0492823 0.040501 
0.0378574 0.0464573 0.0502819 0.0520382 0.0533808 0.0546505 0.0561317 0.057773 0.0593036 
0.0602387 0.060501 0.0604458 0.060289 0.0598676 0.0591823 0.058488 0.0581225 0.0581578 
0.0583912 0.058642 0.0587492 0.0586536 0.0582852 0.057758 0.0570513 0.0562042 0.0550512 
0.0532558 0.0493127 0.0405174 0.0378752 0.0464928 0.0503004 0.0520407 0.053379 0.0546456 
0.0561268 0.0577708 0.0593057 0.0602405 0.0604977 0.0604391 0.0602828 0.0598602 0.0591713 
0.0584729 0.0581068 0.0581443 0.0583799 0.0586331 0.0587418 0.0586477 0.058279 0.0577525 
0.0570461 0.0562011 0.0550521 0.0532708 0.0493443 0.0405346 0.0378948 0.0465304 0.0503205 
0.0520442 0.0533781 0.0546414 0.0561224 0.0577687 0.0593078 0.0602421 0.0604938 0.0604314 
0.0602755 0.0598517 0.059159 0.0584566 0.0580898 0.0581296 0.0583677 0.0586233 0.0587336 
0.0586413 0.0582725 0.057747 0.0570411 0.0561983 0.0550535 0.0532866 0.0493771 0.0405527 
0.0379165 0.0465706 0.0503424 0.0520491 0.0533784 0.0546379 0.0561184 0.0577667 0.0593098 
0.0602432 0.060489 0.0604226 0.060267 0.0598417 0.0591451 0.0584387 0.0580713 0.0581136 
0.0583542 0.0586125 0.0587246 0.0586344 0.0582656 0.0577414 0.0570363 0.0561959 0.0550555 
0.0533033 0.0494116 0.040572 0.0379409 0.0466138 0.0503664 0.0520555 0.0533798 0.0546352 
0.056115 0.057765 0.0593117 0.0602437 0.060483 0.0604123 0.060257 0.0598301 0.0591295 
0.0584189 0.058051 0.058096 0.0583392 0.0586004 0.0587146 0.0586267 0.0582582 0.0577358 
0.0570317 0.056194 0.0550583 0.0533213 0.0494479 0.0405929 0.0379684 0.0466607 0.0503929 
0.0520638 0.0533827 0.0546335 0.0561121 0.0577633 0.0593133 0.0602433 0.0604757 0.0604003 
0.0602451 0.0598164 0.0591118 0.058397 0.0580287 0.0580764 0.0583225 0.0585868 0.0587034 
0.0586183 0.0582504 0.0577301 0.0570274 0.0561929 0.0550621 0.0533408 0.0494867 0.0406157 
0.0379998 0.0467118 0.0504225 0.0520744 0.0533874 0.0546329 0.0561098 0.0577617 0.0593145 
0.060242 0.0604667 0.0603862 0.0602309 0.0598002 0.0590914 0.0583725 0.0580039 0.0580546 
0.0583038 0.0585715 0.0586909 0.0586089 0.0582421 0.0577243 0.0570235 0.0561926 0.0550673 
0.0533621 0.0495283 0.0406411 0.038036 0.0467681 0.0504559 0.0520876 0.053394 0.0546335 
0.0561081 0.0577601 0.0593151 0.0602392 0.0604555 0.0603695 0.0602139 0.0597811 0.0590679 
0.0583449 0.0579762 0.0580301 0.0582826 0.0585541 0.0586766 0.0585983 0.058233 0.0577185 
0.05702 0.0561934 0.0550741 0.0533859 0.0495735 0.0406696 0.0380781 0.0468307 0.0504936 
0.052104 0.0534031 0.0546355 0.056107 0.0577583 0.0593147 0.0602346 0.0604415 0.0603495 
0.0601934 0.0597584 0.0590408 0.0583137 0.0579451 0.0580024 0.0582586 0.0585342 0.0586603 
0.0585864 0.0582231 0.0577125 0.0570171 0.0561956 0.055083 0.0534127 0.0496231 0.0407022 
0.0381275 0.046901 0.0505369 0.0521244 0.053415 0.0546391 0.0561065 0.0577561 0.0593131 
0.0602276 0.0604242 0.0603257 0.0601689 0.0597315 0.0590094 0.0582783 0.05791 0.057971 
0.0582312 0.0585114 0.0586416 0.0585727 0.0582121 0.0577064 0.0570148 0.0561994 0.0550945 
0.0534431 0.0496783 0.0407401 0.0381861 0.0469806 0.0505868 0.0521494 0.0534301 0.0546443 
0.0561065 0.0577531 0.0593097 0.0602175 0.0604026 0.0602969 0.0601394 0.0596994 0.0589728 
0.0582379 0.0578703 0.0579354 0.0581999 0.0584852 0.0586201 0.0585568 0.0581998 0.0576999 
0.0570132 0.0562051 0.055109 0.0534782 0.0497402 0.0407845 0.0382561 0.0470716 0.0506446 
0.0521797 0.0534488 0.0546511 0.0561065 0.0577486 0.0593033 0.060203 0.0603753 0.0602619 
0.0601034 0.0596609 0.05893 0.0581916 0.057825 0.0578944 0.0581637 0.0584545 0.0585947 
0.058538 0.0581854 0.0576926 0.0570118 0.0562127 0.055127 0.0535188 0.0498106 0.0408372 
0.0383404 0.0471767 0.050712 0.0522162 0.0534714 0.0546593 0.0561062 0.057742 0.0592932 
0.0601829 0.0603409 0.0602193 0.0600599 0.0596149 0.05888 0.0581385 0.0577735 0.0578476 
0.0581219 0.0584187 0.0585648 0.0585156 0.0581683 0.0576839 0.0570106 0.0562224 0.055149 
0.0535662 0.0498915 0.0409007 0.0384445 0.047301 0.0507931 0.052262 0.0535007 0.054671 
0.0561071 0.0577344 0.0592802 0.0601579 0.0603002 0.0601698 0.0600097 0.0595626 0.0588241 
0.0580802 0.0577173 0.0577965 0.0580763 0.0583793 0.058532 0.058491 0.05815 0.0576756 
0.0570113 0.0562366 0.0551778 0.0536242 0.0499879 0.0409803 0.038577 0.0474515 0.0508924 
0.0523199 0.0535386 0.0546873 0.0561097 0.0577258 0.0592636 0.0601268 0.0602516 0.0601122 
0.0599519 0.0595035 0.0587625 0.0580172 0.0576572 0.0577418 0.0580271 0.0583366 0.0584961 
0.0584641 0.0581305 0.0576677 0.0570145 0.0562565 0.0552154 0.0536962 0.0501054 0.0410831 
0.0387325 0.0476196 0.0509977 0.0523747 0.0535682 0.0546899 0.0560945 0.0576952 0.0592211 
0.0600665 0.0601719 0.0600236 0.0598641 0.0594159 0.0586742 0.0579295 0.0575735 0.0576636 
0.0579544 0.0582699 0.0584362 0.0584138 0.0580888 0.0576396 0.0569999 0.0562626 0.0552437 
0.0537668 0.0502314 0.0411977 0.0388979 0.0477881 0.0510885 0.0524039 0.0535676 0.0546565 
0.0560384 0.0576185 0.0591275 0.0599513 0.0600356 0.0598791 0.0597223 0.0592766 0.0585374 
0.057796 0.0574457 0.0575413 0.0578364 0.0581569 0.0583293 0.0583165 0.058001 0.0575673 
0.0569438 0.0562316 0.0552397 0.053816 0.0503511 0.0413161 0.0392281 0.0480923 0.0512983 
0.052543 0.0536757 0.0547296 0.0560869 0.0576436 0.0591325 0.0599324 0.0599956 0.059833 
0.059681 0.0592404 0.0585069 0.0577719 0.0574281 0.0575284 0.0578263 0.0581497 0.0583266 
0.0583226 0.0580165 0.0575989 0.0569927 0.0563084 0.0553475 0.0539908 0.0506219 0.041635 
0.0401554 0.0489294 0.0520173 0.0531834 0.0542891 0.055312 0.05665 0.0581875 0.0596591 
0.0604374 0.0604823 0.0603165 0.060171 0.0597365 0.0590101 0.0582826 0.0579449 0.0580485 
0.0583471 0.0586715 0.0588509 0.0588537 0.0585549 0.0581513 0.0575606 0.0569036 0.0559741 
0.0546963 0.0514495 0.0425774 0.041962 0.0505923 0.0535392 0.0546196 0.0557045 0.0567039 
0.0580318 0.0595592 0.0610206 0.0617823 0.061813 0.0616476 0.0615103 0.0610821 0.0603626 
0.0596423 0.059309 0.0594142 0.059712 0.0600354 0.0602152 0.0602224 0.0599278 0.0595342 
0.0589547 0.058321 0.0574189 0.0562235 0.0531088 0.0443531 0.0445708 0.0530796 0.0558818 
0.0568791 0.0579522 0.0589362 0.060263 0.0617883 0.0632454 0.0639951 0.0640161 0.0638551 
0.0637277 0.0633066 0.0625949 0.0618819 0.0615518 0.0616569 0.0619518 0.0622722 0.0624501 
0.0624588 0.0621652 0.0617772 0.0612039 0.0605873 0.0597047 0.0585864 0.0556019 0.0469707 
0.0479596 0.0563482 0.0590156 0.0599433 0.0610187 0.0619978 0.0633325 0.064863 0.0663208 
0.0670628 0.0670784 0.0669261 0.0668106 0.0663981 0.0656959 0.0649909 0.0646634 0.0647667 
0.0650569 0.0653717 0.0655451 0.0655522 0.0652558 0.0648682 0.0642948 0.0636865 0.0628117 
0.0617588 0.0589005 0.0503966 0.0521329 0.0603956 0.0629373 0.0638154 0.0649108 0.0658984 
0.0672515 0.0687952 0.070259 0.0709976 0.0710126 0.0708732 0.0707718 0.0703695 0.0696788 
0.0689825 0.0686575 0.0687576 0.069041 0.0693479 0.0695142 0.0695162 0.0692128 0.0688193 
0.0682376 0.0676258 0.0667443 0.0657405 0.0630028 0.0546329 0.057096 0.0652253 0.0676525 
0.0685044 0.0696396 0.0706511 0.0720344 0.0736001 0.0750757 0.0758162 0.0758355 0.0757131 
0.0756276 0.0752371 0.0745597 0.0738727 0.0735499 0.0736459 0.0739211 0.0742179 0.0743747 
0.0743683 0.0740534 0.073647 0.0730475 0.0724182 0.0715129 0.0705374 0.0679121 0.059687 
0.0628437 0.0708326 0.073161 0.0740132 0.0752079 0.0762591 0.0776844 0.0792809 0.0807746 
0.0815225 0.081551 0.0814492 0.0813813 0.0810038 0.0803409 0.0796634 0.0793428 0.0794338 
0.0797 0.0799854 0.0801309 0.0801132 0.0797832 0.0793575 0.0787315 0.0780709 0.0771235 
0.0761502 0.073621 0.065553 0.0693398 0.0771854 0.0794353 0.0803132 0.0815826 0.0826857 
0.0841623 0.0857973 0.0873151 0.088076 0.0881182 0.0880397 0.0879905 0.0876268 0.0869787 
0.0863104 0.0859918 0.0860776 0.0863345 0.0866079 0.0867415 0.0867108 0.0863636 0.085915 
0.0852577 0.0845573 0.0835556 0.0825587 0.080097 0.0721792 0.0764551 0.0841713 0.086366 
0.0872862 0.0886338 0.0897923 0.0913235 0.0930014 0.0945479 0.0953265 0.0953856 0.0953322 
0.0953021 0.0949524 0.0943185 0.0936584 0.0933416 0.0934225 0.0936709 0.0939329 0.094055 
0.0940113 0.0936471 0.093176 0.0924891 0.0917505 0.0906961 0.0896624 0.0872442 0.0794369 
0.0838756 0.0914952 0.0936451 0.0946066 0.0960197 0.0972252 0.0988058 0.100526 0.102101 
0.1029 0.102976 0.102948 0.102936 0.1026 0.101979 0.101326 0.101011 0.101088 
0.10133 0.101583 0.101695 0.101641 0.101263 0.100774 0.100065 0.0993006 0.0982111 
0.0971506 0.0947755 0.0870678 0.0910318 0.0985314 0.100613 0.101589 0.103039 0.104271 
0.105887 0.107639 0.109239 0.110053 0.110143 0.110136 0.110141 0.109818 0.109208 
0.108562 0.108249 0.108325 0.108564 0.108811 0.108919 0.108858 0.108472 0.107973 
0.107256 0.106483 0.105389 0.104342 0.102062 0.0944922 0.0969544 0.104262 0.10621 
0.10715 0.108599 0.109831 0.111458 0.113226 0.114835 0.115655 0.11575 0.115758 
0.115777 0.115466 0.114868 0.114229 0.113921 0.113999 0.114238 0.114484 0.114592 
0.114531 0.114145 0.113647 0.112934 0.112172 0.111099 0.110109 0.108004 0.100703 
0.100663 0.107683 0.109446 0.110314 0.111734 0.112938 0.114552 0.11631 0.117911 
0.118721 0.11881 0.118826 0.118858 0.118559 0.117973 0.117344 0.117044 0.117127 
0.117371 0.117619 0.117731 0.117677 0.1173 0.116813 0.116117 0.115378 0.114339 
0.113414 0.111481 0.104547 0.102159 0.108855 0.110468 0.111267 0.11265 0.113812 
0.115394 0.117125 0.118701 0.11949 0.119565 0.119584 0.119625 0.119338 0.118767 
0.118149 0.117859 0.11795 0.1182 0.118453 0.118574 0.118532 0.118169 0.117703 
0.117032 0.116326 0.115323 0.114452 0.112634 0.105949 0.102584 0.109073 0.110596 
0.111346 0.112696 0.113817 0.115365 0.117067 0.118617 0.119384 0.119443 0.119461 
0.119509 0.119232 0.118673 0.118065 0.117785 0.117885 0.118143 0.118404 0.118536 
0.118508 0.118163 0.11772 0.117076 0.116403 0.115433 0.114608 0.11288 0.106403 
0.102915 0.109211 0.110665 0.111376 0.112703 0.113789 0.115312 0.116992 0.118523 
0.119273 0.119316 0.119332 0.119386 0.119116 0.118565 0.117964 0.117693 0.117802 
0.11807 0.118342 0.118487 0.118475 0.118147 0.117724 0.117104 0.116459 0.115515 
0.114727 0.11307 0.1068 0.103202 0.109304 0.110699 0.11138 0.112692 0.113751 
0.115255 0.11692 0.118439 0.119175 0.119205 0.119219 0.119278 0.119014 0.118469 
0.117873 0.117609 0.117728 0.118008 0.118292 0.11845 0.118455 0.118143 0.117738 
0.117139 0.116517 0.115594 0.114835 0.113236 0.107173 0.103455 0.10936 0.110706 
0.111363 0.112665 0.113704 0.115194 0.116849 0.11836 0.119088 0.119107 0.119119 
0.119183 0.118924 0.118385 0.117792 0.117535 0.117664 0.117956 0.118252 0.118425 
0.118446 0.118149 0.117763 0.117181 0.11658 0.115671 0.114937 0.113389 0.107534 
0.10368 0.109385 0.110689 0.111327 0.112622 0.113647 0.115126 0.116777 0.118284 
0.119007 0.119017 0.119029 0.119099 0.118845 0.11831 0.11772 0.11747 0.117609 
0.117913 0.118223 0.11841 0.118448 0.118166 0.117795 0.11723 0.116646 0.11575 
0.115036 0.113535 0.107891 0.10388 0.109384 0.110649 0.111272 0.112565 0.113579 
0.115052 0.1167 0.118208 0.118929 0.118933 0.118945 0.119022 0.118775 0.118245 
0.117657 0.117413 0.117563 0.11788 0.118203 0.118405 0.118459 0.118191 0.117836 
0.117285 0.116717 0.115832 0.115136 0.113678 0.108248 0.10406 0.109358 0.110589 
0.1112 0.112494 0.113499 0.114968 0.116618 0.11813 0.118853 0.118853 0.118866 
0.118952 0.118711 0.118186 0.117602 0.117364 0.117524 0.117854 0.11819 0.118408 
0.118478 0.118224 0.117884 0.117348 0.116795 0.115919 0.115239 0.113821 0.108609 
0.10422 0.109311 0.11051 0.111112 0.112407 0.113408 0.114875 0.116529 0.118048 
0.118776 0.118773 0.11879 0.118886 0.118652 0.118134 0.117552 0.11732 0.117491 
0.117834 0.118185 0.118418 0.118506 0.118266 0.117941 0.117418 0.11688 0.116013 
0.115349 0.11397 0.10898 0.104362 0.109242 0.110413 0.111007 0.112306 0.113303 
0.114771 0.116432 0.117962 0.118698 0.118694 0.118716 0.118823 0.118598 0.118087 
0.117508 0.117283 0.117464 0.117821 0.118187 0.118436 0.118541 0.118316 0.118006 
0.117498 0.116975 0.116116 0.115468 0.114127 0.109362 0.104487 0.109153 0.110298 
0.110886 0.11219 0.113185 0.114655 0.116325 0.11787 0.118617 0.118614 0.118641 
0.118762 0.118547 0.118044 0.117468 0.117249 0.117442 0.117814 0.118194 0.11846 
0.118583 0.118374 0.11808 0.117587 0.11708 0.116231 0.115598 0.114295 0.10976 
0.104596 0.109044 0.110164 0.110747 0.112058 0.113052 0.114527 0.116209 0.11777 
0.118532 0.118531 0.118566 0.118702 0.118499 0.118005 0.117432 0.117219 0.117423 
0.11781 0.118206 0.11849 0.118633 0.11844 0.118164 0.117688 0.117198 0.11636 
0.115743 0.114478 0.110177 0.104687 0.108915 0.110012 0.11059 0.111909 0.112904 
0.114384 0.11608 0.117662 0.118442 0.118446 0.118491 0.118644 0.118454 0.117969 
0.117399 0.117192 0.117408 0.11781 0.118222 0.118525 0.118688 0.118514 0.118257 
0.1178 0.117331 0.116506 0.115907 0.114681 0.110618 0.104762 0.108766 0.109841 
0.110414 0.111742 0.112738 0.114225 0.115939 0.117545 0.118348 0.118358 0.118414 
0.118587 0.11841 0.117935 0.117369 0.117167 0.117394 0.117811 0.11824 0.118563 
0.118749 0.118596 0.118361 0.117926 0.11748 0.116671 0.116093 0.114906 0.111087 
0.104819 0.108595 0.109649 0.110218 0.111554 0.112552 0.114048 0.115782 0.117418 
0.118248 0.118268 0.118336 0.118531 0.118369 0.117905 0.11734 0.117143 0.11738 
0.117814 0.11826 0.118604 0.118815 0.118684 0.118474 0.118065 0.117647 0.116858 
0.116305 0.11516 0.11159 0.10486 0.108404 0.109436 0.109999 0.111343 0.112343 
0.11385 0.115608 0.11728 0.118143 0.118175 0.118259 0.118479 0.118332 0.117877 
0.117314 0.117119 0.117365 0.117816 0.118279 0.118645 0.118882 0.118777 0.118595 
0.118218 0.117836 0.117073 0.11655 0.11545 0.112134 0.104885 0.108192 0.1092 
0.109753 0.111104 0.112105 0.113626 0.115415 0.117131 0.118035 0.118083 0.118186 
0.118434 0.1183 0.117852 0.117288 0.117094 0.117347 0.117813 0.118294 0.118683 
0.118948 0.118872 0.118724 0.118385 0.118049 0.117322 0.116838 0.115789 0.112734 
0.104897 0.107962 0.108941 0.109477 0.110829 0.111829 0.113369 0.115199 0.11697 
0.117926 0.117997 0.118123 0.118401 0.118277 0.117832 0.117263 0.117065 0.117323 
0.117804 0.118301 0.118713 0.119008 0.118963 0.118853 0.118563 0.118288 0.117613 
0.117182 0.116191 0.113406 0.104903 0.107718 0.108661 0.10917 0.110514 0.111507 
0.11307 0.114951 0.116794 0.117816 0.117916 0.11807 0.118382 0.118265 0.117816 
0.11724 0.117033 0.117292 0.117787 0.118299 0.118733 0.119055 0.119042 0.118971 
0.118739 0.118539 0.11793 0.117565 0.11664 0.114132 0.104896 0.107461 0.108361 
0.108835 0.110163 0.111144 0.112728 0.114668 0.116595 0.117694 0.117831 0.11802 
0.118371 0.11826 0.117809 0.117226 0.117008 0.117261 0.117767 0.11829 0.118741 
0.119089 0.119105 0.119072 0.118901 0.118784 0.118251 0.117963 0.117108 0.114884 
0.104892 0.107192 0.108025 0.108436 0.109728 0.11069 0.112317 0.114356 0.116401 
0.117597 0.117776 0.118019 0.118427 0.118288 0.117803 0.117205 0.116969 0.117207 
0.117724 0.118257 0.118721 0.119093 0.11914 0.119155 0.119082 0.119111 0.118716 
0.118555 0.117792 0.115867 0.105013 0.106981 0.107636 0.107851 0.108994 0.109915 
0.111691 0.114013 0.116334 0.11769 0.117921 0.118263 0.118752 0.118435 0.117762 
0.117091 0.116815 0.117033 0.11758 0.118143 0.118626 0.119014 0.119082 0.119172 
0.119339 0.119746 0.119738 0.119886 0.119289 0.117696 0.105394 0.106954 0.107335 
0.107175 0.107964 0.108716 0.110718 0.113506 0.116311 0.117966 0.118319 0.118772 
0.119216 0.118726 0.117702 0.116874 0.116561 0.116764 0.117355 0.117971 0.11847 
0.118831 0.118844 0.118944 0.119375 0.120309 0.120876 0.121461 0.121078 0.11986 
0.105474 0.106855 0.10746 0.107278 0.108011 0.108425 0.110131 0.112618 0.11539 
0.117276 0.117956 0.118458 0.118196 0.118699 0.117955 0.117128 0.116901 0.117105 
0.117603 0.118154 0.118577 0.11877 0.118573 0.11837 0.118259 0.118656 0.118768 
0.119013 0.118544 0.117691 0.104137 0.105668 0.107626 0.108563 0.110739 0.111296 
0.111553 0.111914 0.112849 0.113989 0.114885 0.115676 0.11447 0.117481 0.118799 
0.118646 0.118758 0.119004 0.119119 0.119265 0.119387 0.119195 0.118649 0.117865 
0.1158 0.113435 0.110881 0.109039 0.10771 0.106889 0.102645 0.103605 0.106379 
0.108717 0.112773 0.115124 0.113959 0.112749 0.111104 0.110188 0.110143 0.111001 
0.113128 0.114911 0.119622 0.120466 0.120912 0.121296 0.121201 0.120772 0.120454 
0.119888 0.118911 0.117659 0.11429 0.109154 0.103845 0.0996162 0.0968083 0.0953371 
0.104671 0.10451 0.105951 0.108049 0.111478 0.115191 0.114396 0.113015 0.111963 
0.110469 0.109136 0.108962 0.113259 0.115812 0.119963 0.12079 0.121363 0.122147 
0.122012 0.121441 0.12086 0.120185 0.119008 0.117557 0.11438 0.108548 0.102204 
0.0976365 0.0936967 0.092054 0.110324 0.112838 0.112374 0.113268 0.114529 0.116073 
0.116603 0.114267 0.115361 0.115082 0.113407 0.111872 0.11314 0.118312 0.119963 
0.120399 0.121119 0.122072 0.122154 0.121631 0.12103 0.120305 0.119164 0.117714 
0.114589 0.109275 0.102804 0.0987251 0.0950271 0.0944891 0.11887 0.122593 0.125739 
0.125947 0.126673 0.125741 0.126755 0.123991 0.123434 0.123974 0.121757 0.118651 
0.117947 0.118645 0.119696 0.120298 0.120987 0.122098 0.122508 0.121955 0.121255 
0.120665 0.119452 0.118109 0.115327 0.110302 0.104346 0.100531 0.0975773 0.0966353 
0.134062 0.134747 0.139787 0.140688 0.143423 0.142094 0.141742 0.139151 0.136362 
0.137419 0.13486 0.129874 0.125542 0.123141 0.120786 0.12039 0.120761 0.122214 
0.122733 0.12233 0.121447 0.120736 0.119641 0.118345 0.116052 0.112034 0.107093 
0.104204 0.101846 0.10191 0.157541 0.158762 0.158259 0.15965 0.162769 0.162595 
0.158142 0.155485 0.151533 0.152888 0.151079 0.145061 0.137081 0.130438 0.12355 
0.1208 0.120455 0.121885 0.122612 0.122645 0.121731 0.120337 0.119152 0.117765 
0.116566 0.114296 0.110721 0.10861 0.106976 0.108224 0.1864 0.187882 0.188828 
0.188409 0.190068 0.191333 0.184186 0.179273 0.172351 0.170582 0.168621 0.160144 
0.150591 0.13913 0.128822 0.122336 0.119813 0.121554 0.122143 0.12174 0.121052 
0.119743 0.11789 0.116565 0.116301 0.116115 0.114817 0.113873 0.112254 0.113629 
0.215967 0.218629 0.221286 0.221311 0.22308 0.222955 0.219353 0.209815 0.201636 
0.192064 0.185393 0.174297 0.159861 0.147722 0.137504 0.128259 0.123302 0.122045 
0.121488 0.120951 0.120051 0.118718 0.117219 0.116352 0.116434 0.117754 0.119038 
0.119532 0.117346 0.118952 0.237807 0.238965 0.243004 0.242761 0.242229 0.241359 
0.23676 0.228553 0.217432 0.20911 0.19864 0.186599 0.169869 0.155174 0.146707 
0.138438 0.132194 0.126586 0.122943 0.120886 0.12049 0.119035 0.118459 0.11822 
0.119258 0.121131 0.123087 0.125251 0.123712 0.12343 0.241863 0.242059 0.242151 
0.242241 0.238838 0.238266 0.233419 0.226048 0.216 0.210467 0.206385 0.195744 
0.181458 0.166852 0.156021 0.147961 0.139716 0.133914 0.128163 0.123014 0.123381 
0.123096 0.122422 0.122963 0.124367 0.126195 0.129154 0.132177 0.130361 0.131418 
0.237029 0.232104 0.231613 0.231805 0.228527 0.228063 0.224625 0.217909 0.209517 
0.20799 0.208404 0.19972 0.190907 0.181708 0.168777 0.156302 0.146327 0.139963 
0.13518 0.13166 0.131004 0.131856 0.131789 0.131411 0.131342 0.13367 0.136529 
0.140575 0.139841 0.139211 0.231051 0.221014 0.21874 0.220211 0.221071 0.21843 
0.218026 0.212611 0.206102 0.206068 0.208521 0.203408 0.196886 0.192925 0.182049 
0.165277 0.153221 0.147951 0.146555 0.145516 0.146523 0.148478 0.14923 0.146717 
0.143326 0.142537 0.146227 0.150834 0.151247 0.15467 0.221407 0.211898 0.2074 
0.20833 0.208532 0.209899 0.20823 0.206352 0.20753 0.205818 0.209925 0.208433 
0.203908 0.201803 0.193895 0.17635 0.163526 0.158506 0.158726 0.164286 0.167124 
0.170383 0.171951 0.168535 0.162634 0.156785 0.157518 0.162631 0.163973 0.168479 
0.2053 0.197959 0.196925 0.197064 0.197521 0.197964 0.198657 0.1999 0.202458 
0.20833 0.21134 0.210581 0.209586 0.209002 0.204886 0.191071 0.178751 0.174709 
0.176539 0.181296 0.18655 0.187685 0.190089 0.189914 0.182934 0.177751 0.172659 
0.177266 0.180084 0.185 0.190337 0.181553 0.183504 0.185394 0.187903 0.191099 
0.191016 0.194188 0.198601 0.204354 0.210267 0.21169 0.211256 0.212016 0.213144 
0.206837 0.197532 0.194971 0.196384 0.198181 0.198216 0.196784 0.19757 0.202446 
0.202778 0.19841 0.194297 0.195237 0.196594 0.202587 0.182659 0.169056 0.171397 
0.173512 0.177563 0.182895 0.185222 0.187196 0.19329 0.200585 0.207083 0.211411 
0.211892 0.213438 0.217618 0.219473 0.215677 0.212733 0.211673 0.20808 0.203335 
0.199357 0.199558 0.204051 0.214132 0.216758 0.215541 0.212654 0.209852 0.211568 
0.174858 0.161563 0.160984 0.163331 0.166929 0.173692 0.17792 0.179917 0.187477 
0.196607 0.203937 0.207326 0.210331 0.212809 0.218537 0.22617 0.226158 0.22236 
0.216746 0.210584 0.202971 0.198658 0.199293 0.20299 0.210727 0.218515 0.22622 
0.221682 0.215203 0.213216 0.165244 0.152037 0.151666 0.154078 0.156708 0.160961 
0.169176 0.174127 0.18147 0.193473 0.199965 0.201426 0.20417 0.208507 0.215297 
0.224252 0.227159 0.223188 0.215122 0.207162 0.20031 0.196119 0.196036 0.198948 
0.204773 0.210223 0.21861 0.221761 0.211953 0.212032 0.155701 0.143581 0.142282 
0.145402 0.14824 0.150088 0.156936 0.16607 0.176066 0.187601 0.193233 0.193857 
0.195135 0.200187 0.207948 0.215566 0.220041 0.216021 0.212133 0.202768 0.195444 
0.191383 0.189961 0.192589 0.196499 0.201616 0.209413 0.213189 0.205853 0.206325 
0.14693 0.13435 0.133455 0.137293 0.140632 0.145222 0.147806 0.158217 0.167665 
0.177982 0.183464 0.182622 0.18404 0.189452 0.195309 0.202949 0.205629 0.207609 
0.204725 0.198339 0.189226 0.184289 0.182727 0.182953 0.186565 0.189472 0.197736 
0.201552 0.195648 0.19767 0.138445 0.125236 0.1253 0.12814 0.132765 0.138448 
0.143113 0.150351 0.158516 0.164584 0.167724 0.168642 0.170561 0.175377 0.179211 
0.184647 0.187276 0.189076 0.192437 0.190119 0.181654 0.175333 0.172664 0.172047 
0.174027 0.17637 0.182514 0.185132 0.181479 0.188172 0.131806 0.117146 0.118148 
0.120353 0.125037 0.131334 0.136062 0.140802 0.147515 0.150355 0.149405 0.151113 
0.154582 0.158427 0.161239 0.162407 0.165424 0.168187 0.171107 0.173147 0.168996 
0.163683 0.160766 0.159516 0.160638 0.163548 0.166931 0.167694 0.164644 0.173823 
0.125555 0.111334 0.111257 0.113536 0.117449 0.123194 0.127187 0.131339 0.135215 
0.136245 0.133493 0.133711 0.137172 0.139908 0.142922 0.142231 0.144874 0.146996 
0.150966 0.153438 0.153012 0.149379 0.146579 0.146231 0.146981 0.149678 0.152232 
0.149761 0.146887 0.155485 0.120969 0.105825 0.105061 0.106548 0.11063 0.114502 
0.117451 0.121492 0.124086 0.123148 0.120385 0.11786 0.121711 0.124046 0.124858 
0.126639 0.126711 0.130615 0.133737 0.135555 0.135353 0.133903 0.132193 0.132153 
0.133286 0.133752 0.137269 0.133562 0.129604 0.13901 0.117299 0.10046 0.100355 
0.101194 0.103238 0.106822 0.10962 0.111756 0.113214 0.112495 0.109762 0.10683 
0.108201 0.11083 0.111833 0.113478 0.113429 0.115982 0.119236 0.120086 0.119032 
0.117551 0.117009 0.118693 0.119911 0.119869 0.123651 0.119606 0.115341 0.125332 
0.112975 0.0966917 0.0951995 0.0965615 0.0979877 0.0999564 0.0998095 0.1037 0.104897 
0.10211 0.0998744 0.0998249 0.0987382 0.100138 0.100997 0.101886 0.104158 0.104299 
0.106993 0.106791 0.105619 0.104607 0.1036 0.104894 0.107936 0.107131 0.110248 
0.109051 0.104887 0.116139 0.107612 0.0932336 0.0906825 0.0919918 0.0917387 0.0928381 
0.0920779 0.0931862 0.0952365 0.0938882 0.0919698 0.0920899 0.092057 0.0917697 0.0917452 
0.0922802 0.0935965 0.0954026 0.0967731 0.0958189 0.0948723 0.0943909 0.0944007 0.0940226 
0.0962312 0.0965695 0.0968445 0.0972685 0.0947848 0.108758 0.0992121 0.086002 0.0851002 
0.0846474 0.0847076 0.0852666 0.083497 0.0847858 0.0850996 0.0851225 0.0830139 0.083432 
0.0841659 0.0833667 0.0830301 0.0841249 0.0842218 0.085202 0.0866817 0.0868312 0.084115 
0.0849357 0.0845234 0.0847169 0.0859294 0.0861313 0.0874263 0.0848761 0.084697 0.0977161 
0.0910527 0.0770875 0.0773613 0.0775588 0.0761659 0.0779855 0.0771723 0.0779201 0.0790368 
0.0765535 0.0758719 0.0758124 0.0764083 0.0760093 0.0755546 0.0764344 0.0771534 0.0772093 
0.0779032 0.0785028 0.076931 0.0763302 0.0768708 0.0769087 0.0777076 0.0773376 0.0788458 
0.076192 0.0752675 0.0894963 0.0921863 0.0810402 0.0806695 0.0822463 0.079991 0.0821906 
0.0814292 0.0812904 0.082497 0.0831714 0.0808323 0.0807023 0.0818531 0.0817723 0.0811491 
0.0811339 0.0811511 0.0814711 0.0814131 0.0822438 0.0811633 0.0806405 0.0808912 0.0809255 
0.0813138 0.0815603 0.0816121 0.0793857 0.0796108 0.0902443 0.102264 0.101914 0.0992055 
0.100326 0.0993774 0.0990788 0.099786 0.0990901 0.0987563 0.0995486 0.100574 0.101047 
0.10142 0.101844 0.101692 0.100777 0.100038 0.0996302 0.0996423 0.099871 0.0996852 
0.0990534 0.0989164 0.098773 0.0986494 0.0985552 0.0993764 0.0983357 0.101341 0.102399 

Vel_Mag_m_p_s 1 9270 float
0.209446 0.205103 0.206071 0.207147 0.207996 0.208791 0.207919 0.206701 0.205935 
0.202962 0.200601 0.199996 0.198409 0.197049 0.198115 0.201607 0.204593 0.204342 
0.204699 0.205646 0.207707 0.208417 0.207417 0.206508 0.207515 0.208413 0.207537 
0.204618 0.202131 0.206777 0.15766 0.153457 0.167789 0.167171 0.16625 0.165744 
0.165105 0.164229 0.163798 0.163512 0.161646 0.161748 0.161717 0.161195 0.160377 
0.1604 0.161306 0.161512 0.161329 0.161923 0.162272 0.163596 0.164147 0.163515 
0.163144 0.16388 0.16468 0.165071 0.151229 0.15577 0.154069 0.176691 0.182464 
0.182998 0.181955 0.180733 0.179543 0.179187 0.179371 0.177417 0.176291 0.175501 
0.175179 0.174599 0.175043 0.175673 0.1773 0.177922 0.177884 0.178227 0.178197 
0.178592 0.178858 0.17883 0.178628 0.179137 0.178641 0.179892 0.173689 0.151865 
0.157853 0.185442 0.192286 0.19247 0.191997 0.190459 0.188934 0.188249 0.188126 
0.18785 0.185406 0.185048 0.185064 0.183714 0.183604 0.184709 0.186468 0.188045 
0.188904 0.189791 0.189172 0.188941 0.188311 0.188481 0.188372 0.18897 0.18883 
0.187102 0.181307 0.155077 0.166684 0.195227 0.203794 0.204158 0.203635 0.202575 
0.201354 0.200114 0.198354 0.1994 0.198068 0.19698 0.197285 0.196759 0.195831 
0.196155 0.196928 0.198675 0.199652 0.20088 0.201602 0.201041 0.200909 0.20077 
0.200739 0.200852 0.202402 0.199757 0.192649 0.163806 0.176677 0.204611 0.212532 
0.214227 0.213464 0.212411 0.211555 0.210415 0.209231 0.207837 0.208923 0.207745 
0.207004 0.207491 0.206905 0.206129 0.20575 0.205902 0.20639 0.206609 0.207846 
0.208824 0.210098 0.210941 0.211696 0.211966 0.212406 0.21207 0.202913 0.174008 
0.182181 0.209697 0.217124 0.218553 0.217375 0.216072 0.215045 0.214177 0.213431 
0.212099 0.212034 0.211532 0.210415 0.210537 0.210414 0.209678 0.208602 0.207567 
0.207444 0.207156 0.207697 0.209467 0.211473 0.213556 0.215185 0.216481 0.216941 
0.215906 0.207283 0.179086 0.182691 0.209561 0.216507 0.217287 0.216123 0.214783 
0.213666 0.21266 0.211803 0.211064 0.21002 0.209602 0.208933 0.208308 0.208155 
0.207573 0.206754 0.206022 0.205683 0.205452 0.205799 0.207015 0.208687 0.210664 
0.212489 0.214067 0.215089 0.214211 0.206891 0.179157 0.182267 0.20866 0.215392 
0.216168 0.215372 0.21437 0.213462 0.212573 0.211738 0.211122 0.210204 0.209704 
0.209124 0.208431 0.208111 0.207632 0.20728 0.207095 0.207039 0.206921 0.207074 
0.20764 0.208476 0.209752 0.211102 0.212392 0.213248 0.212519 0.205902 0.178903 
0.184104 0.210126 0.217577 0.218909 0.218818 0.218428 0.218039 0.217663 0.217306 
0.216895 0.21642 0.216101 0.215635 0.215024 0.21466 0.214333 0.214026 0.214035 
0.21414 0.214209 0.214183 0.214302 0.214541 0.214904 0.215553 0.216182 0.216439 
0.215026 0.207831 0.181125 0.18571 0.212447 0.220678 0.222634 0.223046 0.223121 
0.223157 0.223205 0.223316 0.223289 0.223139 0.22302 0.222788 0.222369 0.221995 
0.221744 0.221449 0.221306 0.221262 0.22134 0.221357 0.221343 0.221363 0.221293 
0.221355 0.221434 0.221233 0.219265 0.211242 0.184298 0.186186 0.213467 0.221539 
0.223632 0.224109 0.224279 0.224403 0.224523 0.224653 0.224782 0.22473 0.224637 
0.224499 0.22427 0.223972 0.22371 0.223556 0.223348 0.223223 0.223171 0.223226 
0.223217 0.223174 0.223159 0.223051 0.222979 0.222615 0.220735 0.212737 0.185776 
0.187004 0.213726 0.221466 0.223369 0.223801 0.223936 0.224022 0.224097 0.224163 
0.2242 0.22416 0.22408 0.223954 0.223776 0.223572 0.223383 0.22323 0.223087 
0.222992 0.222938 0.222923 0.222898 0.222869 0.222844 0.222802 0.222744 0.222396 
0.220581 0.212897 0.186251 0.187527 0.214048 0.221563 0.223353 0.223737 0.223845 
0.223908 0.22396 0.223998 0.224013 0.22398 0.223913 0.223812 0.223679 0.223527 
0.22338 0.223253 0.223137 0.223051 0.222992 0.222958 0.222927 0.222898 0.222875 
0.222844 0.22279 0.222461 0.220718 0.213224 0.186754 0.187959 0.2143 0.221633 
0.223325 0.223661 0.223739 0.223779 0.223808 0.223826 0.223824 0.223792 0.223735 
0.223653 0.223549 0.223433 0.223318 0.223212 0.223118 0.223042 0.222985 0.222945 
0.222912 0.222885 0.222865 0.222846 0.222802 0.222499 0.220823 0.213483 0.187174 
0.188329 0.214509 0.221693 0.223306 0.223601 0.223653 0.223671 0.223683 0.223686 
0.223674 0.223643 0.223593 0.223525 0.223442 0.223351 0.223258 0.223172 0.223093 
0.223027 0.222975 0.222935 0.222903 0.22288 0.222865 0.222855 0.222821 0.222543 
0.220927 0.21372 0.187563 0.188661 0.214686 0.221738 0.223286 0.223546 0.223576 
0.223577 0.223574 0.223566 0.223548 0.223516 0.223472 0.223414 0.223347 0.223273 
0.223198 0.223126 0.223061 0.223004 0.222957 0.222921 0.222893 0.222874 0.222864 
0.222862 0.222839 0.222582 0.221021 0.213934 0.187928 0.18897 0.21484 0.221773 
0.223263 0.223495 0.223507 0.223494 0.22348 0.223463 0.22344 0.223408 0.223368 
0.223318 0.223261 0.223201 0.223139 0.223079 0.223024 0.222976 0.222936 0.222904 
0.222881 0.222866 0.222862 0.222867 0.222853 0.222616 0.221105 0.214131 0.188278 
0.189263 0.214977 0.221798 0.223237 0.223445 0.223443 0.223419 0.223396 0.223373 
0.223346 0.223314 0.223277 0.223233 0.223185 0.223133 0.223082 0.223032 0.222986 
0.222945 0.222912 0.222885 0.222866 0.222857 0.222858 0.222869 0.222863 0.222644 
0.221179 0.214316 0.188615 0.189546 0.215103 0.221815 0.223208 0.223397 0.223384 
0.223351 0.223321 0.223293 0.223264 0.223232 0.223196 0.223157 0.223115 0.223071 
0.223027 0.222986 0.222947 0.222913 0.222885 0.222864 0.22285 0.222846 0.222852 
0.222868 0.22287 0.222667 0.221246 0.21449 0.188945 0.189822 0.21522 0.221828 
0.223177 0.223349 0.223327 0.223288 0.223253 0.223221 0.22319 0.223157 0.223123 
0.223088 0.22305 0.223013 0.222975 0.22294 0.222908 0.22288 0.222857 0.222841 
0.222832 0.222832 0.222843 0.222864 0.222872 0.222683 0.221305 0.214655 0.189267 
0.190095 0.215332 0.221836 0.223145 0.223302 0.223273 0.223229 0.22319 0.223155 
0.223122 0.22309 0.223057 0.223024 0.222991 0.222958 0.222926 0.222896 0.222869 
0.222846 0.222828 0.222816 0.222812 0.222816 0.222831 0.222856 0.22287 0.222695 
0.221358 0.214813 0.189585 0.190365 0.21544 0.221841 0.223111 0.223256 0.223221 
0.223173 0.223131 0.223094 0.22306 0.223028 0.222996 0.222966 0.222935 0.222906 
0.222878 0.222853 0.22283 0.222812 0.222798 0.222791 0.22279 0.222798 0.222817 
0.222846 0.222865 0.222702 0.221406 0.214965 0.189898 0.190635 0.215544 0.221844 
0.223076 0.22321 0.223171 0.22312 0.223075 0.223037 0.223002 0.22297 0.22294 
0.222911 0.222883 0.222857 0.222833 0.222811 0.222792 0.222778 0.222768 0.222764 
0.222767 0.222779 0.222801 0.222833 0.222856 0.222705 0.221448 0.215111 0.190209 
0.190905 0.215647 0.221846 0.223041 0.223164 0.223122 0.223068 0.223023 0.222983 
0.222948 0.222916 0.222886 0.222859 0.222833 0.22281 0.222788 0.22277 0.222755 
0.222744 0.222737 0.222737 0.222743 0.222757 0.222782 0.222817 0.222845 0.222705 
0.221486 0.215253 0.190517 0.191177 0.215748 0.221846 0.223006 0.223119 0.223074 
0.223019 0.222972 0.222931 0.222896 0.222864 0.222836 0.22281 0.222786 0.222764 
0.222746 0.22273 0.222718 0.222709 0.222706 0.222708 0.222717 0.222734 0.222762 
0.222799 0.22283 0.222701 0.22152 0.21539 0.190824 0.19145 0.215849 0.221846 
0.22297 0.223075 0.223027 0.222971 0.222923 0.222882 0.222847 0.222815 0.222787 
0.222762 0.22274 0.222721 0.222704 0.222691 0.222681 0.222675 0.222674 0.222679 
0.22269 0.22271 0.222739 0.22278 0.222814 0.222695 0.22155 0.215524 0.191129 
0.191725 0.215949 0.221845 0.222935 0.223031 0.222981 0.222924 0.222875 0.222834 
0.222799 0.222768 0.222741 0.222717 0.222696 0.222678 0.222663 0.222652 0.222644 
0.222641 0.222642 0.222649 0.222663 0.222684 0.222716 0.222758 0.222795 0.222685 
0.221577 0.215655 0.191435 0.192002 0.216049 0.221844 0.2229 0.222987 0.222936 
0.222878 0.222829 0.222788 0.222753 0.222722 0.222696 0.222673 0.222653 0.222636 
0.222623 0.222614 0.222608 0.222606 0.22261 0.222618 0.222634 0.222657 0.222691 
0.222734 0.222774 0.222674 0.221601 0.215782 0.191739 0.192282 0.216149 0.221842 
0.222865 0.222944 0.222891 0.222833 0.222784 0.222743 0.222708 0.222678 0.222652 
0.22263 0.222611 0.222596 0.222584 0.222576 0.222572 0.222572 0.222577 0.222587 
0.222605 0.22263 0.222664 0.22271 0.222752 0.222661 0.221623 0.215907 0.192044 
0.192565 0.216248 0.221841 0.22283 0.222902 0.222847 0.222789 0.22274 0.222699 
0.222664 0.222634 0.222609 0.222587 0.22257 0.222556 0.222545 0.222538 0.222536 
0.222537 0.222544 0.222556 0.222574 0.222601 0.222637 0.222683 0.222728 0.222645 
0.221642 0.21603 0.19235 0.19285 0.216348 0.221838 0.222795 0.22286 0.222804 
0.222745 0.222696 0.222655 0.222621 0.222591 0.222567 0.222546 0.222529 0.222516 
0.222507 0.222501 0.2225 0.222502 0.22251 0.222524 0.222543 0.222571 0.222608 
0.222656 0.222703 0.222628 0.221659 0.216151 0.192656 0.193139 0.216448 0.221836 
0.22276 0.222818 0.222761 0.222702 0.222653 0.222613 0.222578 0.222549 0.222525 
0.222505 0.222489 0.222477 0.222468 0.222464 0.222463 0.222467 0.222476 0.222491 
0.222512 0.222541 0.222579 0.222628 0.222676 0.22261 0.221674 0.21627 0.192963 
0.19343 0.216548 0.221834 0.222725 0.222777 0.222719 0.22266 0.222611 0.222571 
0.222536 0.222508 0.222484 0.222465 0.22245 0.222438 0.22243 0.222427 0.222427 
0.222432 0.222442 0.222458 0.22248 0.22251 0.222548 0.222598 0.222649 0.22259 
0.221688 0.216387 0.193272 0.193724 0.216648 0.221831 0.222691 0.222736 0.222677 
0.222618 0.222569 0.222529 0.222495 0.222467 0.222444 0.222425 0.22241 0.2224 
0.222393 0.22239 0.222391 0.222397 0.222408 0.222424 0.222447 0.222478 0.222518 
0.222568 0.22262 0.222568 0.221699 0.216503 0.193581 0.194021 0.216748 0.221828 
0.222657 0.222695 0.222635 0.222577 0.222528 0.222488 0.222454 0.222427 0.222404 
0.222385 0.222371 0.222361 0.222355 0.222353 0.222355 0.222362 0.222374 0.222391 
0.222414 0.222445 0.222486 0.222537 0.222591 0.222546 0.221709 0.216617 0.193893 
0.194322 0.216848 0.221825 0.222623 0.222655 0.222594 0.222535 0.222487 0.222447 
0.222414 0.222387 0.222364 0.222346 0.222333 0.222323 0.222317 0.222316 0.222319 
0.222326 0.222339 0.222356 0.222381 0.222413 0.222454 0.222506 0.222561 0.222523 
0.221718 0.21673 0.194206 0.194625 0.216948 0.221821 0.222589 0.222615 0.222553 
0.222495 0.222446 0.222407 0.222374 0.222347 0.222325 0.222307 0.222294 0.222285 
0.22228 0.222279 0.222283 0.222291 0.222304 0.222322 0.222347 0.222379 0.222421 
0.222473 0.22253 0.222498 0.221725 0.216842 0.19452 0.194931 0.217048 0.221817 
0.222554 0.222575 0.222512 0.222454 0.222406 0.222366 0.222334 0.222307 0.222285 
0.222268 0.222255 0.222247 0.222242 0.222242 0.222246 0.222255 0.222268 0.222287 
0.222313 0.222345 0.222387 0.22244 0.222498 0.222473 0.22173 0.216952 0.194837 
0.195241 0.217147 0.221813 0.22252 0.222535 0.222472 0.222414 0.222366 0.222326 
0.222294 0.222268 0.222246 0.222229 0.222217 0.222209 0.222205 0.222205 0.222209 
0.222218 0.222233 0.222252 0.222278 0.222311 0.222354 0.222407 0.222466 0.222447 
0.221735 0.217061 0.195156 0.195553 0.217247 0.221809 0.222486 0.222495 0.222432 
0.222373 0.222326 0.222287 0.222254 0.222228 0.222207 0.222191 0.222179 0.222171 
0.222167 0.222168 0.222173 0.222182 0.222197 0.222217 0.222243 0.222276 0.222319 
0.222373 0.222433 0.22242 0.221738 0.217169 0.195477 0.195869 0.217346 0.221804 
0.222452 0.222456 0.222392 0.222334 0.222286 0.222247 0.222215 0.222189 0.222168 
0.222152 0.22214 0.222133 0.22213 0.222131 0.222136 0.222146 0.222161 0.222181 
0.222208 0.222241 0.222285 0.222339 0.2224 0.222393 0.22174 0.217276 0.1958 
0.196188 0.217445 0.221798 0.222418 0.222417 0.222352 0.222294 0.222246 0.222208 
0.222176 0.22215 0.222129 0.222114 0.222102 0.222095 0.222092 0.222093 0.222099 
0.222109 0.222124 0.222145 0.222172 0.222206 0.22225 0.222304 0.222366 0.222365 
0.221741 0.217382 0.196125 0.196509 0.217543 0.221792 0.222384 0.222378 0.222312 
0.222254 0.222207 0.222168 0.222136 0.222111 0.222091 0.222075 0.222064 0.222057 
0.222054 0.222056 0.222062 0.222072 0.222088 0.222109 0.222136 0.222171 0.222214 
0.222269 0.222332 0.222336 0.22174 0.217487 0.196453 0.196834 0.217642 0.221786 
0.22235 0.222339 0.222272 0.222214 0.222167 0.222129 0.222097 0.222072 0.222052 
0.222036 0.222025 0.222019 0.222016 0.222018 0.222025 0.222035 0.222051 0.222072 
0.2221 0.222135 0.222179 0.222234 0.222297 0.222306 0.221739 0.21759 0.196784 
0.197162 0.217739 0.221779 0.222316 0.2223 0.222233 0.222175 0.222128 0.22209 
0.222058 0.222033 0.222013 0.221998 0.221987 0.221981 0.221979 0.221981 0.221987 
0.221998 0.222014 0.222036 0.222063 0.222098 0.222143 0.222198 0.222262 0.222276 
0.221737 0.217693 0.197117 0.197493 0.217836 0.221771 0.222281 0.222261 0.222193 
0.222136 0.222089 0.22205 0.222019 0.221994 0.221974 0.221959 0.221949 0.221943 
0.221941 0.221943 0.22195 0.221961 0.221977 0.221999 0.222027 0.222062 0.222106 
0.222162 0.222227 0.222246 0.221734 0.217795 0.197452 0.197827 0.217933 0.221763 
0.222247 0.222222 0.222154 0.222096 0.222049 0.222011 0.22198 0.221955 0.221936 
0.221921 0.22191 0.221904 0.221903 0.221905 0.221912 0.221923 0.22194 0.221962 
0.22199 0.222025 0.22207 0.222126 0.222191 0.222215 0.221729 0.217896 0.197791 
0.198165 0.218029 0.221755 0.222212 0.222183 0.222115 0.222057 0.22201 0.221972 
0.221941 0.221916 0.221897 0.221882 0.221872 0.221866 0.221865 0.221867 0.221874 
0.221886 0.221903 0.221925 0.221953 0.221988 0.222033 0.222089 0.222155 0.222183 
0.221724 0.217995 0.198132 0.198505 0.218124 0.221745 0.222177 0.222144 0.222075 
0.222018 0.221971 0.221933 0.221902 0.221877 0.221858 0.221844 0.221833 0.221828 
0.221826 0.221829 0.221836 0.221848 0.221865 0.221887 0.221916 0.221951 0.221996 
0.222052 0.222119 0.222151 0.221718 0.218094 0.198476 0.198849 0.218218 0.221735 
0.222142 0.222105 0.222036 0.221978 0.221932 0.221894 0.221863 0.221839 0.221819 
0.221805 0.221795 0.221789 0.221788 0.221791 0.221798 0.22181 0.221827 0.22185 
0.221878 0.221914 0.221959 0.222015 0.222083 0.222119 0.22171 0.218191 0.198822 
0.199196 0.218312 0.221725 0.222107 0.222066 0.221997 0.221939 0.221892 0.221855 
0.221824 0.2218 0.22178 0.221766 0.221756 0.221751 0.22175 0.221753 0.22176 
0.221772 0.221789 0.221812 0.221841 0.221877 0.221922 0.221978 0.222046 0.222086 
0.221702 0.218288 0.199172 0.199547 0.218405 0.221713 0.222072 0.222027 0.221957 
0.2219 0.221853 0.221816 0.221785 0.221761 0.221741 0.221727 0.221718 0.221712 
0.221711 0.221714 0.221722 0.221734 0.221751 0.221774 0.221803 0.221839 0.221884 
0.22194 0.222009 0.222053 0.221693 0.218383 0.199525 0.1999 0.218497 0.221701 
0.222036 0.221988 0.221918 0.22186 0.221814 0.221776 0.221746 0.221722 0.221702 
0.221688 0.221679 0.221674 0.221673 0.221676 0.221684 0.221696 0.221713 0.221736 
0.221765 0.221801 0.221846 0.221903 0.221972 0.222019 0.221683 0.218477 0.199881 
0.200257 0.218588 0.221689 0.222 0.221949 0.221879 0.221821 0.221775 0.221737 
0.221707 0.221682 0.221663 0.221649 0.22164 0.221635 0.221634 0.221637 0.221645 
0.221658 0.221675 0.221698 0.221727 0.221763 0.221808 0.221865 0.221934 0.221985 
0.221672 0.21857 0.20024 0.200617 0.218677 0.221675 0.221964 0.22191 0.221839 
0.221782 0.221735 0.221698 0.221667 0.221643 0.221624 0.22161 0.221601 0.221596 
0.221595 0.221599 0.221607 0.221619 0.221637 0.221659 0.221689 0.221725 0.22177 
0.221827 0.221897 0.22195 0.221661 0.218662 0.200602 0.200981 0.218766 0.221661 
0.221928 0.221871 0.2218 0.221742 0.221696 0.221659 0.221628 0.221604 0.221585 
0.221571 0.221562 0.221557 0.221556 0.22156 0.221568 0.22158 0.221598 0.221621 
0.22165 0.221686 0.221732 0.221789 0.221859 0.221916 0.221648 0.218752 0.200967 
0.201348 0.218854 0.221646 0.221892 0.221831 0.22176 0.221703 0.221656 0.221619 
0.221589 0.221565 0.221546 0.221532 0.221523 0.221518 0.221517 0.221521 0.221529 
0.221542 0.221559 0.221582 0.221612 0.221648 0.221694 0.22175 0.221821 0.221881 
0.221634 0.218841 0.201336 0.201719 0.218941 0.22163 0.221855 0.221792 0.221721 
0.221664 0.221617 0.22158 0.221549 0.221526 0.221507 0.221493 0.221484 0.221479 
0.221478 0.221482 0.22149 0.221503 0.221521 0.221544 0.221573 0.221609 0.221655 
0.221712 0.221783 0.221845 0.22162 0.218929 0.201707 0.202093 0.219026 0.221614 
0.221819 0.221753 0.221681 0.221624 0.221577 0.22154 0.22151 0.221486 0.221467 
0.221454 0.221444 0.22144 0.221439 0.221443 0.221451 0.221464 0.221482 0.221505 
0.221534 0.221571 0.221616 0.221673 0.221744 0.221809 0.221604 0.219015 0.202083 
0.20247 0.21911 0.221597 0.221782 0.221713 0.221641 0.221584 0.221538 0.221501 
0.221471 0.221447 0.221428 0.221414 0.221405 0.2214 0.2214 0.221404 0.221412 
0.221425 0.221443 0.221466 0.221495 0.221532 0.221578 0.221634 0.221706 0.221773 
0.221588 0.219101 0.202461 0.202852 0.219193 0.221579 0.221744 0.221674 0.221602 
0.221545 0.221498 0.221461 0.221431 0.221407 0.221388 0.221375 0.221366 0.221361 
0.221361 0.221365 0.221373 0.221386 0.221404 0.221427 0.221456 0.221493 0.221539 
0.221595 0.221667 0.221737 0.221571 0.219184 0.202843 0.203236 0.219274 0.22156 
0.221707 0.221634 0.221562 0.221505 0.221459 0.221422 0.221391 0.221368 0.221349 
0.221335 0.221326 0.221322 0.221321 0.221325 0.221334 0.221346 0.221364 0.221388 
0.221417 0.221454 0.2215 0.221556 0.221628 0.2217 0.221553 0.219266 0.203229 
0.203625 0.219353 0.22154 0.221669 0.221595 0.221522 0.221465 0.221419 0.221382 
0.221352 0.221328 0.221309 0.221296 0.221287 0.221282 0.221282 0.221286 0.221294 
0.221307 0.221325 0.221348 0.221378 0.221414 0.22146 0.221517 0.221589 0.221663 
0.221534 0.219347 0.203618 0.204017 0.219432 0.22152 0.221632 0.221555 0.221482 
0.221426 0.221379 0.221342 0.221312 0.221288 0.22127 0.221256 0.221247 0.221243 
0.221242 0.221246 0.221255 0.221268 0.221286 0.221309 0.221339 0.221375 0.221421 
0.221478 0.22155 0.221626 0.221514 0.219426 0.204011 0.204413 0.219508 0.221499 
0.221594 0.221515 0.221442 0.221386 0.221339 0.221302 0.221272 0.221248 0.22123 
0.221216 0.221207 0.221203 0.221203 0.221207 0.221215 0.221228 0.221246 0.221269 
0.221299 0.221336 0.221382 0.221438 0.221511 0.221589 0.221494 0.219503 0.204407 
0.204812 0.219583 0.221477 0.221555 0.221475 0.221402 0.221346 0.221299 0.221262 
0.221232 0.221209 0.22119 0.221177 0.221168 0.221163 0.221163 0.221167 0.221175 
0.221188 0.221207 0.22123 0.22126 0.221296 0.221342 0.221399 0.221471 0.221551 
0.221472 0.219578 0.204807 0.205216 0.219656 0.221454 0.221517 0.221435 0.221362 
0.221306 0.221259 0.221222 0.221192 0.221169 0.22115 0.221137 0.221128 0.221123 
0.221123 0.221127 0.221136 0.221149 0.221167 0.22119 0.22122 0.221256 0.221302 
0.221359 0.221432 0.221513 0.22145 0.219652 0.205211 0.205623 0.219728 0.22143 
0.221478 0.221395 0.221322 0.221266 0.221219 0.221182 0.221152 0.221129 0.22111 
0.221097 0.221088 0.221083 0.221083 0.221087 0.221096 0.221109 0.221127 0.22115 
0.22118 0.221217 0.221263 0.221319 0.221392 0.221475 0.221426 0.219724 0.205619 
0.206034 0.219797 0.221405 0.221439 0.221355 0.221282 0.221225 0.221179 0.221142 
0.221112 0.221089 0.22107 0.221057 0.221048 0.221043 0.221043 0.221047 0.221056 
0.221069 0.221087 0.22111 0.22114 0.221177 0.221223 0.221279 0.221352 0.221436 
0.221402 0.219794 0.206031 0.206449 0.219865 0.22138 0.2214 0.221315 0.221242 
0.221185 0.221139 0.221102 0.221072 0.221048 0.22103 0.221017 0.221008 0.221003 
0.221003 0.221007 0.221016 0.221029 0.221047 0.22107 0.2211 0.221137 0.221183 
0.221239 0.221312 0.221397 0.221377 0.219862 0.206446 0.206868 0.21993 0.221354 
0.221361 0.221274 0.221201 0.221145 0.221098 0.221062 0.221032 0.221008 0.22099 
0.220977 0.220968 0.220963 0.220963 0.220967 0.220976 0.220989 0.221007 0.22103 
0.22106 0.221097 0.221143 0.221199 0.221272 0.221358 0.221351 0.219927 0.206866 
0.207291 0.219993 0.221327 0.221321 0.221234 0.221161 0.221104 0.221058 0.221022 
0.220991 0.220968 0.22095 0.220936 0.220928 0.220923 0.220923 0.220927 0.220936 
0.220949 0.220967 0.22099 0.22102 0.221056 0.221103 0.221159 0.221232 0.221319 
0.221325 0.219991 0.207289 0.207719 0.220054 0.221299 0.221282 0.221193 0.22112 
0.221064 0.221018 0.220981 0.220951 0.220928 0.22091 0.220896 0.220888 0.220883 
0.220883 0.220887 0.220896 0.220909 0.220927 0.22095 0.22098 0.221016 0.221062 
0.221118 0.221192 0.22128 0.221297 0.220052 0.207717 0.20815 0.220113 0.221271 
0.221242 0.221153 0.221079 0.221023 0.220977 0.220941 0.220911 0.220887 0.220869 
0.220856 0.220847 0.220843 0.220843 0.220847 0.220856 0.220869 0.220887 0.22091 
0.22094 0.220976 0.221022 0.221078 0.221151 0.22124 0.221269 0.220111 0.208148 
0.208586 0.220169 0.221241 0.221201 0.221112 0.221039 0.220983 0.220936 0.2209 
0.22087 0.220847 0.220829 0.220816 0.220807 0.220803 0.220803 0.220807 0.220815 
0.220828 0.220846 0.220869 0.220899 0.220935 0.220981 0.221037 0.22111 0.2212 
0.221239 0.220168 0.208584 0.209025 0.220223 0.221211 0.221161 0.221071 0.220998 
0.220942 0.220896 0.22086 0.22083 0.220807 0.220789 0.220776 0.220767 0.220763 
0.220763 0.220767 0.220775 0.220788 0.220806 0.220829 0.220859 0.220895 0.220941 
0.220996 0.22107 0.22116 0.221209 0.220221 0.209024 0.209469 0.220274 0.221179 
0.22112 0.22103 0.220957 0.220901 0.220855 0.220819 0.220789 0.220766 0.220748 
0.220735 0.220727 0.220723 0.220723 0.220727 0.220735 0.220748 0.220766 0.220789 
0.220818 0.220854 0.2209 0.220956 0.221029 0.221119 0.221178 0.220273 0.209468 
0.209918 0.220322 0.221147 0.221079 0.220988 0.220915 0.22086 0.220814 0.220778 
0.220749 0.220726 0.220708 0.220695 0.220687 0.220683 0.220683 0.220687 0.220695 
0.220708 0.220726 0.220748 0.220778 0.220813 0.220859 0.220914 0.220987 0.221078 
0.221146 0.220321 0.209916 0.21037 0.220368 0.221114 0.221038 0.220947 0.220874 
0.220819 0.220773 0.220738 0.220709 0.220686 0.220668 0.220655 0.220647 0.220643 
0.220643 0.220647 0.220655 0.220668 0.220685 0.220708 0.220737 0.220773 0.220818 
0.220873 0.220946 0.221037 0.221113 0.220367 0.210369 0.210827 0.22041 0.22108 
0.220997 0.220905 0.220833 0.220778 0.220732 0.220697 0.220668 0.220645 0.220628 
0.220615 0.220607 0.220603 0.220603 0.220607 0.220615 0.220628 0.220645 0.220668 
0.220696 0.220732 0.220777 0.220832 0.220905 0.220996 0.221079 0.220409 0.210826 
0.211288 0.220449 0.221045 0.220955 0.220863 0.220791 0.220736 0.220692 0.220656 
0.220628 0.220605 0.220588 0.220576 0.220567 0.220563 0.220563 0.220567 0.220575 
0.220588 0.220605 0.220627 0.220656 0.220691 0.220736 0.22079 0.220863 0.220954 
0.221045 0.220449 0.211287 0.211754 0.220485 0.221009 0.220912 0.220821 0.220749 
0.220695 0.22065 0.220616 0.220587 0.220565 0.220548 0.220536 0.220528 0.220524 
0.220524 0.220528 0.220536 0.220548 0.220565 0.220587 0.220615 0.22065 0.220694 
0.220749 0.220821 0.220912 0.221009 0.220485 0.211753 0.212224 0.220517 0.220972 
0.22087 0.220779 0.220707 0.220653 0.220609 0.220575 0.220547 0.220525 0.220509 
0.220497 0.220489 0.220485 0.220485 0.220489 0.220496 0.220508 0.220525 0.220547 
0.220575 0.220609 0.220653 0.220707 0.220778 0.220869 0.220972 0.220517 0.212223 
0.212698 0.220546 0.220934 0.220827 0.220736 0.220665 0.220612 0.220568 0.220534 
0.220507 0.220486 0.220469 0.220458 0.22045 0.220446 0.220446 0.22045 0.220458 
0.220469 0.220486 0.220507 0.220534 0.220568 0.220611 0.220665 0.220736 0.220826 
0.220934 0.220546 0.212697 0.213176 0.220571 0.220895 0.220783 0.220693 0.220623 
0.22057 0.220527 0.220494 0.220467 0.220446 0.220431 0.220419 0.220412 0.220408 
0.220408 0.220412 0.220419 0.22043 0.220446 0.220467 0.220494 0.220527 0.22057 
0.220622 0.220693 0.220782 0.220895 0.22057 0.213176 0.213658 0.220591 0.220855 
0.220738 0.220649 0.22058 0.220528 0.220486 0.220454 0.220428 0.220407 0.220392 
0.220381 0.220374 0.22037 0.22037 0.220374 0.220381 0.220392 0.220407 0.220427 
0.220453 0.220486 0.220528 0.220579 0.220649 0.220738 0.220854 0.22059 0.213658 
0.214145 0.220606 0.220813 0.220693 0.220605 0.220537 0.220486 0.220445 0.220413 
0.220388 0.220369 0.220354 0.220344 0.220337 0.220334 0.220334 0.220337 0.220344 
0.220354 0.220369 0.220388 0.220413 0.220445 0.220485 0.220536 0.220605 0.220693 
0.220812 0.220606 0.214144 0.214635 0.220617 0.220769 0.220647 0.22056 0.220493 
0.220443 0.220404 0.220374 0.22035 0.220331 0.220317 0.220307 0.220301 0.220298 
0.220298 0.220301 0.220307 0.220317 0.220331 0.22035 0.220374 0.220404 0.220443 
0.220493 0.22056 0.220647 0.220769 0.220617 0.214635 0.215128 0.220622 0.220723 
0.2206 0.220514 0.220449 0.220401 0.220363 0.220334 0.220312 0.220294 0.220281 
0.220272 0.220266 0.220263 0.220263 0.220266 0.220272 0.220281 0.220294 0.220312 
0.220334 0.220363 0.220401 0.220449 0.220514 0.2206 0.220723 0.220622 0.215128 
0.215625 0.220621 0.220676 0.220552 0.220468 0.220405 0.220359 0.220323 0.220296 
0.220275 0.220258 0.220246 0.220238 0.220232 0.22023 0.22023 0.220232 0.220238 
0.220246 0.220258 0.220274 0.220295 0.220323 0.220359 0.220405 0.220468 0.220552 
0.220676 0.220621 0.215625 0.216124 0.220614 0.220625 0.220502 0.22042 0.22036 
0.220316 0.220283 0.220258 0.220238 0.220224 0.220213 0.220205 0.2202 0.220198 
0.220198 0.2202 0.220205 0.220213 0.220224 0.220238 0.220258 0.220283 0.220316 
0.22036 0.22042 0.220502 0.220625 0.220614 0.216124 0.216625 0.220598 0.220572 
0.22045 0.220372 0.220315 0.220274 0.220244 0.220221 0.220204 0.22019 0.220181 
0.220174 0.22017 0.220168 0.220168 0.22017 0.220174 0.220181 0.22019 0.220203 
0.220221 0.220244 0.220274 0.220315 0.220372 0.22045 0.220572 0.220598 0.216625 
0.217127 0.220574 0.220515 0.220396 0.220322 0.22027 0.220233 0.220206 0.220185 
0.22017 0.220159 0.220151 0.220145 0.220142 0.22014 0.22014 0.220142 0.220145 
0.220151 0.220159 0.22017 0.220185 0.220206 0.220233 0.22027 0.220322 0.220396 
0.220515 0.220574 0.217126 0.217627 0.22054 0.220453 0.22034 0.220271 0.220225 
0.220192 0.220169 0.220152 0.220139 0.22013 0.220124 0.220119 0.220116 0.220115 
0.220115 0.220116 0.220119 0.220124 0.22013 0.220139 0.220152 0.220169 0.220192 
0.220225 0.220271 0.22034 0.220453 0.22054 0.217627 0.218122 0.220494 0.220387 
0.220282 0.22022 0.220181 0.220153 0.220135 0.220121 0.220111 0.220104 0.220099 
0.220096 0.220094 0.220093 0.220093 0.220094 0.220096 0.220099 0.220104 0.220111 
0.220121 0.220134 0.220153 0.220181 0.22022 0.220282 0.220387 0.220494 0.218122 
0.21861 0.220434 0.220314 0.220222 0.220169 0.220138 0.220117 0.220103 0.220093 
0.220086 0.220082 0.220078 0.220076 0.220074 0.220074 0.220074 0.220074 0.220076 
0.220078 0.220082 0.220086 0.220093 0.220103 0.220117 0.220138 0.220169 0.220222 
0.220314 0.220434 0.21861 0.219088 0.220356 0.220232 0.220159 0.220119 0.220098 
0.220084 0.220076 0.22007 0.220066 0.220063 0.220061 0.220059 0.220058 0.220058 
0.220058 0.220058 0.220059 0.220061 0.220063 0.220066 0.22007 0.220076 0.220084 
0.220098 0.220119 0.220159 0.220232 0.220356 0.219088 0.219527 0.220255 0.220145 
0.220099 0.220076 0.220065 0.220059 0.220055 0.220052 0.22005 0.220049 0.220048 
0.220047 0.220047 0.220047 0.220047 0.220047 0.220047 0.220048 0.220049 0.22005 
0.220052 0.220055 0.220059 0.220065 0.220076 0.220099 0.220145 0.220255 0.219527 
0.219837 0.220147 0.220082 0.220061 0.220052 0.220048 0.220046 0.220044 0.220043 
0.220042 0.220042 0.220041 0.220041 0.220041 0.220041 0.220041 0.220041 0.220041 
0.220041 0.220042 0.220042 0.220043 0.220044 0.220046 0.220048 0.220052 0.220061 
0.220082 0.220147 0.219837 0.155934 0.160645 0.15913 0.160695 0.161696 0.16226 
0.159883 0.162054 0.164242 0.162596 0.160879 0.160489 0.159222 0.157714 0.157831 
0.159412 0.160039 0.159844 0.158838 0.157535 0.157892 0.159198 0.159403 0.159897 
0.1604 0.16066 0.160597 0.159796 0.161083 0.154159 0.163089 0.167427 0.165862 
0.166718 0.167559 0.167728 0.166534 0.168292 0.170256 0.168965 0.166715 0.165681 
0.164468 0.163186 0.163564 0.165258 0.166208 0.166209 0.165366 0.164411 0.164558 
0.165374 0.165752 0.166311 0.166938 0.167224 0.167095 0.166478 0.167279 0.161237 
0.162834 0.165846 0.164925 0.165583 0.166255 0.166398 0.165749 0.167147 0.168737 
0.167737 0.165532 0.164124 0.162775 0.161627 0.1621 0.163818 0.164912 0.16508 
0.164455 0.163707 0.163769 0.164432 0.164943 0.165588 0.166153 0.166354 0.16622 
0.165614 0.165713 0.161289 0.159718 0.162248 0.161776 0.162293 0.162733 0.162844 
0.162574 0.163624 0.164823 0.164088 0.162029 0.160399 0.158944 0.157874 0.15834 
0.159983 0.161169 0.161563 0.16121 0.160689 0.160669 0.161217 0.161868 0.16261 
0.163066 0.163139 0.163016 0.162411 0.162137 0.158543 0.15695 0.15998 0.15957 
0.159981 0.160132 0.160174 0.160138 0.160861 0.161686 0.161189 0.159308 0.157603 
0.156112 0.155064 0.155402 0.156895 0.158147 0.15881 0.158737 0.158425 0.158306 
0.158782 0.159578 0.16042 0.160731 0.160659 0.160603 0.160012 0.159847 0.156118 
0.154133 0.158403 0.157832 0.158196 0.15805 0.158002 0.158077 0.158509 0.158998 
0.158706 0.157004 0.155345 0.153893 0.152812 0.152916 0.154224 0.155547 0.15648 
0.156628 0.156481 0.156257 0.156706 0.157631 0.158561 0.158714 0.15851 0.158563 
0.157968 0.158185 0.153534 0.149284 0.154636 0.154135 0.154544 0.154111 0.153952 
0.154081 0.154299 0.154531 0.154479 0.153 0.151464 0.150143 0.149008 0.148724 
0.149748 0.151118 0.152278 0.152566 0.152507 0.152158 0.152594 0.15364 0.154672 
0.154672 0.154357 0.154529 0.153913 0.154317 0.148791 0.147805 0.15096 0.151293 
0.152031 0.151294 0.151037 0.151241 0.151315 0.151319 0.151608 0.150309 0.1489 
0.147861 0.1468 0.145928 0.146502 0.147891 0.149263 0.14967 0.149616 0.149046 
0.149564 0.150726 0.15189 0.151735 0.151334 0.151649 0.150826 0.1507 0.147301 
0.0987678 0.120383 0.13297 0.140517 0.145521 0.149518 0.153248 0.156804 0.159862 
0.162027 0.163167 0.163437 0.16305 0.162159 0.160971 0.159837 0.159104 0.158895 
0.159054 0.159285 0.159302 0.158917 0.158043 0.156659 0.154688 0.151838 0.147372 
0.13985 0.126862 0.104377 0.0988027 0.120416 0.132989 0.140518 0.145508 0.149498 
0.15323 0.156792 0.159857 0.162025 0.163165 0.163432 0.163042 0.162148 0.160955 
0.159816 0.159081 0.158873 0.159036 0.159271 0.159291 0.158907 0.158033 0.156651 
0.154683 0.151841 0.147389 0.139885 0.126911 0.104429 0.0988245 0.120439 0.133002 
0.140518 0.145498 0.149484 0.153217 0.156784 0.159854 0.162025 0.163164 0.163429 
0.163038 0.162142 0.160945 0.159802 0.159065 0.158859 0.159024 0.159262 0.159284 
0.158901 0.158027 0.156645 0.154679 0.151842 0.147399 0.139908 0.126944 0.104461 
0.0988499 0.120465 0.133017 0.140518 0.145487 0.149469 0.153203 0.156776 0.159851 
0.162025 0.163163 0.163426 0.163033 0.162134 0.160934 0.159787 0.159048 0.158843 
0.159011 0.159252 0.159277 0.158894 0.15802 0.156638 0.154674 0.151843 0.147411 
0.139935 0.126982 0.104499 0.0988751 0.12049 0.133032 0.140518 0.145476 0.149453 
0.153189 0.156767 0.159848 0.162025 0.163162 0.163423 0.163028 0.162127 0.160922 
0.159771 0.159031 0.158827 0.158999 0.159242 0.159269 0.158887 0.158013 0.156631 
0.154669 0.151844 0.147423 0.139961 0.127019 0.104535 0.0989006 0.120516 0.133047 
0.140518 0.145465 0.149437 0.153174 0.156758 0.159845 0.162024 0.163161 0.16342 
0.163024 0.162119 0.160911 0.159756 0.159014 0.158811 0.158986 0.159232 0.159261 
0.15888 0.158006 0.156624 0.154664 0.151844 0.147435 0.139988 0.127057 0.104573 
0.0989264 0.120543 0.133063 0.140518 0.145454 0.149421 0.15316 0.156749 0.159842 
0.162024 0.16316 0.163417 0.163019 0.162112 0.160899 0.15974 0.158996 0.158795 
0.158973 0.159222 0.159253 0.158873 0.157999 0.156617 0.154659 0.151845 0.147447 
0.140015 0.127095 0.10461 0.0989524 0.120569 0.133078 0.140518 0.145442 0.149405 
0.153145 0.15674 0.159839 0.162024 0.163159 0.163414 0.163014 0.162105 0.160888 
0.159724 0.158979 0.158779 0.158959 0.159212 0.159245 0.158866 0.157992 0.15661 
0.154654 0.151846 0.147459 0.140042 0.127133 0.104648 0.0989785 0.120596 0.133094 
0.140518 0.145431 0.149388 0.15313 0.15673 0.159837 0.162024 0.163158 0.163411 
0.163009 0.162097 0.160876 0.159708 0.158961 0.158763 0.158946 0.159202 0.159237 
0.158859 0.157985 0.156603 0.154648 0.151846 0.147471 0.14007 0.127172 0.104686 
0.0990047 0.120623 0.133109 0.140518 0.145419 0.149372 0.153115 0.156721 0.159834 
0.162024 0.163157 0.163408 0.163004 0.16209 0.160864 0.159692 0.158943 0.158746 
0.158933 0.159192 0.159229 0.158852 0.157977 0.156596 0.154643 0.151847 0.147483 
0.140097 0.127211 0.104725 0.0990311 0.120651 0.133125 0.140517 0.145407 0.149355 
0.1531 0.156712 0.159831 0.162024 0.163156 0.163405 0.163 0.162082 0.160852 
0.159676 0.158925 0.15873 0.15892 0.159182 0.159221 0.158845 0.15797 0.156588 
0.154637 0.151847 0.147495 0.140125 0.12725 0.104763 0.0990576 0.120678 0.133141 
0.140517 0.145395 0.149339 0.153085 0.156703 0.159828 0.162024 0.163155 0.163401 
0.162995 0.162075 0.160841 0.15966 0.158907 0.158713 0.158906 0.159172 0.159213 
0.158837 0.157962 0.156581 0.154632 0.151848 0.147507 0.140152 0.12729 0.104802 
0.0990842 0.120706 0.133157 0.140517 0.145383 0.149322 0.15307 0.156693 0.159825 
0.162024 0.163154 0.163398 0.16299 0.162067 0.160829 0.159643 0.158889 0.158697 
0.158893 0.159162 0.159205 0.15883 0.157955 0.156574 0.154626 0.151848 0.147519 
0.14018 0.12733 0.104841 0.0991108 0.120734 0.133173 0.140517 0.145372 0.149305 
0.153054 0.156684 0.159822 0.162024 0.163153 0.163395 0.162985 0.16206 0.160817 
0.159627 0.158871 0.15868 0.158879 0.159151 0.159197 0.158823 0.157947 0.156566 
0.154621 0.151848 0.147531 0.140208 0.12737 0.10488 0.0991376 0.120762 0.13319 
0.140517 0.14536 0.149288 0.153039 0.156674 0.159819 0.162024 0.163152 0.163392 
0.16298 0.162052 0.160805 0.159611 0.158853 0.158663 0.158866 0.159141 0.159189 
0.158816 0.15794 0.156559 0.154615 0.151848 0.147543 0.140236 0.12741 0.104919 
0.0991645 0.12079 0.133206 0.140517 0.145347 0.149271 0.153024 0.156665 0.159816 
0.162024 0.163151 0.163388 0.162975 0.162045 0.160793 0.159594 0.158835 0.158647 
0.158852 0.159131 0.159181 0.158808 0.157933 0.156551 0.154609 0.151849 0.147555 
0.140265 0.12745 0.104958 0.0991914 0.120819 0.133222 0.140516 0.145335 0.149254 
0.153008 0.156656 0.159813 0.162024 0.16315 0.163385 0.16297 0.162037 0.160781 
0.159578 0.158816 0.15863 0.158839 0.15912 0.159173 0.158801 0.157925 0.156544 
0.154604 0.151849 0.147567 0.140293 0.127491 0.104997 0.0992184 0.120847 0.133239 
0.140516 0.145323 0.149237 0.152993 0.156646 0.15981 0.162024 0.163149 0.163382 
0.162965 0.16203 0.160769 0.159561 0.158798 0.158613 0.158825 0.15911 0.159165 
0.158794 0.157917 0.156536 0.154598 0.151849 0.147579 0.140321 0.127532 0.105037 
0.0992455 0.120876 0.133255 0.140516 0.145311 0.14922 0.152977 0.156637 0.159807 
0.162024 0.163147 0.163378 0.16296 0.162022 0.160757 0.159545 0.158779 0.158596 
0.158811 0.1591 0.159157 0.158787 0.15791 0.156528 0.154592 0.151849 0.147591 
0.14035 0.127573 0.105077 0.0992726 0.120905 0.133272 0.140515 0.145298 0.149202 
0.152961 0.156627 0.159805 0.162025 0.163146 0.163375 0.162955 0.162015 0.160745 
0.159528 0.158761 0.158579 0.158798 0.159089 0.159148 0.158779 0.157902 0.156521 
0.154586 0.151849 0.147603 0.140378 0.127614 0.105116 0.0992998 0.120934 0.133289 
0.140515 0.145286 0.149185 0.152946 0.156617 0.159802 0.162025 0.163145 0.163372 
0.16295 0.162007 0.160733 0.159511 0.158742 0.158562 0.158784 0.159079 0.15914 
0.158772 0.157895 0.156513 0.15458 0.151849 0.147615 0.140407 0.127655 0.105156 
0.0993271 0.120964 0.133306 0.140514 0.145273 0.149167 0.15293 0.156608 0.159799 
0.162025 0.163144 0.163368 0.162945 0.161999 0.160721 0.159495 0.158724 0.158545 
0.15877 0.159069 0.159132 0.158765 0.157887 0.156505 0.154574 0.151849 0.147626 
0.140436 0.127697 0.105196 0.0993545 0.120993 0.133322 0.140514 0.14526 0.14915 
0.152914 0.156598 0.159796 0.162025 0.163143 0.163365 0.16294 0.161992 0.160709 
0.159478 0.158705 0.158528 0.158756 0.159058 0.159124 0.158757 0.157879 0.156498 
0.154568 0.151848 0.147638 0.140465 0.127738 0.105237 0.0993819 0.121023 0.133339 
0.140513 0.145248 0.149132 0.152898 0.156589 0.159794 0.162025 0.163142 0.163361 
0.162935 0.161984 0.160697 0.159461 0.158686 0.15851 0.158743 0.159048 0.159116 
0.15875 0.157872 0.15649 0.154562 0.151848 0.14765 0.140494 0.12778 0.105277 
0.0994094 0.121053 0.133357 0.140513 0.145235 0.149114 0.152882 0.156579 0.159791 
0.162026 0.163141 0.163358 0.16293 0.161977 0.160685 0.159444 0.158667 0.158493 
0.158729 0.159037 0.159107 0.158743 0.157864 0.156482 0.154555 0.151848 0.147662 
0.140523 0.127823 0.105317 0.0994369 0.121083 0.133374 0.140512 0.145222 0.149096 
0.152866 0.156569 0.159788 0.162026 0.16314 0.163354 0.162925 0.161969 0.160672 
0.159427 0.158648 0.158476 0.158715 0.159027 0.159099 0.158735 0.157856 0.156474 
0.154549 0.151847 0.147673 0.140552 0.127865 0.105358 0.0994645 0.121113 0.133391 
0.140511 0.145209 0.149078 0.15285 0.15656 0.159785 0.162026 0.163139 0.163351 
0.16292 0.161961 0.16066 0.15941 0.158629 0.158459 0.158701 0.159016 0.159091 
0.158728 0.157849 0.156466 0.154543 0.151847 0.147685 0.140581 0.127908 0.105399 
0.0994922 0.121143 0.133408 0.14051 0.145196 0.14906 0.152834 0.15655 0.159783 
0.162027 0.163138 0.163347 0.162915 0.161954 0.160648 0.159393 0.15861 0.158441 
0.158687 0.159006 0.159083 0.158721 0.157841 0.156459 0.154537 0.151846 0.147697 
0.14061 0.127951 0.105439 0.0995199 0.121174 0.133426 0.14051 0.145182 0.149042 
0.152817 0.15654 0.15978 0.162027 0.163136 0.163344 0.162909 0.161946 0.160636 
0.159376 0.158591 0.158424 0.158673 0.158995 0.159075 0.158713 0.157833 0.156451 
0.15453 0.151845 0.147708 0.14064 0.127994 0.10548 0.0995477 0.121205 0.133443 
0.140509 0.145169 0.149024 0.152801 0.15653 0.159778 0.162028 0.163135 0.16334 
0.162904 0.161939 0.160623 0.159358 0.158572 0.158406 0.158659 0.158985 0.159066 
0.158706 0.157825 0.156443 0.154524 0.151845 0.14772 0.140669 0.128037 0.105521 
0.0995755 0.121236 0.133461 0.140508 0.145156 0.149006 0.152785 0.15652 0.159775 
0.162028 0.163134 0.163336 0.162899 0.161931 0.160611 0.159341 0.158553 0.158389 
0.158645 0.158974 0.159058 0.158698 0.157818 0.156435 0.154517 0.151844 0.147731 
0.140699 0.12808 0.105562 0.0996034 0.121267 0.133479 0.140507 0.145142 0.148987 
0.152768 0.15651 0.159773 0.162029 0.163133 0.163333 0.162894 0.161924 0.160599 
0.159324 0.158533 0.158371 0.158631 0.158964 0.15905 0.158691 0.15781 0.156427 
0.15451 0.151843 0.147743 0.140729 0.128124 0.105604 0.0996313 0.121299 0.133496 
0.140506 0.145129 0.148969 0.152752 0.156501 0.15977 0.162029 0.163132 0.163329 
0.162889 0.161916 0.160586 0.159306 0.158514 0.158354 0.158617 0.158953 0.159042 
0.158684 0.157802 0.156419 0.154504 0.151842 0.147754 0.140758 0.128168 0.105645 
0.0996593 0.12133 0.133514 0.140505 0.145115 0.14895 0.152735 0.156491 0.159767 
0.16203 0.163131 0.163325 0.162884 0.161908 0.160574 0.159289 0.158494 0.158336 
0.158603 0.158943 0.159033 0.158676 0.157794 0.15641 0.154497 0.151841 0.147765 
0.140788 0.128212 0.105686 0.0996873 0.121362 0.133532 0.140504 0.145101 0.148931 
0.152718 0.156481 0.159765 0.16203 0.16313 0.163321 0.162879 0.161901 0.160562 
0.159271 0.158475 0.158318 0.158589 0.158932 0.159025 0.158669 0.157786 0.156402 
0.15449 0.15184 0.147777 0.140818 0.128256 0.105728 0.0997154 0.121394 0.13355 
0.140502 0.145087 0.148913 0.152702 0.156471 0.159763 0.162031 0.163128 0.163318 
0.162874 0.161893 0.160549 0.159254 0.158455 0.158301 0.158575 0.158922 0.159017 
0.158662 0.157778 0.156394 0.154483 0.151839 0.147788 0.140848 0.128301 0.10577 
0.0997435 0.121426 0.133568 0.140501 0.145073 0.148894 0.152685 0.156461 0.15976 
0.162032 0.163127 0.163314 0.162868 0.161886 0.160537 0.159236 0.158436 0.158283 
0.158561 0.158911 0.159009 0.158654 0.15777 0.156386 0.154477 0.151837 0.147799 
0.140878 0.128346 0.105811 0.0997717 0.121459 0.133587 0.1405 0.145059 0.148875 
0.152668 0.156451 0.159758 0.162032 0.163126 0.16331 0.162863 0.161878 0.160525 
0.159219 0.158416 0.158265 0.158547 0.158901 0.159 0.158647 0.157763 0.156378 
0.15447 0.151836 0.14781 0.140909 0.128391 0.105853 0.0997999 0.121492 0.133605 
0.140498 0.145045 0.148856 0.152651 0.156441 0.159755 0.162033 0.163125 0.163306 
0.162858 0.161871 0.160512 0.159201 0.158396 0.158247 0.158533 0.15889 0.158992 
0.158639 0.157755 0.156369 0.154463 0.151834 0.147821 0.140939 0.128436 0.105895 
0.0998282 0.121525 0.133623 0.140497 0.145031 0.148837 0.152634 0.156431 0.159753 
0.162034 0.163124 0.163302 0.162853 0.161863 0.1605 0.159183 0.158376 0.158229 
0.158519 0.158879 0.158984 0.158632 0.157747 0.156361 0.154455 0.151833 0.147832 
0.14097 0.128482 0.105937 0.0998565 0.121558 0.133642 0.140495 0.145017 0.148817 
0.152617 0.15642 0.159751 0.162035 0.163123 0.163298 0.162848 0.161855 0.160487 
0.159165 0.158356 0.158212 0.158504 0.158869 0.158976 0.158625 0.157739 0.156353 
0.154448 0.151831 0.147843 0.141 0.128528 0.10598 0.0998848 0.121591 0.133661 
0.140494 0.145002 0.148798 0.1526 0.15641 0.159749 0.162036 0.163121 0.163294 
0.162843 0.161848 0.160475 0.159147 0.158337 0.158194 0.15849 0.158858 0.158967 
0.158617 0.157731 0.156345 0.154441 0.15183 0.147854 0.141031 0.128574 0.106022 
0.0999131 0.121625 0.133679 0.140492 0.144988 0.148779 0.152582 0.1564 0.159746 
0.162037 0.16312 0.16329 0.162837 0.16184 0.160462 0.159129 0.158316 0.158176 
0.158476 0.158847 0.158959 0.15861 0.157723 0.156336 0.154434 0.151828 0.147865 
0.141061 0.12862 0.106064 0.0999415 0.121659 0.133698 0.14049 0.144973 0.148759 
0.152565 0.15639 0.159744 0.162038 0.163119 0.163286 0.162832 0.161833 0.16045 
0.159111 0.158296 0.158157 0.158462 0.158837 0.158951 0.158602 0.157715 0.156328 
0.154427 0.151826 0.147876 0.141092 0.128666 0.106107 0.0999699 0.121693 0.133717 
0.140488 0.144958 0.148739 0.152548 0.15638 0.159742 0.162039 0.163118 0.163282 
0.162827 0.161825 0.160437 0.159093 0.158276 0.158139 0.158447 0.158826 0.158942 
0.158595 0.157707 0.156319 0.154419 0.151824 0.147887 0.141123 0.128713 0.106149 
0.0999984 0.121727 0.133736 0.140487 0.144943 0.14872 0.15253 0.156369 0.15974 
0.16204 0.163117 0.163278 0.162822 0.161818 0.160424 0.159075 0.158256 0.158121 
0.158433 0.158816 0.158934 0.158588 0.157699 0.156311 0.154412 0.151822 0.147897 
0.141154 0.12876 0.106192 0.100027 0.121762 0.133755 0.140485 0.144929 0.1487 
0.152513 0.156359 0.159738 0.162041 0.163115 0.163274 0.162817 0.16181 0.160412 
0.159057 0.158236 0.158103 0.158419 0.158805 0.158926 0.15858 0.15769 0.156302 
0.154404 0.15182 0.147908 0.141185 0.128807 0.106235 0.100055 0.121796 0.133774 
0.140483 0.144914 0.14868 0.152495 0.156349 0.159736 0.162042 0.163114 0.16327 
0.162811 0.161803 0.160399 0.159039 0.158215 0.158085 0.158404 0.158794 0.158918 
0.158573 0.157682 0.156294 0.154397 0.151818 0.147918 0.141217 0.128855 0.106278 
0.100084 0.121831 0.133794 0.140481 0.144899 0.14866 0.152477 0.156338 0.159734 
0.162043 0.163113 0.163265 0.162806 0.161795 0.160387 0.159021 0.158195 0.158066 
0.15839 0.158784 0.158909 0.158565 0.157674 0.156285 0.154389 0.151816 0.147929 
0.141248 0.128903 0.106321 0.100112 0.121867 0.133813 0.140478 0.144883 0.14864 
0.15246 0.156328 0.159732 0.162044 0.163112 0.163261 0.162801 0.161788 0.160374 
0.159002 0.158174 0.158048 0.158375 0.158773 0.158901 0.158558 0.157666 0.156277 
0.154381 0.151813 0.147939 0.141279 0.128951 0.106364 0.100141 0.121902 0.133833 
0.140476 0.144868 0.14862 0.152442 0.156318 0.15973 0.162046 0.16311 0.163257 
0.162796 0.161781 0.160361 0.158984 0.158154 0.15803 0.158361 0.158762 0.158893 
0.15855 0.157658 0.156268 0.154374 0.151811 0.14795 0.141311 0.128999 0.106407 
0.100169 0.121938 0.133852 0.140474 0.144853 0.1486 0.152424 0.156307 0.159728 
0.162047 0.163109 0.163253 0.162791 0.161773 0.160349 0.158965 0.158133 0.158011 
0.158347 0.158752 0.158884 0.158543 0.15765 0.156259 0.154366 0.151808 0.14796 
0.141342 0.129048 0.10645 0.100198 0.121974 0.133872 0.140471 0.144837 0.148579 
0.152406 0.156297 0.159726 0.162048 0.163108 0.163248 0.162785 0.161766 0.160336 
0.158947 0.158112 0.157993 0.158332 0.158741 0.158876 0.158536 0.157642 0.156251 
0.154358 0.151806 0.14797 0.141374 0.129096 0.106493 0.100227 0.122011 0.133892 
0.140469 0.144822 0.148559 0.152388 0.156286 0.159724 0.16205 0.163107 0.163244 
0.16278 0.161758 0.160323 0.158928 0.158092 0.157974 0.158318 0.15873 0.158868 
0.158528 0.157633 0.156242 0.15435 0.151803 0.14798 0.141406 0.129146 0.106537 
0.100255 0.122047 0.133912 0.140466 0.144806 0.148538 0.15237 0.156276 0.159722 
0.162051 0.163105 0.16324 0.162775 0.161751 0.160311 0.158909 0.158071 0.157956 
0.158303 0.158719 0.158859 0.158521 0.157625 0.156233 0.154342 0.1518 0.14799 
0.141438 0.129195 0.10658 0.100284 0.122084 0.133932 0.140463 0.14479 0.148518 
0.152351 0.156265 0.159721 0.162053 0.163104 0.163235 0.16277 0.161744 0.160298 
0.158891 0.15805 0.157937 0.158288 0.158709 0.158851 0.158513 0.157617 0.156224 
0.154334 0.151797 0.148 0.14147 0.129245 0.106624 0.100312 0.122121 0.133952 
0.140461 0.144774 0.148497 0.152333 0.156254 0.159719 0.162054 0.163103 0.163231 
0.162764 0.161736 0.160285 0.158872 0.158029 0.157918 0.158274 0.158698 0.158843 
0.158506 0.157609 0.156215 0.154326 0.151794 0.14801 0.141502 0.129295 0.106667 
0.100341 0.122159 0.133972 0.140458 0.144758 0.148476 0.152315 0.156244 0.159717 
0.162056 0.163102 0.163226 0.162759 0.161729 0.160272 0.158853 0.158008 0.1579 
0.158259 0.158687 0.158834 0.158498 0.1576 0.156207 0.154318 0.151791 0.14802 
0.141534 0.129345 0.106711 0.100369 0.122197 0.133992 0.140455 0.144742 0.148455 
0.152296 0.156233 0.159716 0.162057 0.1631 0.163222 0.162754 0.161721 0.16026 
0.158834 0.157986 0.157881 0.158245 0.158676 0.158826 0.158491 0.157592 0.156198 
0.154309 0.151788 0.148029 0.141566 0.129396 0.106755 0.100398 0.122235 0.134013 
0.140452 0.144726 0.148434 0.152278 0.156223 0.159714 0.162059 0.163099 0.163217 
0.162749 0.161714 0.160247 0.158815 0.157965 0.157862 0.15823 0.158666 0.158817 
0.158484 0.157584 0.156189 0.154301 0.151785 0.148039 0.141598 0.129446 0.106799 
0.100427 0.122273 0.134033 0.140449 0.14471 0.148413 0.152259 0.156212 0.159713 
0.162061 0.163098 0.163212 0.162744 0.161707 0.160234 0.158796 0.157944 0.157843 
0.158215 0.158655 0.158809 0.158476 0.157575 0.15618 0.154293 0.151781 0.148048 
0.141631 0.129498 0.106842 0.100455 0.122312 0.134054 0.140445 0.144693 0.148392 
0.152241 0.156201 0.159711 0.162063 0.163096 0.163208 0.162738 0.1617 0.160221 
0.158777 0.157923 0.157824 0.158201 0.158644 0.158801 0.158469 0.157567 0.156171 
0.154284 0.151778 0.148058 0.141663 0.129549 0.106886 0.100484 0.122351 0.134075 
0.140442 0.144677 0.14837 0.152222 0.15619 0.15971 0.162065 0.163095 0.163203 
0.162733 0.161692 0.160208 0.158758 0.157901 0.157806 0.158186 0.158633 0.158792 
0.158461 0.157558 0.156162 0.154276 0.151775 0.148067 0.141696 0.129601 0.10693 
0.100512 0.12239 0.134095 0.140439 0.14466 0.148349 0.152203 0.156179 0.159708 
0.162067 0.163094 0.163198 0.162728 0.161685 0.160195 0.158739 0.15788 0.157787 
0.158171 0.158622 0.158784 0.158454 0.15755 0.156153 0.154267 0.151771 0.148076 
0.141729 0.129653 0.106974 0.100541 0.12243 0.134116 0.140435 0.144644 0.148328 
0.152184 0.156169 0.159707 0.162069 0.163092 0.163193 0.162723 0.161678 0.160183 
0.158719 0.157858 0.157768 0.158156 0.158612 0.158776 0.158446 0.157541 0.156144 
0.154258 0.151767 0.148085 0.141761 0.129706 0.107018 0.100569 0.12247 0.134138 
0.140431 0.144627 0.148306 0.152165 0.156158 0.159706 0.162071 0.163091 0.163189 
0.162717 0.161671 0.16017 0.1587 0.157836 0.157749 0.158142 0.158601 0.158767 
0.158439 0.157533 0.156135 0.15425 0.151763 0.148094 0.141794 0.129758 0.107062 
0.100597 0.12251 0.134159 0.140428 0.14461 0.148284 0.152146 0.156147 0.159705 
0.162073 0.16309 0.163184 0.162712 0.161663 0.160157 0.158681 0.157815 0.157729 
0.158127 0.15859 0.158759 0.158432 0.157524 0.156125 0.154241 0.151759 0.148103 
0.141827 0.129811 0.107107 0.100626 0.122551 0.13418 0.140424 0.144593 0.148263 
0.152127 0.156136 0.159703 0.162075 0.163088 0.163179 0.162707 0.161656 0.160144 
0.158661 0.157793 0.15771 0.158112 0.158579 0.15875 0.158424 0.157516 0.156116 
0.154232 0.151755 0.148112 0.14186 0.129865 0.107151 0.100654 0.122592 0.134202 
0.14042 0.144576 0.148241 0.152108 0.156125 0.159702 0.162077 0.163087 0.163174 
0.162702 0.161649 0.160131 0.158642 0.157771 0.157691 0.158097 0.158568 0.158742 
0.158417 0.157507 0.156107 0.154223 0.151751 0.14812 0.141893 0.129919 0.107195 
0.100682 0.122633 0.134223 0.140416 0.144559 0.148219 0.152089 0.156114 0.159701 
0.16208 0.163086 0.163169 0.162697 0.161642 0.160118 0.158622 0.157749 0.157672 
0.158082 0.158557 0.158734 0.158409 0.157499 0.156098 0.154214 0.151747 0.148129 
0.141927 0.129973 0.107239 0.100711 0.122675 0.134245 0.140412 0.144542 0.148197 
0.15207 0.156103 0.1597 0.162082 0.163084 0.163164 0.162691 0.161635 0.160105 
0.158602 0.157727 0.157653 0.158067 0.158547 0.158725 0.158402 0.15749 0.156089 
0.154205 0.151743 0.148137 0.14196 0.130027 0.107283 0.100739 0.122717 0.134267 
0.140407 0.144525 0.148175 0.15205 0.156092 0.159699 0.162085 0.163083 0.163159 
0.162686 0.161628 0.160092 0.158582 0.157705 0.157633 0.158052 0.158536 0.158717 
0.158394 0.157482 0.156079 0.154196 0.151738 0.148145 0.141993 0.130082 0.107328 
0.100767 0.122759 0.134289 0.140403 0.144507 0.148153 0.152031 0.156081 0.159698 
0.162087 0.163082 0.163154 0.162681 0.161621 0.160079 0.158563 0.157682 0.157614 
0.158037 0.158525 0.158708 0.158387 0.157473 0.15607 0.154187 0.151734 0.148153 
0.142027 0.130137 0.107372 0.100795 0.122802 0.134311 0.140398 0.14449 0.14813 
0.152011 0.15607 0.159698 0.16209 0.16308 0.163148 0.162676 0.161614 0.160066 
0.158543 0.15766 0.157594 0.158023 0.158514 0.1587 0.15838 0.157464 0.15606 
0.154178 0.151729 0.148161 0.14206 0.130192 0.107416 0.100823 0.122845 0.134333 
0.140394 0.144473 0.148108 0.151992 0.156059 0.159697 0.162092 0.163079 0.163143 
0.162671 0.161607 0.160053 0.158523 0.157638 0.157575 0.158008 0.158503 0.158691 
0.158372 0.157455 0.156051 0.154168 0.151724 0.148169 0.142094 0.130248 0.10746 
0.100851 0.122889 0.134355 0.140389 0.144455 0.148085 0.151972 0.156048 0.159696 
0.162095 0.163077 0.163138 0.162666 0.1616 0.16004 0.158503 0.157615 0.157556 
0.157992 0.158492 0.158683 0.158365 0.157447 0.156042 0.154159 0.151719 0.148177 
0.142128 0.130304 0.107505 0.100879 0.122933 0.134378 0.140384 0.144437 0.148063 
0.151952 0.156037 0.159696 0.162098 0.163076 0.163132 0.16266 0.161593 0.160027 
0.158483 0.157593 0.157536 0.157977 0.158481 0.158674 0.158357 0.157438 0.156032 
0.154149 0.151714 0.148184 0.142162 0.130361 0.107549 0.100907 0.122977 0.1344 
0.140379 0.144419 0.14804 0.151933 0.156025 0.159695 0.162101 0.163074 0.163127 
0.162655 0.161586 0.160014 0.158462 0.15757 0.157516 0.157962 0.15847 0.158666 
0.15835 0.157429 0.156023 0.15414 0.151709 0.148191 0.142195 0.130418 0.107593 
0.100935 0.123022 0.134423 0.140374 0.144402 0.148018 0.151913 0.156014 0.159695 
0.162104 0.163073 0.163122 0.16265 0.161579 0.160001 0.158442 0.157547 0.157497 
0.157947 0.158459 0.158657 0.158342 0.15742 0.156013 0.15413 0.151704 0.148199 
0.142229 0.130475 0.107637 0.100963 0.123068 0.134446 0.140369 0.144384 0.147995 
0.151893 0.156003 0.159694 0.162107 0.163072 0.163116 0.162645 0.161572 0.159988 
0.158422 0.157524 0.157477 0.157932 0.158448 0.158649 0.158335 0.157411 0.156003 
0.15412 0.151699 0.148206 0.142263 0.130533 0.107682 0.10099 0.123113 0.134469 
0.140364 0.144366 0.147972 0.151873 0.155992 0.159694 0.16211 0.16307 0.163111 
0.16264 0.161565 0.159975 0.158401 0.157501 0.157457 0.157917 0.158437 0.15864 
0.158327 0.157402 0.155994 0.154111 0.151693 0.148213 0.142297 0.130591 0.107726 
0.101018 0.12316 0.134492 0.140358 0.144348 0.147949 0.151853 0.155981 0.159694 
0.162114 0.163069 0.163105 0.162635 0.161558 0.159962 0.158381 0.157478 0.157437 
0.157902 0.158426 0.158632 0.15832 0.157393 0.155984 0.154101 0.151688 0.148219 
0.142331 0.130649 0.10777 0.101045 0.123206 0.134515 0.140353 0.14433 0.147926 
0.151833 0.155969 0.159694 0.162117 0.163067 0.1631 0.16263 0.161552 0.159949 
0.15836 0.157455 0.157418 0.157886 0.158415 0.158623 0.158312 0.157384 0.155974 
0.154091 0.151682 0.148226 0.142365 0.130708 0.107814 0.101073 0.123254 0.134539 
0.140347 0.144312 0.147903 0.151813 0.155958 0.159694 0.162121 0.163066 0.163094 
0.162625 0.161545 0.159935 0.15834 0.157432 0.157398 0.157871 0.158404 0.158615 
0.158305 0.157375 0.155964 0.154081 0.151676 0.148232 0.1424 0.130767 0.107858 
0.1011 0.123301 0.134562 0.140341 0.144293 0.14788 0.151793 0.155947 0.159694 
0.162124 0.163064 0.163088 0.162619 0.161538 0.159922 0.158319 0.157409 0.157378 
0.157856 0.158393 0.158606 0.158297 0.157366 0.155955 0.15407 0.15167 0.148238 
0.142434 0.130827 0.107902 0.101128 0.12335 0.134586 0.140335 0.144275 0.147857 
0.151773 0.155936 0.159694 0.162128 0.163063 0.163082 0.162614 0.161531 0.159909 
0.158298 0.157386 0.157358 0.157841 0.158382 0.158597 0.15829 0.157357 0.155945 
0.15406 0.151664 0.148244 0.142468 0.130887 0.107945 0.101155 0.123398 0.13461 
0.140329 0.144257 0.147834 0.151753 0.155924 0.159694 0.162132 0.163062 0.163077 
0.162609 0.161525 0.159896 0.158277 0.157362 0.157338 0.157825 0.158371 0.158588 
0.158282 0.157348 0.155935 0.15405 0.151658 0.14825 0.142502 0.130947 0.107989 
0.101182 0.123448 0.134635 0.140323 0.144239 0.147811 0.151733 0.155913 0.159695 
0.162136 0.16306 0.163071 0.162604 0.161518 0.159883 0.158256 0.157338 0.157318 
0.15781 0.15836 0.15858 0.158275 0.157338 0.155925 0.154039 0.151652 0.148255 
0.142537 0.131008 0.108033 0.101209 0.123498 0.134659 0.140317 0.14422 0.147788 
0.151712 0.155902 0.159695 0.16214 0.163059 0.163065 0.162599 0.161512 0.159869 
0.158235 0.157315 0.157297 0.157794 0.158349 0.158571 0.158267 0.157329 0.155915 
0.154029 0.151645 0.148261 0.142571 0.131069 0.108076 0.101236 0.123548 0.134684 
0.140311 0.144202 0.147765 0.151692 0.155891 0.159696 0.162144 0.163057 0.163059 
0.162594 0.161505 0.159856 0.158214 0.157291 0.157277 0.157779 0.158337 0.158562 
0.15826 0.157319 0.155904 0.154018 0.151638 0.148266 0.142605 0.131131 0.108119 
0.101263 0.123599 0.134708 0.140304 0.144184 0.147741 0.151672 0.155879 0.159696 
0.162148 0.163056 0.163053 0.162589 0.161498 0.159843 0.158192 0.157267 0.157257 
0.157763 0.158326 0.158553 0.158252 0.15731 0.155894 0.154007 0.151631 0.148271 
0.14264 0.131193 0.108162 0.10129 0.123651 0.134733 0.140298 0.144165 0.147718 
0.151652 0.155868 0.159697 0.162153 0.163054 0.163047 0.162584 0.161492 0.159829 
0.158171 0.157243 0.157236 0.157748 0.158315 0.158544 0.158244 0.1573 0.155884 
0.153996 0.151624 0.148275 0.142674 0.131255 0.108205 0.101317 0.123704 0.134759 
0.140291 0.144147 0.147695 0.151631 0.155857 0.159698 0.162157 0.163053 0.16304 
0.162579 0.161485 0.159816 0.158149 0.157219 0.157216 0.157732 0.158303 0.158535 
0.158236 0.157291 0.155873 0.153985 0.151617 0.148279 0.142709 0.131318 0.108248 
0.101344 0.123757 0.134784 0.140285 0.144129 0.147672 0.151611 0.155846 0.159699 
0.162162 0.163052 0.163034 0.162574 0.161479 0.159802 0.158128 0.157195 0.157195 
0.157716 0.158292 0.158526 0.158229 0.157281 0.155863 0.153974 0.15161 0.148284 
0.142743 0.131381 0.108291 0.101371 0.123811 0.13481 0.140278 0.144111 0.147648 
0.151591 0.155835 0.159701 0.162167 0.16305 0.163028 0.162569 0.161472 0.159788 
0.158106 0.15717 0.157174 0.1577 0.15828 0.158517 0.158221 0.157271 0.155852 
0.153963 0.151603 0.148287 0.142777 0.131445 0.108333 0.101397 0.123865 0.134836 
0.140271 0.144092 0.147625 0.151571 0.155824 0.159702 0.162172 0.163049 0.163022 
0.162564 0.161466 0.159775 0.158084 0.157145 0.157154 0.157684 0.158269 0.158508 
0.158213 0.157261 0.155842 0.153951 0.151595 0.148291 0.142812 0.131509 0.108376 
0.101424 0.123921 0.134863 0.140265 0.144074 0.147602 0.151551 0.155813 0.159704 
0.162177 0.163047 0.163015 0.162559 0.161459 0.159761 0.158062 0.157121 0.157133 
0.157668 0.158257 0.158499 0.158205 0.157251 0.155831 0.153939 0.151587 0.148294 
0.142846 0.131574 0.108418 0.101451 0.123977 0.134889 0.140258 0.144056 0.147579 
0.15153 0.155802 0.159706 0.162182 0.163046 0.163008 0.162554 0.161453 0.159747 
0.158039 0.157096 0.157112 0.157652 0.158245 0.158489 0.158197 0.15724 0.15582 
0.153928 0.151579 0.148297 0.14288 0.131639 0.10846 0.101478 0.124034 0.134917 
0.140251 0.144039 0.147556 0.15151 0.155792 0.159708 0.162188 0.163044 0.163002 
0.162549 0.161446 0.159733 0.158017 0.15707 0.15709 0.157636 0.158233 0.15848 
0.158188 0.15723 0.155809 0.153916 0.151571 0.1483 0.142915 0.131704 0.108501 
0.101505 0.124093 0.134944 0.140245 0.144021 0.147533 0.151491 0.155781 0.15971 
0.162193 0.163043 0.162995 0.162544 0.161439 0.159719 0.157994 0.157045 0.157069 
0.157619 0.158221 0.15847 0.15818 0.157219 0.155798 0.153904 0.151562 0.148302 
0.142949 0.13177 0.108543 0.101533 0.124152 0.134972 0.140238 0.144003 0.147511 
0.151471 0.15577 0.159712 0.162199 0.163041 0.162988 0.162539 0.161432 0.159705 
0.157971 0.157019 0.157047 0.157602 0.158209 0.15846 0.158172 0.157209 0.155786 
0.153891 0.151554 0.148304 0.142983 0.131837 0.108584 0.10156 0.124212 0.135001 
0.140232 0.143986 0.147488 0.151451 0.15576 0.159715 0.162205 0.16304 0.162981 
0.162534 0.161426 0.15969 0.157947 0.156993 0.157025 0.157585 0.158197 0.15845 
0.158163 0.157198 0.155775 0.153879 0.151545 0.148306 0.143017 0.131904 0.108625 
0.101588 0.124274 0.13503 0.140225 0.143969 0.147466 0.151432 0.15575 0.159718 
0.162211 0.163038 0.162974 0.162528 0.161419 0.159675 0.157923 0.156967 0.157003 
0.157568 0.158184 0.158439 0.158154 0.157187 0.155763 0.153866 0.151536 0.148307 
0.143051 0.131971 0.108666 0.101616 0.124336 0.13506 0.140219 0.143953 0.147444 
0.151412 0.15574 0.159721 0.162217 0.163036 0.162966 0.162523 0.161411 0.15966 
0.157899 0.15694 0.156981 0.157551 0.158171 0.158429 0.158145 0.157175 0.155751 
0.153853 0.151527 0.148309 0.143086 0.13204 0.108706 0.101645 0.1244 0.13509 
0.140214 0.143936 0.147422 0.151393 0.15573 0.159724 0.162224 0.163034 0.162958 
0.162517 0.161404 0.159645 0.157874 0.156913 0.156958 0.157533 0.158158 0.158418 
0.158136 0.157164 0.155739 0.15384 0.151517 0.14831 0.14312 0.132108 0.108746 
0.101674 0.124466 0.135122 0.140208 0.14392 0.1474 0.151374 0.15572 0.159727 
0.16223 0.163033 0.16295 0.162511 0.161396 0.159629 0.157849 0.156885 0.156935 
0.157515 0.158144 0.158407 0.158126 0.157152 0.155727 0.153827 0.151508 0.14831 
0.143154 0.132178 0.108787 0.101703 0.124534 0.135154 0.140203 0.143905 0.147379 
0.151356 0.155711 0.159731 0.162237 0.16303 0.162942 0.162504 0.161388 0.159613 
0.157823 0.156857 0.156911 0.157496 0.15813 0.158395 0.158117 0.15714 0.155715 
0.153814 0.151498 0.148311 0.143188 0.132248 0.108827 0.101734 0.124603 0.135187 
0.140199 0.14389 0.147359 0.151338 0.155702 0.159735 0.162244 0.163028 0.162933 
0.162497 0.161379 0.159596 0.157796 0.156828 0.156886 0.157477 0.158115 0.158383 
0.158106 0.157127 0.155702 0.1538 0.151488 0.148311 0.143223 0.132319 0.108867 
0.101766 0.124674 0.135221 0.140195 0.143876 0.147338 0.15132 0.155693 0.15974 
0.162251 0.163025 0.162924 0.16249 0.16137 0.159578 0.157769 0.156798 0.156861 
0.157457 0.1581 0.15837 0.158096 0.157114 0.155689 0.153787 0.151479 0.148311 
0.143258 0.132391 0.108907 0.101798 0.124747 0.135257 0.140192 0.143863 0.147319 
0.151303 0.155684 0.159744 0.162258 0.163022 0.162914 0.162482 0.16136 0.159559 
0.15774 0.156767 0.156835 0.157436 0.158084 0.158357 0.158085 0.157101 0.155676 
0.153773 0.151469 0.148311 0.143293 0.132465 0.108947 0.101833 0.124824 0.135294 
0.14019 0.14385 0.1473 0.151286 0.155676 0.159749 0.162264 0.163019 0.162903 
0.162473 0.161349 0.15954 0.15771 0.156735 0.156808 0.157414 0.158068 0.158343 
0.158073 0.157087 0.155663 0.153759 0.151459 0.148311 0.143328 0.132539 0.108988 
0.101869 0.124902 0.135333 0.140189 0.143839 0.147282 0.151269 0.155668 0.159754 
0.162271 0.163015 0.162891 0.162464 0.161337 0.159518 0.157679 0.156701 0.15678 
0.157391 0.15805 0.158329 0.158061 0.157073 0.155649 0.153745 0.151449 0.148312 
0.143364 0.132615 0.109029 0.101907 0.124985 0.135375 0.14019 0.143829 0.147265 
0.151254 0.155661 0.15976 0.162278 0.16301 0.162878 0.162453 0.161323 0.159496 
0.157646 0.156666 0.15675 0.157367 0.158031 0.158313 0.158048 0.157059 0.155635 
0.153731 0.151439 0.148312 0.143401 0.132692 0.109071 0.101948 0.125071 0.135418 
0.140192 0.143821 0.147249 0.151239 0.155654 0.159765 0.162284 0.163004 0.162864 
0.16244 0.161308 0.159471 0.157611 0.156629 0.156718 0.157341 0.158011 0.158296 
0.158034 0.157043 0.155621 0.153717 0.15143 0.148313 0.143438 0.132772 0.109114 
0.101992 0.125161 0.135465 0.140197 0.143814 0.147235 0.151225 0.155647 0.159771 
0.16229 0.162997 0.162848 0.162426 0.161291 0.159444 0.157574 0.156589 0.156684 
0.157313 0.157989 0.158277 0.15802 0.157027 0.155607 0.153703 0.151421 0.148315 
0.143477 0.132854 0.109159 0.10204 0.125257 0.135515 0.140203 0.143809 0.147222 
0.151212 0.155641 0.159777 0.162295 0.162988 0.16283 0.162409 0.161271 0.159415 
0.157533 0.156547 0.156648 0.157283 0.157965 0.158258 0.158004 0.157011 0.155592 
0.153689 0.151412 0.148317 0.143518 0.132939 0.109205 0.102093 0.125358 0.135569 
0.140213 0.143807 0.14721 0.1512 0.155636 0.159782 0.162299 0.162978 0.16281 
0.16239 0.161248 0.159382 0.157489 0.156501 0.156608 0.15725 0.157938 0.158236 
0.157987 0.156993 0.155578 0.153676 0.151405 0.148321 0.143561 0.133028 0.109254 
0.102152 0.125467 0.135628 0.140226 0.143808 0.147201 0.15119 0.155631 0.159788 
0.162303 0.162965 0.162786 0.162367 0.161221 0.159345 0.157441 0.156451 0.156565 
0.157214 0.157909 0.158212 0.157968 0.156975 0.155563 0.153663 0.151399 0.148326 
0.143606 0.133121 0.109306 0.102217 0.125583 0.135693 0.140244 0.143812 0.147194 
0.151181 0.155626 0.159793 0.162304 0.162949 0.162758 0.16234 0.16119 0.159303 
0.157388 0.156397 0.156518 0.157173 0.157877 0.158185 0.157948 0.156955 0.155548 
0.153651 0.151394 0.148334 0.143654 0.133219 0.109362 0.102291 0.125709 0.135765 
0.140266 0.143819 0.147189 0.151173 0.155622 0.159798 0.162303 0.162929 0.162726 
0.162308 0.161153 0.159255 0.157329 0.156337 0.156466 0.157129 0.157841 0.158155 
0.157925 0.156934 0.155532 0.153639 0.151391 0.148344 0.143707 0.133323 0.109424 
0.102376 0.125847 0.135844 0.140295 0.143832 0.147188 0.151167 0.155617 0.159801 
0.1623 0.162905 0.162688 0.16227 0.16111 0.1592 0.157263 0.15627 0.156407 
0.157078 0.1578 0.158121 0.1579 0.156912 0.155517 0.153629 0.15139 0.148358 
0.143764 0.133436 0.109492 0.102473 0.125999 0.135934 0.14033 0.14385 0.147189 
0.151162 0.155613 0.159802 0.162292 0.162875 0.162644 0.162224 0.161059 0.159137 
0.157189 0.156196 0.156341 0.157021 0.157753 0.158083 0.157872 0.156888 0.155501 
0.153619 0.151392 0.148377 0.143828 0.133557 0.109569 0.102587 0.126167 0.136036 
0.140375 0.143874 0.147195 0.151159 0.155608 0.159802 0.16228 0.162838 0.16259 
0.16217 0.160998 0.159064 0.157105 0.156112 0.156267 0.156957 0.157699 0.158039 
0.15784 0.156861 0.155485 0.153612 0.151398 0.148401 0.143901 0.133691 0.109657 
0.10272 0.126357 0.136152 0.140429 0.143906 0.147205 0.151158 0.155602 0.159798 
0.162261 0.162791 0.162526 0.162104 0.160925 0.15898 0.15701 0.156018 0.156182 
0.156883 0.157638 0.157989 0.157803 0.156832 0.155469 0.153606 0.151409 0.148432 
0.143983 0.13384 0.109759 0.102878 0.126571 0.136287 0.140497 0.143947 0.147219 
0.151158 0.155595 0.159788 0.162234 0.162733 0.162449 0.162024 0.160839 0.158882 
0.156902 0.155911 0.156087 0.156799 0.157568 0.157931 0.157761 0.156798 0.155452 
0.153601 0.151424 0.148471 0.144077 0.134007 0.109879 0.103066 0.126816 0.136442 
0.140578 0.143998 0.147237 0.151158 0.155583 0.159772 0.162196 0.16266 0.162355 
0.161928 0.160736 0.158767 0.156777 0.15579 0.155977 0.156702 0.157485 0.157863 
0.15771 0.15676 0.155432 0.153598 0.151445 0.148519 0.144187 0.134196 0.110021 
0.103293 0.127099 0.136624 0.140677 0.144059 0.147259 0.151157 0.155565 0.159744 
0.162142 0.162568 0.16224 0.161811 0.160612 0.158632 0.156634 0.155651 0.155851 
0.15659 0.157389 0.157783 0.15765 0.156714 0.155409 0.153594 0.151471 0.148579 
0.144314 0.134414 0.110192 0.103574 0.127434 0.136842 0.1408 0.144137 0.147291 
0.15116 0.155545 0.15971 0.162075 0.162458 0.162107 0.161676 0.160472 0.158482 
0.156478 0.1555 0.155713 0.156467 0.157283 0.157694 0.157584 0.156665 0.155386 
0.153597 0.151509 0.148656 0.14447 0.134674 0.110406 0.10393 0.127839 0.13711 
0.140956 0.144239 0.147335 0.151167 0.155522 0.159665 0.161991 0.162328 0.161952 
0.161521 0.160313 0.158316 0.156308 0.155338 0.155566 0.156335 0.157168 0.157598 
0.157511 0.156612 0.155365 0.153605 0.151563 0.148758 0.144664 0.13499 0.110683 
0.104349 0.128292 0.137393 0.141103 0.144319 0.147342 0.151127 0.15544 0.159551 
0.161829 0.162114 0.161714 0.161285 0.160077 0.158079 0.156073 0.155113 0.155356 
0.156139 0.156989 0.157437 0.157376 0.1565 0.15529 0.153566 0.151579 0.148834 
0.144855 0.135329 0.110991 0.104794 0.128746 0.137638 0.141182 0.144318 0.147252 
0.150976 0.155234 0.1593 0.16152 0.161747 0.161326 0.160904 0.159703 0.157711 
0.155714 0.15477 0.155027 0.155822 0.156686 0.15715 0.157115 0.156265 0.155096 
0.153416 0.151496 0.148823 0.144987 0.135652 0.11131 0.105675 0.129555 0.138193 
0.141547 0.144599 0.147439 0.151096 0.155291 0.159303 0.161458 0.161629 0.161191 
0.160782 0.159595 0.157619 0.155638 0.154712 0.154982 0.155785 0.156656 0.157132 
0.157121 0.156296 0.15517 0.153537 0.151693 0.149103 0.145447 0.13637 0.112156 
0.107907 0.131515 0.139828 0.142968 0.145943 0.148694 0.152292 0.156426 0.160383 
0.162475 0.162596 0.162151 0.16176 0.160592 0.158639 0.156683 0.155775 0.156053 
0.156856 0.157728 0.15821 0.158218 0.157414 0.156329 0.154739 0.15297 0.150466 
0.147018 0.138263 0.114342 0.111849 0.135012 0.142937 0.14585 0.148759 0.151434 
0.154982 0.159062 0.162965 0.164999 0.16508 0.164638 0.164271 0.163127 0.161206 
0.159282 0.158392 0.158673 0.159468 0.160333 0.160813 0.160833 0.160046 0.158994 
0.157442 0.155741 0.153312 0.150081 0.141687 0.118188 0.117306 0.139933 0.147445 
0.150139 0.153002 0.155614 0.159123 0.163152 0.167 0.168978 0.169033 0.168607 
0.16827 0.167157 0.165278 0.163395 0.162523 0.162801 0.163581 0.164427 0.164898 
0.164922 0.164146 0.163119 0.161597 0.15995 0.157583 0.15456 0.146559 0.123618 
0.124185 0.146165 0.153248 0.155749 0.158592 0.161161 0.164641 0.168623 0.172413 
0.174341 0.17438 0.173983 0.173681 0.172608 0.170782 0.16895 0.168098 0.168368 
0.169123 0.169942 0.170395 0.170414 0.169642 0.16863 0.167127 0.165518 0.16319 
0.160359 0.152781 0.130511 0.132407 0.153644 0.160282 0.162625 0.165477 0.168025 
0.17149 0.175431 0.179165 0.181047 0.181084 0.180726 0.180466 0.17944 0.177678 
0.175902 0.175073 0.175329 0.176053 0.176837 0.177263 0.177269 0.176494 0.175484 
0.173986 0.172393 0.170084 0.16742 0.160287 0.138787 0.141879 0.162293 0.168488 
0.170711 0.173599 0.176151 0.179615 0.183524 0.187205 0.18905 0.189097 0.18879 
0.188575 0.187601 0.185911 0.184198 0.183393 0.183633 0.18432 0.185062 0.185454 
0.185439 0.184652 0.183634 0.182124 0.180525 0.178211 0.175683 0.169 0.148357 
0.152481 0.172016 0.177785 0.179932 0.182881 0.185461 0.188938 0.192825 0.196459 
0.198277 0.198345 0.198096 0.19793 0.197011 0.195398 0.19375 0.19297 0.193192 
0.19384 0.194535 0.19489 0.194847 0.194044 0.193006 0.191474 0.189847 0.187504 
0.18507 0.178818 0.159099 0.164044 0.182668 0.188046 0.190159 0.193185 0.195807 
0.199309 0.203182 0.206776 0.208577 0.208676 0.208489 0.208372 0.20751 0.205975 
0.204392 0.203637 0.203841 0.204449 0.205097 0.205414 0.205342 0.204519 0.203457 
0.201898 0.200234 0.19785 0.195467 0.189602 0.170808 0.176228 0.193974 0.19901 
0.20112 0.204219 0.206884 0.21041 0.214274 0.217835 0.219628 0.219763 0.219639 
0.21957 0.218764 0.217303 0.215782 0.215052 0.215238 0.21581 0.216414 0.216695 
0.216595 0.215756 0.214673 0.213094 0.211398 0.208981 0.206623 0.201096 0.183184 
0.188454 0.205384 0.210117 0.212229 0.215377 0.218069 0.221607 0.22546 0.228991 
0.230779 0.23095 0.230885 0.230859 0.230105 0.228712 0.227247 0.226541 0.226713 
0.227255 0.227822 0.228075 0.227953 0.227106 0.226012 0.224429 0.222725 0.220306 
0.217981 0.212773 0.195697 0.199741 0.21589 0.22031 0.222386 0.225535 0.228221 
0.231749 0.235579 0.239077 0.240856 0.241052 0.241035 0.241046 0.240337 0.239003 
0.237588 0.236904 0.23707 0.237592 0.238132 0.238368 0.238236 0.237392 0.236302 
0.234737 0.233056 0.230682 0.228447 0.223607 0.207358 0.208539 0.223934 0.227987 
0.229957 0.233049 0.235684 0.239171 0.242958 0.246409 0.248164 0.248366 0.248382 
0.248423 0.247755 0.246471 0.245099 0.244438 0.244605 0.245119 0.245646 0.245877 
0.245747 0.24492 0.243852 0.242325 0.240694 0.238403 0.23631 0.231891 0.216534 
0.213608 0.228272 0.231948 0.233766 0.236768 0.239316 0.242732 0.246453 0.249842 
0.251554 0.251741 0.251774 0.25184 0.251206 0.249965 0.24863 0.247994 0.24817 
0.248686 0.249212 0.24945 0.249336 0.248537 0.247508 0.246034 0.244471 0.242271 
0.240318 0.236246 0.22164 0.21554 0.229634 0.23303 0.234713 0.237627 0.240076 
0.24341 0.247057 0.250379 0.252041 0.252197 0.252235 0.25232 0.251714 0.250508 
0.249204 0.248592 0.248783 0.24931 0.249845 0.250099 0.25001 0.249247 0.248264 
0.246851 0.245363 0.243248 0.241411 0.237581 0.223483 0.216327 0.230009 0.233221 
0.234801 0.237646 0.240006 0.243269 0.246854 0.250121 0.251736 0.251858 0.251894 
0.251993 0.251409 0.250228 0.248945 0.248354 0.248564 0.249108 0.249659 0.249936 
0.249878 0.249152 0.248216 0.24686 0.245441 0.243398 0.241659 0.238016 0.22436 
0.217025 0.230302 0.233366 0.234864 0.237661 0.239949 0.243158 0.246698 0.249926 
0.251504 0.251593 0.251625 0.251736 0.251167 0.250003 0.248735 0.248162 0.248392 
0.248957 0.24953 0.249834 0.24981 0.249118 0.248227 0.246919 0.24556 0.243571 
0.24191 0.238415 0.225195 0.217631 0.230497 0.233439 0.234874 0.237638 0.239871 
0.243039 0.246548 0.24975 0.2513 0.251362 0.251389 0.251511 0.250953 0.249803 
0.248544 0.247987 0.248238 0.248827 0.249425 0.249757 0.249768 0.249109 0.248258 
0.246993 0.245684 0.243736 0.242137 0.238766 0.22598 0.218165 0.230616 0.233455 
0.234839 0.237583 0.239773 0.242912 0.246401 0.249586 0.251118 0.251157 0.251181 
0.251313 0.250767 0.249627 0.248376 0.247832 0.248105 0.248719 0.249343 0.249706 
0.249751 0.249124 0.24831 0.247083 0.245815 0.2439 0.242352 0.239088 0.226742 
0.21864 0.23067 0.233419 0.234764 0.237495 0.239654 0.242772 0.246251 0.249428 
0.250949 0.25097 0.250992 0.251138 0.250602 0.249473 0.248227 0.247697 0.247991 
0.248631 0.249283 0.249676 0.249755 0.24916 0.248379 0.247185 0.245955 0.244065 
0.242561 0.239394 0.227494 0.219064 0.230669 0.233337 0.23465 0.237376 0.239512 
0.242617 0.246091 0.249269 0.250788 0.250795 0.250819 0.250979 0.250455 0.249336 
0.248096 0.24758 0.247894 0.248561 0.249241 0.249666 0.249779 0.249213 0.248465 
0.247302 0.246106 0.244238 0.242771 0.239695 0.228246 0.219444 0.230617 0.233213 
0.2345 0.237227 0.239346 0.242443 0.24592 0.249107 0.250629 0.250627 0.250654 
0.250832 0.250322 0.249215 0.247981 0.247477 0.247814 0.248507 0.249216 0.249673 
0.249821 0.249284 0.248567 0.247434 0.246269 0.24442 0.242988 0.239998 0.229008 
0.219783 0.230518 0.233049 0.234316 0.237047 0.239155 0.242248 0.245734 0.248937 
0.25047 0.250462 0.250496 0.250695 0.250201 0.249107 0.247878 0.247387 0.247746 
0.248468 0.249207 0.249696 0.249879 0.249373 0.248686 0.247583 0.246449 0.244618 
0.243219 0.240311 0.229788 0.220086 0.230376 0.232846 0.234098 0.236836 0.238937 
0.242031 0.245532 0.248757 0.250307 0.250297 0.25034 0.250564 0.250089 0.24901 
0.247787 0.247309 0.247691 0.248442 0.24921 0.249734 0.249954 0.249478 0.248824 
0.247751 0.246648 0.244835 0.243468 0.240641 0.230593 0.220352 0.230191 0.232605 
0.233843 0.236593 0.23869 0.24179 0.24531 0.248565 0.250139 0.250129 0.250186 
0.250438 0.249984 0.248921 0.247704 0.24724 0.247645 0.248426 0.249226 0.249785 
0.250044 0.249601 0.24898 0.247939 0.246869 0.245077 0.243743 0.240994 0.231431 
0.220583 0.229964 0.232326 0.233553 0.236317 0.238413 0.241521 0.245066 0.248357 
0.249962 0.249958 0.25003 0.250314 0.249884 0.24884 0.24763 0.247178 0.247607 
0.248419 0.249252 0.249849 0.250148 0.24974 0.249157 0.248151 0.247118 0.245348 
0.244048 0.241379 0.232309 0.220778 0.229695 0.232008 0.233225 0.236006 0.238103 
0.241223 0.244798 0.248133 0.249775 0.249781 0.249872 0.250193 0.249789 0.248765 
0.247561 0.247122 0.247575 0.24842 0.249287 0.249923 0.250266 0.249897 0.249353 
0.248387 0.247397 0.245654 0.244392 0.241804 0.233237 0.220939 0.229382 0.231649 
0.232858 0.235657 0.237756 0.240891 0.244502 0.247889 0.249578 0.249598 0.249712 
0.250075 0.2497 0.248696 0.247498 0.24707 0.247546 0.248424 0.249326 0.250005 
0.250395 0.250069 0.249571 0.248651 0.24771 0.246001 0.244782 0.242278 0.234225 
0.221063 0.229026 0.231248 0.232446 0.235264 0.237367 0.240521 0.244175 0.247624 
0.24937 0.249409 0.249551 0.24996 0.249615 0.248632 0.247439 0.24702 0.247518 
0.248431 0.249369 0.250091 0.250533 0.250254 0.249809 0.248943 0.248061 0.246395 
0.245227 0.242811 0.235282 0.221152 0.228625 0.230803 0.231988 0.234823 0.236929 
0.240106 0.243812 0.247335 0.249151 0.249216 0.24939 0.249851 0.249538 0.248575 
0.247385 0.246971 0.247489 0.248435 0.249409 0.250178 0.250675 0.25045 0.250064 
0.249264 0.248456 0.246845 0.24574 0.24342 0.236427 0.221208 0.228182 0.23031 
0.231474 0.234323 0.236431 0.239638 0.243408 0.247023 0.248926 0.249025 0.249239 
0.249757 0.249472 0.248525 0.247333 0.246919 0.247452 0.248431 0.249441 0.250259 
0.250815 0.25065 0.250334 0.249615 0.248903 0.247368 0.246345 0.244131 0.23769 
0.221238 0.227701 0.229767 0.230896 0.233747 0.235853 0.239099 0.242955 0.246688 
0.2487 0.248846 0.249107 0.249689 0.249426 0.248484 0.247281 0.24686 0.247401 
0.248413 0.249457 0.250323 0.25094 0.250841 0.250605 0.24999 0.249406 0.247978 
0.247065 0.244973 0.2391 0.221253 0.227192 0.22918 0.230252 0.233087 0.235181 
0.238474 0.242438 0.246321 0.24847 0.248677 0.248997 0.24965 0.2494 0.248452 
0.247233 0.246795 0.247338 0.248379 0.249455 0.250365 0.251041 0.251009 0.250855 
0.25036 0.249933 0.248643 0.247869 0.245915 0.240626 0.221244 0.226652 0.228553 
0.229551 0.232354 0.234419 0.237759 0.241846 0.245903 0.248217 0.248499 0.248893 
0.249629 0.249393 0.248438 0.247204 0.246743 0.247274 0.248337 0.249437 0.250382 
0.251112 0.251142 0.251067 0.250699 0.250447 0.249315 0.248703 0.246896 0.242206 
0.221237 0.22609 0.227849 0.228715 0.231443 0.233469 0.236899 0.241192 0.245499 
0.248014 0.248384 0.248892 0.249746 0.249451 0.248427 0.247164 0.246661 0.247162 
0.248248 0.249368 0.250343 0.251122 0.251215 0.251241 0.25108 0.251131 0.250287 
0.249941 0.248326 0.244266 0.221495 0.225648 0.227033 0.227491 0.229907 0.231847 
0.235588 0.240473 0.245357 0.248208 0.248688 0.2494 0.250426 0.249758 0.248341 
0.246925 0.246343 0.2468 0.247948 0.249131 0.250145 0.25096 0.251096 0.25128 
0.251617 0.252458 0.252423 0.25272 0.251452 0.248092 0.222296 0.225591 0.226401 
0.226073 0.227749 0.229337 0.233552 0.239412 0.245311 0.248787 0.24952 0.250467 
0.2514 0.250369 0.248218 0.246472 0.245811 0.246237 0.247478 0.248773 0.249821 
0.250579 0.250601 0.250806 0.2517 0.253643 0.25481 0.256023 0.255202 0.252632 
0.222473 0.225385 0.226661 0.226282 0.227835 0.228714 0.232313 0.237555 0.243395 
0.247357 0.248773 0.249822 0.249286 0.25032 0.248745 0.247 0.246515 0.246943 
0.247991 0.249151 0.250041 0.250449 0.250034 0.249608 0.249376 0.250213 0.250444 
0.250957 0.24996 0.248158 0.22041 0.223428 0.226534 0.227988 0.231405 0.232657 
0.234064 0.236778 0.239719 0.242036 0.243366 0.244682 0.245496 0.247377 0.249692 
0.249395 0.249475 0.249923 0.250567 0.25109 0.251419 0.251148 0.249909 0.24816 
0.245163 0.242124 0.238566 0.235842 0.233172 0.231297 0.218896 0.220273 0.223714 
0.226712 0.231718 0.235254 0.235764 0.237173 0.237801 0.23757 0.237285 0.238753 
0.244171 0.245518 0.250238 0.251489 0.252021 0.252717 0.253129 0.253101 0.25281 
0.251997 0.249987 0.247157 0.242694 0.236832 0.230129 0.224893 0.219634 0.216855 
0.223063 0.223627 0.223915 0.225638 0.229228 0.232515 0.234291 0.235547 0.238422 
0.238521 0.237155 0.238073 0.243242 0.248526 0.251175 0.252038 0.252592 0.253471 
0.253896 0.253834 0.253353 0.25231 0.250064 0.246828 0.242218 0.236411 0.229058 
0.224035 0.217859 0.215955 0.232389 0.235237 0.235408 0.234669 0.235514 0.235379 
0.23788 0.238909 0.242942 0.244659 0.242989 0.242747 0.245365 0.250377 0.251791 
0.25245 0.252921 0.253676 0.254339 0.254317 0.253857 0.252838 0.250535 0.247315 
0.242712 0.237433 0.230383 0.22592 0.220693 0.219738 0.245659 0.247451 0.252535 
0.252046 0.25297 0.250983 0.252932 0.254117 0.25544 0.257065 0.254175 0.252044 
0.25229 0.252591 0.252965 0.253445 0.253631 0.254474 0.255214 0.255076 0.254498 
0.253697 0.251529 0.248494 0.24414 0.23926 0.232986 0.229172 0.224741 0.223937 
0.26779 0.266884 0.269775 0.270724 0.273232 0.272 0.27129 0.272909 0.272897 
0.274403 0.27084 0.266642 0.262903 0.260005 0.256457 0.255174 0.254877 0.255416 
0.256097 0.256285 0.255505 0.254248 0.252434 0.249634 0.246044 0.242442 0.237189 
0.234459 0.231122 0.232292 0.299333 0.298007 0.296517 0.296254 0.297598 0.297179 
0.292413 0.292801 0.291827 0.292851 0.290147 0.284369 0.278321 0.270101 0.261786 
0.256955 0.255199 0.256075 0.256873 0.256929 0.256203 0.25453 0.252251 0.249721 
0.247559 0.246023 0.242242 0.240466 0.238068 0.240492 0.335547 0.334415 0.334901 
0.333419 0.333615 0.332967 0.328456 0.324678 0.321142 0.315924 0.310253 0.301412 
0.292403 0.281124 0.27002 0.260556 0.256042 0.256132 0.256822 0.256521 0.25555 
0.253972 0.251309 0.249205 0.247908 0.248612 0.247582 0.247055 0.244452 0.248041 
0.370602 0.369597 0.372232 0.371629 0.371341 0.369315 0.366566 0.360676 0.354048 
0.342905 0.329351 0.316719 0.302749 0.290339 0.280718 0.270307 0.263646 0.258949 
0.257284 0.256504 0.255173 0.253112 0.251411 0.250045 0.249651 0.251624 0.252269 
0.253361 0.250883 0.253827 0.390545 0.389175 0.39071 0.389993 0.387122 0.384611 
0.380289 0.37553 0.367419 0.35748 0.343833 0.329892 0.314726 0.299837 0.290572 
0.28294 0.275332 0.267711 0.26199 0.257698 0.256834 0.255171 0.253975 0.253919 
0.25489 0.25692 0.258013 0.260151 0.258137 0.261616 0.391185 0.388416 0.388089 
0.386399 0.381794 0.379465 0.37528 0.370753 0.364484 0.357891 0.350201 0.338582 
0.327614 0.314543 0.302038 0.293379 0.284803 0.277149 0.26978 0.263668 0.261969 
0.261558 0.260486 0.261017 0.262425 0.265155 0.266334 0.268691 0.266681 0.270184 
0.384552 0.377704 0.377257 0.376257 0.373938 0.370258 0.368428 0.364104 0.358669 
0.355272 0.350829 0.342854 0.336348 0.329054 0.316289 0.30297 0.293161 0.286241 
0.281316 0.276969 0.274762 0.275146 0.274686 0.273432 0.272903 0.275322 0.277205 
0.279945 0.279034 0.283279 0.377512 0.368251 0.365604 0.365426 0.36537 0.363702 
0.362266 0.360438 0.358573 0.353415 0.35111 0.347825 0.343133 0.338989 0.3291 
0.31344 0.302596 0.297355 0.296146 0.297309 0.297656 0.299695 0.299679 0.295618 
0.291331 0.288809 0.290415 0.29349 0.293639 0.301611 0.365809 0.35806 0.355933 
0.354346 0.353458 0.353867 0.353583 0.355345 0.357936 0.355865 0.353213 0.352676 
0.3513 0.348246 0.341066 0.327017 0.316149 0.311935 0.313183 0.319588 0.324646 
0.327928 0.328898 0.324382 0.316243 0.309878 0.306062 0.308889 0.31028 0.318487 
0.348033 0.341672 0.344018 0.343474 0.343412 0.344179 0.345079 0.349708 0.35314 
0.355598 0.354522 0.354975 0.356235 0.355488 0.352608 0.343942 0.334717 0.332409 
0.335289 0.340582 0.346302 0.348396 0.349608 0.349051 0.341779 0.334474 0.327181 
0.32805 0.330524 0.340545 0.333934 0.324326 0.329426 0.331351 0.333802 0.337427 
0.339072 0.343733 0.348483 0.350607 0.352392 0.356127 0.358178 0.359474 0.361069 
0.359888 0.355336 0.354429 0.356754 0.358437 0.358993 0.35874 0.359092 0.361642 
0.364239 0.359633 0.353113 0.350197 0.350737 0.360976 0.325891 0.313505 0.316753 
0.319473 0.323098 0.329325 0.332659 0.336003 0.341879 0.345383 0.348686 0.354689 
0.35945 0.362079 0.365886 0.370753 0.371059 0.369993 0.36931 0.367204 0.36385 
0.36204 0.362716 0.365099 0.37228 0.375823 0.374541 0.368018 0.364582 0.3712 
0.31691 0.304165 0.306076 0.308731 0.31173 0.318434 0.324823 0.328962 0.334412 
0.340363 0.344697 0.35024 0.357078 0.361571 0.366379 0.373633 0.376893 0.375391 
0.370674 0.366812 0.363094 0.36148 0.362438 0.364155 0.368433 0.373371 0.376965 
0.3744 0.367503 0.374405 0.306146 0.293006 0.295333 0.297999 0.300055 0.304099 
0.312633 0.321141 0.327698 0.334892 0.3393 0.344391 0.350164 0.355903 0.361788 
0.368109 0.373125 0.370848 0.366836 0.361343 0.358742 0.357715 0.357763 0.359249 
0.361674 0.364361 0.367155 0.368965 0.363138 0.372457 0.295943 0.281849 0.28448 
0.288007 0.289938 0.293948 0.298269 0.310178 0.319195 0.326553 0.331665 0.335697 
0.3403 0.345968 0.351669 0.35757 0.362156 0.363053 0.360246 0.355137 0.351378 
0.350387 0.350191 0.350449 0.352417 0.353729 0.356731 0.358061 0.354699 0.36452 
0.285509 0.269602 0.273683 0.277252 0.28043 0.286716 0.289643 0.299625 0.308128 
0.3142 0.319474 0.323461 0.327446 0.332229 0.336381 0.342351 0.346314 0.350144 
0.35091 0.348275 0.342968 0.340328 0.33964 0.338405 0.339617 0.339353 0.342366 
0.343354 0.341485 0.354144 0.27581 0.257224 0.262997 0.265832 0.27009 0.277318 
0.282276 0.288444 0.295655 0.298627 0.300987 0.306318 0.310847 0.314157 0.316939 
0.320286 0.324882 0.328824 0.332579 0.334141 0.330812 0.327403 0.325813 0.323831 
0.323693 0.323362 0.324452 0.324608 0.324047 0.34105 0.267223 0.246928 0.25286 
0.255942 0.259431 0.26699 0.271335 0.275804 0.280422 0.281592 0.280894 0.285263 
0.289851 0.291938 0.294692 0.294922 0.299597 0.303146 0.306964 0.310972 0.312185 
0.31017 0.308545 0.306924 0.306569 0.306672 0.306409 0.303926 0.303216 0.321139 
0.259525 0.238165 0.242736 0.245752 0.249223 0.254972 0.25778 0.262561 0.265021 
0.264011 0.262354 0.263414 0.267692 0.268884 0.270239 0.271969 0.274563 0.27871 
0.282423 0.286257 0.289493 0.290011 0.289032 0.28786 0.28822 0.286926 0.287362 
0.282607 0.280087 0.298541 0.253858 0.229237 0.233881 0.235899 0.238046 0.242839 
0.245354 0.24831 0.249752 0.248523 0.246141 0.244081 0.246878 0.248433 0.248649 
0.252056 0.252804 0.257453 0.260769 0.263533 0.265648 0.26729 0.268171 0.268231 
0.268627 0.266274 0.267706 0.261734 0.257204 0.277584 0.248462 0.221249 0.225423 
0.227553 0.227999 0.232262 0.232841 0.236161 0.236716 0.234367 0.2315 0.230487 
0.229445 0.230857 0.231978 0.234557 0.237003 0.238192 0.241457 0.24304 0.243567 
0.244607 0.245757 0.24747 0.249656 0.247355 0.249523 0.244627 0.238495 0.260363 
0.243083 0.21526 0.216949 0.220214 0.219174 0.22183 0.220459 0.223424 0.225156 
0.221699 0.21901 0.219465 0.217508 0.216803 0.217339 0.219196 0.222748 0.223668 
0.224957 0.225104 0.225616 0.226255 0.227385 0.227778 0.2311 0.229919 0.230619 
0.229399 0.223495 0.249536 0.235772 0.208339 0.20965 0.211696 0.209884 0.211258 
0.208547 0.209532 0.210991 0.210905 0.207647 0.207608 0.207489 0.205255 0.204685 
0.206496 0.207857 0.210137 0.210723 0.210772 0.209522 0.211417 0.212327 0.212116 
0.214093 0.213976 0.214391 0.21128 0.208899 0.236773 0.223539 0.194378 0.197256 
0.198739 0.196469 0.198346 0.195531 0.19696 0.197793 0.195676 0.193728 0.193412 
0.193546 0.191609 0.190927 0.193066 0.194009 0.194632 0.195317 0.196141 0.193962 
0.195148 0.196164 0.196566 0.197902 0.197105 0.199733 0.193646 0.191577 0.220959 
0.211166 0.179493 0.181762 0.185799 0.181847 0.185772 0.183881 0.185033 0.187301 
0.184469 0.181366 0.180357 0.180642 0.179293 0.178483 0.180124 0.181499 0.181819 
0.181593 0.182501 0.181375 0.181089 0.182517 0.182913 0.184047 0.183337 0.185249 
0.178834 0.176378 0.20706 0.218852 0.193023 0.193279 0.199207 0.195946 0.198715 
0.197627 0.198265 0.200254 0.20085 0.197365 0.196329 0.19655 0.19564 0.194854 
0.195137 0.195294 0.195522 0.194794 0.195217 0.194708 0.194687 0.195385 0.195873 
0.196601 0.19651 0.197215 0.190974 0.19044 0.21501 0.250048 0.248855 0.242417 
0.245976 0.244655 0.24468 0.244518 0.245087 0.245644 0.246207 0.247088 0.24731 
0.246771 0.246245 0.245744 0.24501 0.243966 0.243093 0.24254 0.242009 0.242046 
0.242067 0.242053 0.242291 0.242419 0.242361 0.244023 0.240997 0.247826 0.248883 

Water_Depth_m 1 9270 float
0.707024 0.70264 0.70725 0.710887 0.700559 0.69458 0.700788 0.708926 0.716373 
0.73445 0.732023 0.727896 0.731063 0.732678 0.72049 0.699694 0.686261 0.693819 
0.693959 0.690663 0.677423 0.682258 0.695342 0.704514 0.697488 0.691125 0.700976 
0.704671 0.710203 0.714855 0.680189 0.673398 0.674548 0.683491 0.674984 0.667903 
0.672997 0.68588 0.688612 0.700362 0.717703 0.700631 0.697844 0.702306 0.699455 
0.679371 0.661517 0.668491 0.673469 0.666503 0.658277 0.651586 0.666623 0.682883 
0.680245 0.67172 0.675168 0.684326 0.689787 0.684416 0.649808 0.642796 0.637643 
0.642465 0.641594 0.635537 0.642956 0.648449 0.655721 0.662379 0.674233 0.672561 
0.666468 0.663818 0.660911 0.646712 0.628777 0.631451 0.6398 0.631797 0.623771 
0.6262 0.632187 0.646331 0.648276 0.644427 0.647048 0.649972 0.65629 0.651228 
0.611311 0.598456 0.610533 0.608903 0.603262 0.604402 0.612857 0.618614 0.609498 
0.63086 0.637723 0.635392 0.630007 0.634833 0.629891 0.619492 0.597355 0.596033 
0.599454 0.593876 0.594166 0.593999 0.603239 0.609729 0.612213 0.607635 0.628425 
0.617214 0.621698 0.606972 0.57914 0.568682 0.565917 0.575925 0.571263 0.57194 
0.580528 0.585614 0.593891 0.581643 0.604206 0.60338 0.59344 0.597624 0.600417 
0.589393 0.574588 0.567053 0.568937 0.558069 0.560468 0.565187 0.57372 0.57654 
0.580738 0.577928 0.575048 0.596496 0.585267 0.578297 0.541871 0.540339 0.538436 
0.543943 0.541364 0.542723 0.546753 0.55248 0.563443 0.561241 0.560893 0.56943 
0.56209 0.558899 0.562557 0.560522 0.552215 0.544191 0.546361 0.540553 0.534535 
0.539261 0.540742 0.544219 0.545268 0.548839 0.545213 0.545284 0.545926 0.54849 
0.514303 0.515778 0.518339 0.520286 0.522164 0.524733 0.527938 0.531105 0.537138 
0.544313 0.536852 0.543263 0.545238 0.536361 0.537352 0.537497 0.535489 0.535297 
0.536066 0.535827 0.533029 0.530179 0.526689 0.523934 0.52229 0.522432 0.522462 
0.518592 0.523305 0.5217 0.503198 0.507296 0.511861 0.51516 0.518623 0.522061 
0.525168 0.527913 0.532399 0.537207 0.535563 0.53857 0.540638 0.535967 0.534381 
0.534519 0.535149 0.536947 0.538428 0.539753 0.538969 0.535072 0.529767 0.524337 
0.520274 0.518259 0.516977 0.513245 0.514505 0.514102 0.502179 0.509505 0.51548 
0.519556 0.52291 0.526052 0.528913 0.53196 0.535961 0.539037 0.540145 0.542003 
0.54318 0.541544 0.54008 0.540164 0.540442 0.540975 0.541865 0.543218 0.543168 
0.540822 0.537 0.532084 0.527814 0.525112 0.522896 0.519074 0.515757 0.513263 
0.503277 0.510786 0.516667 0.519476 0.521693 0.523712 0.525682 0.52777 0.53114 
0.533237 0.534225 0.53547 0.536708 0.536206 0.535045 0.535613 0.535104 0.534414 
0.53379 0.534945 0.535489 0.534543 0.533458 0.530258 0.527301 0.525035 0.524152 
0.520813 0.515786 0.512285 0.498539 0.507155 0.508217 0.509891 0.51019 0.510831 
0.5115 0.51217 0.512946 0.514582 0.514779 0.514884 0.515466 0.515946 0.51541 
0.514945 0.515837 0.514932 0.514357 0.513948 0.514913 0.514903 0.514326 0.514492 
0.512849 0.512068 0.511481 0.511676 0.509442 0.506664 0.502659 0.502655 0.502647 
0.502641 0.502636 0.502632 0.502629 0.502626 0.502623 0.502622 0.502622 0.502624 
0.502627 0.502631 0.502637 0.502641 0.502645 0.502649 0.502652 0.502653 0.502654 
0.502655 0.502657 0.502658 0.50266 0.502662 0.502664 0.502667 0.502672 0.502675 
0.502656 0.502654 0.502648 0.502644 0.50264 0.502636 0.502633 0.502631 0.502629 
0.502628 0.502628 0.502629 0.502631 0.502635 0.502639 0.502642 0.502646 0.502649 
0.502651 0.502653 0.502654 0.502656 0.502657 0.502659 0.502661 0.502662 0.502665 
0.502667 0.50267 0.502672 0.502655 0.502654 0.50265 0.502647 0.502644 0.502642 
0.502639 0.502637 0.502636 0.502635 0.502635 0.502636 0.502638 0.502641 0.502644 
0.502647 0.502649 0.502652 0.502654 0.502656 0.502657 0.502659 0.50266 0.502662 
0.502663 0.502665 0.502667 0.502668 0.502671 0.502671 0.502656 0.502655 0.502653 
0.502651 0.502648 0.502646 0.502644 0.502643 0.502642 0.502641 0.502642 0.502642 
0.502644 0.502646 0.502648 0.50265 0.502653 0.502655 0.502657 0.502658 0.50266 
0.502661 0.502663 0.502664 0.502666 0.502667 0.502668 0.50267 0.502671 0.502672 
0.502657 0.502657 0.502655 0.502654 0.502652 0.50265 0.502649 0.502648 0.502647 
0.502647 0.502647 0.502648 0.502649 0.50265 0.502652 0.502654 0.502656 0.502658 
0.50266 0.502661 0.502663 0.502664 0.502665 0.502667 0.502668 0.502669 0.50267 
0.502671 0.502672 0.502673 0.502659 0.502659 0.502658 0.502657 0.502656 0.502655 
0.502654 0.502653 0.502652 0.502652 0.502652 0.502653 0.502654 0.502655 0.502656 
0.502658 0.50266 0.502661 0.502663 0.502664 0.502665 0.502667 0.502668 0.502669 
0.50267 0.502671 0.502672 0.502673 0.502674 0.502674 0.502662 0.502662 0.502661 
0.50266 0.502659 0.502659 0.502658 0.502657 0.502657 0.502657 0.502657 0.502658 
0.502658 0.502659 0.502661 0.502662 0.502663 0.502665 0.502666 0.502667 0.502668 
0.502669 0.50267 0.502672 0.502673 0.502673 0.502674 0.502675 0.502676 0.502676 
0.502665 0.502665 0.502664 0.502664 0.502663 0.502663 0.502662 0.502662 0.502661 
0.502661 0.502662 0.502662 0.502663 0.502663 0.502665 0.502666 0.502667 0.502668 
0.502669 0.50267 0.502671 0.502672 0.502673 0.502674 0.502675 0.502676 0.502677 
0.502677 0.502678 0.502678 0.502668 0.502668 0.502668 0.502667 0.502667 0.502666 
0.502666 0.502666 0.502666 0.502666 0.502666 0.502666 0.502667 0.502667 0.502668 
0.502669 0.50267 0.502671 0.502672 0.502673 0.502674 0.502675 0.502676 0.502677 
0.502678 0.502678 0.502679 0.502679 0.50268 0.50268 0.502671 0.502671 0.502671 
0.502671 0.50267 0.50267 0.50267 0.50267 0.50267 0.50267 0.50267 0.50267 
0.502671 0.502671 0.502672 0.502673 0.502674 0.502675 0.502675 0.502676 0.502677 
0.502678 0.502679 0.502679 0.50268 0.502681 0.502681 0.502682 0.502682 0.502682 
0.502674 0.502674 0.502674 0.502674 0.502674 0.502674 0.502674 0.502674 0.502674 
0.502674 0.502674 0.502674 0.502675 0.502675 0.502676 0.502676 0.502677 0.502678 
0.502679 0.502679 0.50268 0.502681 0.502682 0.502682 0.502683 0.502683 0.502684 
0.502684 0.502684 0.502684 0.502678 0.502678 0.502678 0.502678 0.502678 0.502677 
0.502677 0.502677 0.502677 0.502678 0.502678 0.502678 0.502678 0.502679 0.502679 
0.50268 0.502681 0.502681 0.502682 0.502683 0.502683 0.502684 0.502685 0.502685 
0.502686 0.502686 0.502686 0.502687 0.502687 0.502687 0.502681 0.502681 0.502681 
0.502681 0.502681 0.502681 0.502681 0.502681 0.502681 0.502681 0.502681 0.502682 
0.502682 0.502683 0.502683 0.502683 0.502684 0.502685 0.502685 0.502686 0.502686 
0.502687 0.502687 0.502688 0.502688 0.502689 0.502689 0.502689 0.50269 0.50269 
0.502685 0.502685 0.502685 0.502685 0.502685 0.502685 0.502685 0.502685 0.502685 
0.502685 0.502685 0.502685 0.502686 0.502686 0.502687 0.502687 0.502687 0.502688 
0.502688 0.502689 0.502689 0.50269 0.50269 0.502691 0.502691 0.502692 0.502692 
0.502692 0.502692 0.502692 0.502688 0.502688 0.502688 0.502688 0.502688 0.502688 
0.502688 0.502688 0.502688 0.502689 0.502689 0.502689 0.502689 0.50269 0.50269 
0.50269 0.502691 0.502691 0.502692 0.502692 0.502693 0.502693 0.502693 0.502694 
0.502694 0.502694 0.502695 0.502695 0.502695 0.502695 0.502692 0.502692 0.502692 
0.502692 0.502692 0.502692 0.502692 0.502692 0.502692 0.502692 0.502692 0.502693 
0.502693 0.502693 0.502693 0.502694 0.502694 0.502695 0.502695 0.502695 0.502696 
0.502696 0.502696 0.502697 0.502697 0.502697 0.502698 0.502698 0.502698 0.502698 
0.502695 0.502695 0.502695 0.502695 0.502695 0.502695 0.502695 0.502695 0.502696 
0.502696 0.502696 0.502696 0.502696 0.502697 0.502697 0.502697 0.502698 0.502698 
0.502698 0.502699 0.502699 0.502699 0.5027 0.5027 0.5027 0.5027 0.502701 
0.502701 0.502701 0.502701 0.502698 0.502699 0.502699 0.502699 0.502699 0.502699 
0.502699 0.502699 0.502699 0.502699 0.502699 0.502699 0.5027 0.5027 0.5027 
0.502701 0.502701 0.502701 0.502701 0.502702 0.502702 0.502702 0.502703 0.502703 
0.502703 0.502703 0.502703 0.502704 0.502704 0.502704 0.502702 0.502702 0.502702 
0.502702 0.502702 0.502702 0.502702 0.502702 0.502702 0.502703 0.502703 0.502703 
0.502703 0.502703 0.502704 0.502704 0.502704 0.502704 0.502705 0.502705 0.502705 
0.502706 0.502706 0.502706 0.502706 0.502706 0.502706 0.502707 0.502707 0.502707 
0.502705 0.502705 0.502705 0.502706 0.502706 0.502706 0.502706 0.502706 0.502706 
0.502706 0.502706 0.502706 0.502707 0.502707 0.502707 0.502707 0.502707 0.502708 
0.502708 0.502708 0.502708 0.502709 0.502709 0.502709 0.502709 0.502709 0.50271 
0.50271 0.50271 0.50271 0.502709 0.502709 0.502709 0.502709 0.502709 0.502709 
0.502709 0.502709 0.502709 0.50271 0.50271 0.50271 0.50271 0.50271 0.50271 
0.502711 0.502711 0.502711 0.502711 0.502711 0.502712 0.502712 0.502712 0.502712 
0.502712 0.502712 0.502713 0.502713 0.502713 0.502713 0.502712 0.502712 0.502712 
0.502712 0.502712 0.502713 0.502713 0.502713 0.502713 0.502713 0.502713 0.502713 
0.502713 0.502714 0.502714 0.502714 0.502714 0.502714 0.502714 0.502715 0.502715 
0.502715 0.502715 0.502715 0.502715 0.502716 0.502716 0.502716 0.502716 0.502716 
0.502716 0.502716 0.502716 0.502716 0.502716 0.502716 0.502716 0.502716 0.502716 
0.502716 0.502716 0.502717 0.502717 0.502717 0.502717 0.502717 0.502717 0.502718 
0.502718 0.502718 0.502718 0.502718 0.502718 0.502718 0.502719 0.502719 0.502719 
0.502719 0.502719 0.502719 0.502719 0.502719 0.502719 0.502719 0.502719 0.502719 
0.502719 0.50272 0.50272 0.50272 0.50272 0.50272 0.50272 0.50272 0.50272 
0.502721 0.502721 0.502721 0.502721 0.502721 0.502721 0.502721 0.502722 0.502722 
0.502722 0.502722 0.502722 0.502722 0.502722 0.502722 0.502723 0.502723 0.502723 
0.502723 0.502723 0.502723 0.502723 0.502723 0.502723 0.502723 0.502723 0.502723 
0.502723 0.502724 0.502724 0.502724 0.502724 0.502724 0.502724 0.502724 0.502725 
0.502725 0.502725 0.502725 0.502725 0.502725 0.502725 0.502725 0.502725 0.502725 
0.502726 0.502726 0.502726 0.502726 0.502726 0.502726 0.502726 0.502726 0.502726 
0.502726 0.502727 0.502727 0.502727 0.502727 0.502727 0.502727 0.502727 0.502727 
0.502728 0.502728 0.502728 0.502728 0.502728 0.502728 0.502728 0.502728 0.502728 
0.502728 0.502728 0.502728 0.502729 0.502729 0.502729 0.502729 0.502729 0.50273 
0.50273 0.50273 0.50273 0.50273 0.50273 0.50273 0.50273 0.50273 0.50273 
0.50273 0.502731 0.502731 0.502731 0.502731 0.502731 0.502731 0.502731 0.502731 
0.502731 0.502731 0.502731 0.502731 0.502731 0.502731 0.502733 0.502733 0.502733 
0.502733 0.502733 0.502733 0.502733 0.502733 0.502733 0.502733 0.502733 0.502733 
0.502734 0.502734 0.502734 0.502734 0.502734 0.502734 0.502734 0.502734 0.502734 
0.502734 0.502734 0.502734 0.502735 0.502735 0.502735 0.502735 0.502735 0.502735 
0.502736 0.502736 0.502736 0.502736 0.502736 0.502736 0.502736 0.502736 0.502737 
0.502737 0.502737 0.502737 0.502737 0.502737 0.502737 0.502737 0.502737 0.502737 
0.502737 0.502737 0.502738 0.502738 0.502738 0.502738 0.502738 0.502738 0.502738 
0.502738 0.502738 0.502738 0.502739 0.50274 0.50274 0.50274 0.50274 0.50274 
0.50274 0.50274 0.50274 0.50274 0.50274 0.50274 0.50274 0.50274 0.50274 
0.50274 0.502741 0.502741 0.502741 0.502741 0.502741 0.502741 0.502741 0.502741 
0.502741 0.502741 0.502741 0.502741 0.502741 0.502741 0.502743 0.502743 0.502743 
0.502743 0.502743 0.502743 0.502743 0.502743 0.502743 0.502743 0.502743 0.502743 
0.502743 0.502744 0.502744 0.502744 0.502744 0.502744 0.502744 0.502744 0.502744 
0.502744 0.502744 0.502744 0.502744 0.502744 0.502744 0.502744 0.502744 0.502744 
0.502746 0.502746 0.502746 0.502746 0.502746 0.502746 0.502746 0.502747 0.502747 
0.502747 0.502747 0.502747 0.502747 0.502747 0.502747 0.502747 0.502747 0.502747 
0.502747 0.502747 0.502747 0.502747 0.502747 0.502747 0.502747 0.502747 0.502748 
0.502747 0.502748 0.502747 0.50275 0.50275 0.50275 0.50275 0.50275 0.50275 
0.50275 0.50275 0.50275 0.50275 0.50275 0.50275 0.50275 0.50275 0.50275 
0.50275 0.50275 0.50275 0.502751 0.502751 0.502751 0.502751 0.502751 0.502751 
0.502751 0.502751 0.502751 0.502751 0.502751 0.502751 0.502753 0.502753 0.502753 
0.502753 0.502753 0.502753 0.502753 0.502753 0.502753 0.502753 0.502753 0.502753 
0.502753 0.502754 0.502754 0.502754 0.502754 0.502754 0.502754 0.502754 0.502754 
0.502754 0.502754 0.502754 0.502754 0.502754 0.502754 0.502754 0.502754 0.502754 
0.502756 0.502756 0.502756 0.502756 0.502756 0.502756 0.502757 0.502757 0.502757 
0.502757 0.502757 0.502757 0.502757 0.502757 0.502757 0.502757 0.502757 0.502757 
0.502757 0.502757 0.502757 0.502757 0.502757 0.502757 0.502757 0.502757 0.502757 
0.502757 0.502757 0.502757 0.50276 0.50276 0.50276 0.50276 0.50276 0.50276 
0.50276 0.50276 0.50276 0.50276 0.50276 0.50276 0.50276 0.50276 0.50276 
0.50276 0.50276 0.50276 0.50276 0.50276 0.50276 0.50276 0.502761 0.502761 
0.502761 0.502761 0.502761 0.502761 0.502761 0.50276 0.502763 0.502763 0.502763 
0.502763 0.502763 0.502763 0.502763 0.502763 0.502763 0.502763 0.502763 0.502763 
0.502763 0.502764 0.502764 0.502764 0.502764 0.502764 0.502764 0.502764 0.502764 
0.502764 0.502764 0.502764 0.502764 0.502764 0.502764 0.502764 0.502764 0.502764 
0.502766 0.502766 0.502766 0.502766 0.502766 0.502767 0.502767 0.502767 0.502767 
0.502767 0.502767 0.502767 0.502767 0.502767 0.502767 0.502767 0.502767 0.502767 
0.502767 0.502767 0.502767 0.502767 0.502767 0.502767 0.502767 0.502767 0.502767 
0.502767 0.502767 0.502767 0.50277 0.50277 0.50277 0.50277 0.50277 0.50277 
0.50277 0.50277 0.50277 0.50277 0.50277 0.50277 0.50277 0.50277 0.50277 
0.50277 0.50277 0.50277 0.50277 0.50277 0.50277 0.50277 0.50277 0.50277 
0.50277 0.50277 0.50277 0.50277 0.50277 0.50277 0.502773 0.502773 0.502773 
0.502773 0.502773 0.502773 0.502773 0.502773 0.502773 0.502773 0.502773 0.502773 
0.502773 0.502773 0.502774 0.502774 0.502774 0.502774 0.502774 0.502774 0.502774 
0.502774 0.502774 0.502774 0.502774 0.502774 0.502774 0.502774 0.502774 0.502774 
0.502776 0.502776 0.502776 0.502777 0.502777 0.502777 0.502777 0.502777 0.502777 
0.502777 0.502777 0.502777 0.502777 0.502777 0.502777 0.502777 0.502777 0.502777 
0.502777 0.502777 0.502777 0.502777 0.502777 0.502777 0.502777 0.502777 0.502777 
0.502777 0.502777 0.502777 0.50278 0.50278 0.50278 0.50278 0.50278 0.50278 
0.50278 0.50278 0.50278 0.50278 0.50278 0.50278 0.50278 0.50278 0.50278 
0.50278 0.50278 0.50278 0.50278 0.50278 0.50278 0.50278 0.50278 0.50278 
0.50278 0.50278 0.50278 0.50278 0.50278 0.50278 0.502783 0.502783 0.502783 
0.502783 0.502783 0.502783 0.502783 0.502783 0.502783 0.502783 0.502783 0.502783 
0.502783 0.502783 0.502783 0.502783 0.502784 0.502784 0.502784 0.502784 0.502784 
0.502784 0.502784 0.502784 0.502784 0.502784 0.502784 0.502784 0.502784 0.502783 
0.502786 0.502787 0.502786 0.502787 0.502787 0.502787 0.502787 0.502787 0.502787 
0.502787 0.502787 0.502787 0.502787 0.502787 0.502787 0.502787 0.502787 0.502787 
0.502787 0.502787 0.502787 0.502787 0.502787 0.502787 0.502787 0.502787 0.502787 
0.502787 0.502787 0.502787 0.50279 0.50279 0.50279 0.50279 0.50279 0.50279 
0.50279 0.50279 0.50279 0.50279 0.50279 0.50279 0.50279 0.50279 0.50279 
0.50279 0.50279 0.50279 0.50279 0.50279 0.50279 0.50279 0.50279 0.50279 
0.50279 0.50279 0.50279 0.50279 0.50279 0.50279 0.502793 0.502793 0.502793 
0.502793 0.502793 0.502793 0.502793 0.502793 0.502793 0.502793 0.502793 0.502793 
0.502793 0.502793 0.502793 0.502793 0.502793 0.502793 0.502793 0.502793 0.502793 
0.502793 0.502793 0.502793 0.502793 0.502793 0.502793 0.502793 0.502793 0.502793 
0.502796 0.502797 0.502796 0.502797 0.502797 0.502797 0.502797 0.502797 0.502797 
0.502797 0.502797 0.502797 0.502797 0.502797 0.502797 0.502797 0.502797 0.502797 
0.502797 0.502797 0.502797 0.502797 0.502797 0.502797 0.502797 0.502797 0.502797 
0.502797 0.502797 0.502797 0.5028 0.5028 0.5028 0.5028 0.5028 0.5028 
0.5028 0.5028 0.5028 0.5028 0.5028 0.5028 0.5028 0.5028 0.5028 
0.5028 0.5028 0.5028 0.5028 0.5028 0.5028 0.5028 0.5028 0.5028 
0.5028 0.5028 0.5028 0.5028 0.5028 0.5028 0.502803 0.502803 0.502803 
0.502803 0.502803 0.502803 0.502803 0.502803 0.502803 0.502803 0.502803 0.502803 
0.502803 0.502803 0.502803 0.502803 0.502803 0.502803 0.502803 0.502803 0.502804 
0.502803 0.502803 0.502803 0.502803 0.502803 0.502803 0.502803 0.502803 0.502803 
0.502806 0.502807 0.502806 0.502807 0.502807 0.502807 0.502807 0.502807 0.502807 
0.502807 0.502807 0.502807 0.502807 0.502807 0.502807 0.502807 0.502807 0.502807 
0.502807 0.502807 0.502807 0.502807 0.502807 0.502807 0.502807 0.502807 0.502807 
0.502807 0.502807 0.502807 0.50281 0.50281 0.50281 0.50281 0.50281 0.50281 
0.50281 0.50281 0.50281 0.50281 0.50281 0.50281 0.50281 0.50281 0.50281 
0.50281 0.50281 0.50281 0.50281 0.50281 0.50281 0.50281 0.50281 0.50281 
0.50281 0.50281 0.50281 0.50281 0.50281 0.50281 0.502813 0.502813 0.502813 
0.502813 0.502813 0.502813 0.502813 0.502813 0.502813 0.502813 0.502813 0.502813 
0.502813 0.502813 0.502813 0.502813 0.502813 0.502813 0.502813 0.502813 0.502813 
0.502813 0.502813 0.502813 0.502813 0.502813 0.502813 0.502813 0.502813 0.502813 
0.502816 0.502817 0.502817 0.502817 0.502817 0.502817 0.502817 0.502817 0.502817 
0.502817 0.502817 0.502817 0.502817 0.502817 0.502817 0.502817 0.502817 0.502817 
0.502817 0.502817 0.502817 0.502817 0.502817 0.502817 0.502817 0.502817 0.502817 
0.502817 0.502817 0.502817 0.50282 0.50282 0.50282 0.50282 0.50282 0.50282 
0.50282 0.50282 0.50282 0.50282 0.50282 0.50282 0.50282 0.50282 0.50282 
0.50282 0.50282 0.50282 0.50282 0.50282 0.50282 0.50282 0.50282 0.50282 
0.50282 0.50282 0.50282 0.50282 0.50282 0.50282 0.502823 0.502823 0.502823 
0.502823 0.502823 0.502823 0.502823 0.502823 0.502823 0.502823 0.502823 0.502823 
0.502823 0.502823 0.502823 0.502823 0.502823 0.502823 0.502823 0.502823 0.502823 
0.502823 0.502823 0.502823 0.502823 0.502823 0.502823 0.502823 0.502823 0.502823 
0.502827 0.502827 0.502827 0.502827 0.502827 0.502827 0.502827 0.502827 0.502827 
0.502827 0.502827 0.502827 0.502827 0.502827 0.502827 0.502827 0.502827 0.502827 
0.502827 0.502827 0.502827 0.502827 0.502827 0.502827 0.502827 0.502827 0.502827 
0.502827 0.502827 0.502827 0.50283 0.50283 0.50283 0.50283 0.50283 0.50283 
0.50283 0.50283 0.50283 0.50283 0.50283 0.50283 0.50283 0.50283 0.50283 
0.50283 0.50283 0.50283 0.50283 0.50283 0.50283 0.50283 0.50283 0.50283 
0.50283 0.50283 0.50283 0.50283 0.50283 0.50283 0.502833 0.502833 0.502833 
0.502833 0.502833 0.502833 0.502833 0.502833 0.502833 0.502833 0.502833 0.502833 
0.502833 0.502833 0.502833 0.502833 0.502833 0.502833 0.502833 0.502833 0.502833 
0.502833 0.502833 0.502833 0.502833 0.502833 0.502833 0.502833 0.502833 0.502833 
0.502837 0.502837 0.502837 0.502837 0.502837 0.502837 0.502837 0.502837 0.502837 
0.502837 0.502837 0.502837 0.502837 0.502837 0.502837 0.502837 0.502837 0.502837 
0.502837 0.502837 0.502837 0.502837 0.502837 0.502837 0.502837 0.502837 0.502837 
0.502837 0.502837 0.502837 0.50284 0.50284 0.50284 0.50284 0.50284 0.50284 
0.50284 0.50284 0.50284 0.50284 0.50284 0.50284 0.50284 0.50284 0.50284 
0.50284 0.50284 0.50284 0.50284 0.50284 0.50284 0.50284 0.50284 0.50284 
0.50284 0.50284 0.50284 0.50284 0.50284 0.50284 0.502843 0.502843 0.502843 
0.502843 0.502843 0.502843 0.502843 0.502843 0.502843 0.502843 0.502843 0.502843 
0.502843 0.502843 0.502843 0.502843 0.502843 0.502843 0.502843 0.502843 0.502843 
0.502843 0.502843 0.502843 0.502843 0.502843 0.502843 0.502843 0.502843 0.502843 
0.502847 0.502847 0.502847 0.502847 0.502847 0.502847 0.502847 0.502847 0.502847 
0.502847 0.502847 0.502847 0.502847 0.502847 0.502847 0.502847 0.502847 0.502847 
0.502847 0.502847 0.502847 0.502847 0.502847 0.502847 0.502847 0.502847 0.502847 
0.502847 0.502847 0.502847 0.50285 0.50285 0.50285 0.50285 0.50285 0.50285 
0.50285 0.50285 0.50285 0.50285 0.50285 0.50285 0.50285 0.50285 0.50285 
0.50285 0.50285 0.50285 0.50285 0.50285 0.50285 0.50285 0.50285 0.50285 
0.50285 0.50285 0.50285 0.50285 0.50285 0.50285 0.502853 0.502853 0.502853 
0.502853 0.502853 0.502853 0.502853 0.502853 0.502853 0.502853 0.502853 0.502853 
0.502853 0.502853 0.502853 0.502853 0.502853 0.502853 0.502853 0.502853 0.502853 
0.502853 0.502853 0.502853 0.502853 0.502853 0.502853 0.502853 0.502853 0.502853 
0.502857 0.502857 0.502857 0.502857 0.502857 0.502857 0.502857 0.502857 0.502857 
0.502857 0.502857 0.502857 0.502857 0.502857 0.502857 0.502857 0.502857 0.502857 
0.502857 0.502857 0.502857 0.502857 0.502857 0.502857 0.502857 0.502857 0.502857 
0.502857 0.502857 0.502857 0.50286 0.50286 0.50286 0.50286 0.50286 0.50286 
0.50286 0.50286 0.50286 0.50286 0.50286 0.50286 0.50286 0.50286 0.50286 
0.50286 0.50286 0.50286 0.50286 0.50286 0.50286 0.50286 0.50286 0.50286 
0.50286 0.50286 0.50286 0.50286 0.50286 0.50286 0.502863 0.502863 0.502863 
0.502863 0.502863 0.502863 0.502863 0.502863 0.502863 0.502863 0.502863 0.502863 
0.502863 0.502863 0.502863 0.502863 0.502863 0.502863 0.502863 0.502863 0.502863 
0.502863 0.502863 0.502863 0.502863 0.502863 0.502864 0.502863 0.502864 0.502863 
0.502867 0.502867 0.502867 0.502867 0.502867 0.502867 0.502867 0.502867 0.502867 
0.502867 0.502867 0.502867 0.502867 0.502867 0.502867 0.502867 0.502867 0.502867 
0.502867 0.502867 0.502867 0.502867 0.502867 0.502867 0.502867 0.502867 0.502867 
0.502867 0.502867 0.502867 0.50287 0.50287 0.50287 0.50287 0.50287 0.50287 
0.50287 0.50287 0.50287 0.50287 0.50287 0.50287 0.50287 0.50287 0.50287 
0.50287 0.50287 0.50287 0.50287 0.50287 0.50287 0.50287 0.50287 0.50287 
0.50287 0.50287 0.50287 0.50287 0.50287 0.50287 0.502873 0.502874 0.502873 
0.502874 0.502873 0.502874 0.502873 0.502873 0.502873 0.502873 0.502873 0.502873 
0.502873 0.502873 0.502873 0.502873 0.502873 0.502873 0.502873 0.502873 0.502873 
0.502873 0.502873 0.502873 0.502874 0.502874 0.502874 0.502874 0.502874 0.502873 
0.502877 0.502877 0.502877 0.502877 0.502877 0.502877 0.502877 0.502877 0.502877 
0.502877 0.502877 0.502877 0.502877 0.502877 0.502877 0.502877 0.502877 0.502877 
0.502877 0.502877 0.502877 0.502877 0.502877 0.502877 0.502877 0.502877 0.502877 
0.502877 0.502877 0.502877 0.50288 0.50288 0.50288 0.50288 0.50288 0.50288 
0.50288 0.50288 0.50288 0.50288 0.50288 0.50288 0.50288 0.50288 0.50288 
0.50288 0.50288 0.50288 0.50288 0.50288 0.50288 0.50288 0.50288 0.50288 
0.50288 0.50288 0.50288 0.50288 0.50288 0.50288 0.502884 0.502884 0.502884 
0.502884 0.502884 0.502884 0.502884 0.502883 0.502883 0.502883 0.502883 0.502883 
0.502883 0.502883 0.502883 0.502883 0.502883 0.502883 0.502883 0.502883 0.502883 
0.502883 0.502884 0.502884 0.502884 0.502884 0.502884 0.502884 0.502884 0.502884 
0.502887 0.502887 0.502887 0.502887 0.502887 0.502887 0.502887 0.502887 0.502887 
0.502887 0.502887 0.502887 0.502887 0.502887 0.502887 0.502887 0.502887 0.502887 
0.502887 0.502887 0.502887 0.502887 0.502887 0.502887 0.502887 0.502887 0.502887 
0.502887 0.502887 0.502887 0.502891 0.502891 0.50289 0.502891 0.50289 0.50289 
0.50289 0.50289 0.50289 0.50289 0.50289 0.50289 0.50289 0.50289 0.50289 
0.50289 0.50289 0.50289 0.50289 0.50289 0.50289 0.50289 0.50289 0.50289 
0.50289 0.50289 0.502891 0.502891 0.502891 0.502891 0.502894 0.502894 0.502894 
0.502894 0.502894 0.502894 0.502894 0.502894 0.502893 0.502893 0.502893 0.502893 
0.502893 0.502893 0.502893 0.502893 0.502893 0.502893 0.502893 0.502893 0.502893 
0.502893 0.502894 0.502894 0.502894 0.502894 0.502894 0.502894 0.502894 0.502894 
0.502897 0.502898 0.502897 0.502897 0.502897 0.502897 0.502897 0.502897 0.502897 
0.502897 0.502897 0.502896 0.502896 0.502896 0.502896 0.502896 0.502896 0.502896 
0.502896 0.502897 0.502897 0.502897 0.502897 0.502897 0.502897 0.502897 0.502897 
0.502897 0.502898 0.502897 0.502901 0.502901 0.502901 0.502901 0.502901 0.502901 
0.5029 0.5029 0.5029 0.5029 0.5029 0.5029 0.5029 0.5029 0.5029 
0.5029 0.5029 0.5029 0.5029 0.5029 0.5029 0.5029 0.5029 0.5029 
0.502901 0.502901 0.502901 0.502901 0.502901 0.502901 0.502904 0.502905 0.502904 
0.502904 0.502904 0.502904 0.502904 0.502904 0.502903 0.502903 0.502903 0.502903 
0.502903 0.502903 0.502903 0.502903 0.502903 0.502903 0.502903 0.502903 0.502903 
0.502903 0.502904 0.502904 0.502904 0.502904 0.502904 0.502904 0.502905 0.502905 
0.502908 0.502908 0.502908 0.502908 0.502908 0.502907 0.502907 0.502907 0.502907 
0.502906 0.502906 0.502906 0.502906 0.502906 0.502906 0.502906 0.502906 0.502906 
0.502906 0.502906 0.502906 0.502907 0.502907 0.502907 0.502907 0.502908 0.502908 
0.502908 0.502908 0.502908 0.502912 0.502912 0.502912 0.502911 0.502911 0.502911 
0.50291 0.50291 0.50291 0.50291 0.502909 0.502909 0.502909 0.502909 0.502909 
0.502909 0.502909 0.502909 0.502909 0.502909 0.50291 0.50291 0.50291 0.50291 
0.502911 0.502911 0.502911 0.502912 0.502912 0.502912 0.502916 0.502916 0.502915 
0.502915 0.502915 0.502914 0.502914 0.502913 0.502913 0.502913 0.502913 0.502912 
0.502912 0.502912 0.502912 0.502912 0.502912 0.502912 0.502912 0.502913 0.502913 
0.502913 0.502913 0.502914 0.502914 0.502915 0.502915 0.502915 0.502916 0.502916 
0.502919 0.502919 0.502919 0.502919 0.502918 0.502918 0.502917 0.502917 0.502916 
0.502916 0.502916 0.502915 0.502915 0.502915 0.502915 0.502915 0.502915 0.502915 
0.502915 0.502916 0.502916 0.502916 0.502917 0.502917 0.502918 0.502918 0.502919 
0.502919 0.502919 0.502919 0.502924 0.502923 0.502923 0.502922 0.502922 0.502921 
0.50292 0.50292 0.502919 0.502919 0.502919 0.502918 0.502918 0.502918 0.502918 
0.502918 0.502918 0.502918 0.502918 0.502919 0.502919 0.502919 0.50292 0.502921 
0.502921 0.502922 0.502922 0.502923 0.502923 0.502924 0.502928 0.502928 0.502927 
0.502926 0.502925 0.502924 0.502924 0.502923 0.502923 0.502922 0.502922 0.502921 
0.502921 0.502921 0.502921 0.502921 0.502921 0.502921 0.502921 0.502922 0.502922 
0.502923 0.502923 0.502924 0.502924 0.502925 0.502926 0.502927 0.502928 0.502928 
0.502933 0.502932 0.502931 0.50293 0.502929 0.502928 0.502927 0.502926 0.502926 
0.502925 0.502925 0.502924 0.502924 0.502924 0.502924 0.502924 0.502924 0.502924 
0.502924 0.502925 0.502925 0.502926 0.502926 0.502927 0.502928 0.502929 0.50293 
0.502931 0.502932 0.502933 0.502938 0.502937 0.502935 0.502934 0.502932 0.502931 
0.50293 0.502929 0.502928 0.502928 0.502927 0.502927 0.502927 0.502926 0.502926 
0.502926 0.502926 0.502927 0.502927 0.502927 0.502928 0.502928 0.502929 0.50293 
0.502931 0.502932 0.502934 0.502935 0.502937 0.502938 0.502944 0.502942 0.50294 
0.502937 0.502936 0.502934 0.502933 0.502932 0.502931 0.50293 0.50293 0.50293 
0.502929 0.502929 0.502929 0.502929 0.502929 0.502929 0.50293 0.50293 0.50293 
0.502931 0.502932 0.502933 0.502934 0.502936 0.502937 0.50294 0.502942 0.502944 
0.502955 0.502947 0.502943 0.50294 0.502938 0.502937 0.502935 0.502934 0.502934 
0.502933 0.502932 0.502932 0.502932 0.502932 0.502931 0.502931 0.502932 0.502932 
0.502932 0.502932 0.502933 0.502934 0.502934 0.502935 0.502937 0.502938 0.50294 
0.502943 0.502947 0.502955 0.635614 0.634272 0.633123 0.633347 0.635859 0.636505 
0.635672 0.644006 0.650618 0.64593 0.636307 0.629084 0.622643 0.616612 0.615524 
0.619668 0.623591 0.624827 0.622776 0.619954 0.620948 0.625062 0.628371 0.631839 
0.635095 0.63644 0.635111 0.633546 0.63079 0.626913 0.654094 0.653955 0.652556 
0.651694 0.65242 0.652849 0.654254 0.660983 0.666509 0.663922 0.656378 0.649367 
0.643246 0.637867 0.635726 0.63727 0.63954 0.640316 0.638888 0.636922 0.637453 
0.640624 0.64425 0.647805 0.650726 0.652045 0.651671 0.650981 0.649263 0.646326 
0.670564 0.671515 0.670322 0.668893 0.66833 0.668477 0.670774 0.676676 0.681772 
0.681124 0.675899 0.66992 0.664399 0.659308 0.655837 0.654711 0.654926 0.654989 
0.653891 0.652387 0.652618 0.655312 0.6591 0.662601 0.664998 0.666125 0.666511 
0.666841 0.666371 0.664347 0.684517 0.686294 0.6855 0.683809 0.682265 0.681951 
0.684499 0.690129 0.695477 0.696684 0.69361 0.688999 0.684367 0.679426 0.674422 
0.670557 0.668608 0.667937 0.667007 0.665619 0.665496 0.667986 0.672033 0.67546 
0.677185 0.677932 0.678908 0.680347 0.681237 0.680247 0.696063 0.698407 0.698041 
0.696304 0.693873 0.692887 0.695452 0.70122 0.707355 0.710434 0.709181 0.70592 
0.702435 0.697718 0.691045 0.684301 0.680205 0.679006 0.678253 0.676675 0.67596 
0.678415 0.683015 0.686471 0.687336 0.687468 0.688953 0.691571 0.693915 0.69402 
0.705164 0.707778 0.707814 0.706264 0.702872 0.70098 0.703561 0.709763 0.717039 
0.722107 0.722213 0.720006 0.717915 0.713702 0.705292 0.695448 0.689271 0.687994 
0.687607 0.685555 0.683817 0.686353 0.691978 0.695694 0.695432 0.694665 0.696692 
0.700541 0.704377 0.70554 0.711685 0.714135 0.714557 0.713562 0.709006 0.705941 
0.708716 0.71553 0.724058 0.73139 0.73222 0.730499 0.730047 0.72681 0.716713 
0.70351 0.695312 0.694683 0.694983 0.692221 0.688787 0.691495 0.698771 0.703123 
0.701384 0.69938 0.702168 0.707243 0.712477 0.714536 0.714638 0.716065 0.717008 
0.717181 0.711156 0.706607 0.709954 0.717464 0.726935 0.737131 0.737892 0.735822 
0.737161 0.735536 0.724002 0.707256 0.697 0.698032 0.699318 0.695777 0.689675 
0.692603 0.702214 0.70778 0.704191 0.700545 0.70464 0.710793 0.717 0.7198 
0.74 0.74 0.74 0.74 0.740001 0.740001 0.740001 0.740001 0.740001 
0.74 0.74 0.740001 0.740001 0.740001 0.740001 0.740001 0.740001 0.740001 
0.740001 0.740001 0.740001 0.740001 0.740001 0.74 0.74 0.74 0.74 
0.74 0.74 0.74 0.740001 0.740001 0.740001 0.740001 0.740001 0.740001 
0.740001 0.740001 0.740001 0.740001 0.740001 0.740001 0.740001 0.740001 0.740001 
0.740001 0.740001 0.740001 0.740001 0.740001 0.740001 0.740001 0.740001 0.740001 
0.740001 0.740001 0.740001 0.740001 0.740001 0.740001 0.740002 0.740002 0.740002 
0.740002 0.740002 0.740002 0.740002 0.740002 0.740002 0.740002 0.740002 0.740002 
0.740002 0.740002 0.740002 0.740002 0.740002 0.740002 0.740002 0.740002 0.740002 
0.740002 0.740002 0.740002 0.740002 0.740002 0.740002 0.740002 0.740002 0.740002 
0.740003 0.740003 0.740003 0.740003 0.740003 0.740003 0.740003 0.740003 0.740003 
0.740003 0.740003 0.740003 0.740003 0.740003 0.740003 0.740003 0.740003 0.740003 
0.740003 0.740003 0.740003 0.740003 0.740003 0.740003 0.740003 0.740003 0.740003 
0.740003 0.740003 0.740003 0.740004 0.740004 0.740004 0.740004 0.740004 0.740004 
0.740004 0.740004 0.740004 0.740004 0.740004 0.740004 0.740004 0.740004 0.740004 
0.740004 0.740004 0.740004 0.740004 0.740004 0.740004 0.740004 0.740004 0.740004 
0.740004 0.740004 0.740004 0.740004 0.740004 0.740004 0.740005 0.740005 0.740005 
0.740005 0.740005 0.740005 0.740005 0.740005 0.740005 0.740005 0.740005 0.740005 
0.740005 0.740005 0.740005 0.740005 0.740005 0.740005 0.740005 0.740005 0.740005 
0.740005 0.740005 0.740005 0.740005 0.740005 0.740005 0.740005 0.740005 0.740005 
0.740006 0.740006 0.740006 0.740006 0.740006 0.740006 0.740006 0.740006 0.740006 
0.740006 0.740006 0.740006 0.740006 0.740006 0.740006 0.740006 0.740006 0.740006 
0.740006 0.740006 0.740006 0.740006 0.740006 0.740006 0.740006 0.740006 0.740006 
0.740006 0.740006 0.740006 0.740007 0.740007 0.740007 0.740007 0.740007 0.740007 
0.740007 0.740007 0.740007 0.740007 0.740007 0.740007 0.740007 0.740007 0.740007 
0.740007 0.740007 0.740007 0.740007 0.740007 0.740007 0.740007 0.740007 0.740007 
0.740007 0.740007 0.740007 0.740007 0.740007 0.740007 0.740008 0.740008 0.740008 
0.740008 0.740008 0.740008 0.740008 0.740008 0.740008 0.740008 0.740008 0.740008 
0.740008 0.740008 0.740008 0.740008 0.740008 0.740008 0.740008 0.740008 0.740008 
0.740008 0.740008 0.740008 0.740008 0.740008 0.740008 0.740008 0.740008 0.740008 
0.740009 0.740009 0.740009 0.740009 0.740009 0.740009 0.740009 0.740009 0.740009 
0.740009 0.740009 0.740009 0.740009 0.740009 0.740009 0.740009 0.740009 0.740009 
0.740009 0.740009 0.740009 0.740009 0.740009 0.740009 0.740009 0.740009 0.740009 
0.740009 0.740009 0.740009 0.74001 0.74001 0.74001 0.74001 0.74001 0.74001 
0.74001 0.74001 0.74001 0.74001 0.74001 0.74001 0.74001 0.74001 0.74001 
0.74001 0.74001 0.74001 0.74001 0.74001 0.74001 0.74001 0.74001 0.74001 
0.74001 0.74001 0.74001 0.74001 0.74001 0.74001 0.740011 0.740011 0.740011 
0.740011 0.740011 0.740011 0.740011 0.740011 0.740011 0.740011 0.740011 0.740011 
0.740011 0.740011 0.740011 0.740011 0.740011 0.740011 0.740011 0.740011 0.740011 
0.740011 0.740011 0.740011 0.740011 0.740011 0.740011 0.740011 0.740011 0.740011 
0.740012 0.740012 0.740012 0.740012 0.740012 0.740012 0.740012 0.740012 0.740012 
0.740012 0.740012 0.740012 0.740012 0.740012 0.740012 0.740012 0.740012 0.740012 
0.740012 0.740012 0.740012 0.740012 0.740012 0.740012 0.740012 0.740012 0.740012 
0.740012 0.740012 0.740012 0.740013 0.740013 0.740013 0.740013 0.740013 0.740013 
0.740013 0.740013 0.740013 0.740013 0.740013 0.740013 0.740013 0.740013 0.740013 
0.740013 0.740013 0.740013 0.740013 0.740013 0.740013 0.740013 0.740013 0.740013 
0.740013 0.740013 0.740013 0.740013 0.740013 0.740013 0.740014 0.740014 0.740014 
0.740014 0.740014 0.740014 0.740014 0.740014 0.740014 0.740014 0.740014 0.740014 
0.740014 0.740014 0.740014 0.740014 0.740014 0.740014 0.740014 0.740014 0.740014 
0.740014 0.740014 0.740014 0.740014 0.740014 0.740014 0.740014 0.740014 0.740014 
0.740015 0.740015 0.740015 0.740015 0.740015 0.740015 0.740015 0.740015 0.740015 
0.740015 0.740015 0.740015 0.740015 0.740015 0.740015 0.740015 0.740015 0.740015 
0.740015 0.740015 0.740015 0.740015 0.740015 0.740015 0.740015 0.740015 0.740015 
0.740015 0.740015 0.740015 0.740016 0.740016 0.740016 0.740016 0.740016 0.740016 
0.740016 0.740016 0.740016 0.740016 0.740016 0.740016 0.740016 0.740016 0.740016 
0.740016 0.740016 0.740016 0.740016 0.740016 0.740016 0.740016 0.740016 0.740016 
0.740016 0.740016 0.740016 0.740016 0.740016 0.740016 0.740017 0.740017 0.740017 
0.740017 0.740017 0.740017 0.740017 0.740017 0.740017 0.740017 0.740017 0.740017 
0.740017 0.740017 0.740017 0.740017 0.740017 0.740017 0.740017 0.740017 0.740017 
0.740017 0.740017 0.740017 0.740017 0.740017 0.740017 0.740017 0.740017 0.740017 
0.740018 0.740018 0.740018 0.740018 0.740018 0.740018 0.740018 0.740018 0.740018 
0.740018 0.740018 0.740018 0.740018 0.740018 0.740018 0.740018 0.740018 0.740018 
0.740018 0.740018 0.740018 0.740018 0.740018 0.740018 0.740018 0.740018 0.740018 
0.740018 0.740018 0.740018 0.740019 0.740019 0.740019 0.740019 0.740019 0.740019 
0.740019 0.740019 0.740019 0.740019 0.740019 0.740019 0.740019 0.740019 0.740019 
0.740019 0.740019 0.740019 0.740019 0.740019 0.740019 0.740019 0.740019 0.740019 
0.740019 0.740019 0.740019 0.740019 0.740019 0.740019 0.74002 0.74002 0.74002 
0.74002 0.74002 0.74002 0.74002 0.74002 0.74002 0.74002 0.74002 0.74002 
0.74002 0.74002 0.74002 0.74002 0.74002 0.74002 0.74002 0.74002 0.74002 
0.74002 0.74002 0.74002 0.74002 0.74002 0.74002 0.74002 0.74002 0.74002 
0.740021 0.740021 0.740021 0.740021 0.740021 0.740021 0.740021 0.740021 0.740021 
0.740021 0.740021 0.740021 0.740021 0.740021 0.740021 0.740021 0.740021 0.740021 
0.740021 0.740021 0.740021 0.740021 0.740021 0.740021 0.740021 0.740021 0.740021 
0.740021 0.740021 0.740021 0.740022 0.740022 0.740022 0.740022 0.740022 0.740022 
0.740022 0.740022 0.740022 0.740022 0.740022 0.740022 0.740022 0.740022 0.740022 
0.740022 0.740022 0.740022 0.740022 0.740022 0.740022 0.740022 0.740022 0.740022 
0.740022 0.740022 0.740022 0.740022 0.740022 0.740022 0.740023 0.740023 0.740023 
0.740023 0.740023 0.740023 0.740023 0.740023 0.740023 0.740023 0.740023 0.740023 
0.740023 0.740023 0.740023 0.740023 0.740023 0.740023 0.740023 0.740023 0.740023 
0.740023 0.740023 0.740023 0.740023 0.740023 0.740023 0.740023 0.740023 0.740023 
0.740024 0.740024 0.740024 0.740024 0.740024 0.740024 0.740024 0.740024 0.740024 
0.740024 0.740024 0.740024 0.740024 0.740024 0.740024 0.740024 0.740024 0.740024 
0.740024 0.740024 0.740024 0.740024 0.740024 0.740024 0.740024 0.740023 0.740023 
0.740023 0.740023 0.740023 0.740025 0.740025 0.740025 0.740025 0.740025 0.740025 
0.740025 0.740025 0.740025 0.740025 0.740025 0.740025 0.740025 0.740025 0.740025 
0.740025 0.740025 0.740025 0.740025 0.740025 0.740025 0.740025 0.740025 0.740025 
0.740025 0.740025 0.740025 0.740025 0.740025 0.740024 0.740025 0.740025 0.740025 
0.740025 0.740025 0.740025 0.740025 0.740025 0.740025 0.740025 0.740025 0.740025 
0.740025 0.740025 0.740025 0.740025 0.740025 0.740025 0.740025 0.740025 0.740025 
0.740025 0.740025 0.740025 0.740025 0.740025 0.740025 0.740025 0.740025 0.740025 
0.740026 0.740026 0.740026 0.740026 0.740026 0.740026 0.740026 0.740026 0.740026 
0.740026 0.740026 0.740026 0.740026 0.740026 0.740026 0.740026 0.740026 0.740026 
0.740026 0.740026 0.740026 0.740026 0.740026 0.740026 0.740026 0.740026 0.740026 
0.740026 0.740026 0.740026 0.740027 0.740027 0.740027 0.740027 0.740027 0.740027 
0.740027 0.740027 0.740027 0.740027 0.740027 0.740027 0.740027 0.740027 0.740027 
0.740027 0.740027 0.740027 0.740027 0.740027 0.740027 0.740027 0.740027 0.740027 
0.740027 0.740027 0.740027 0.740027 0.740027 0.740027 0.740028 0.740028 0.740028 
0.740028 0.740028 0.740028 0.740028 0.740028 0.740028 0.740028 0.740028 0.740028 
0.740028 0.740028 0.740028 0.740028 0.740028 0.740028 0.740028 0.740028 0.740028 
0.740028 0.740028 0.740028 0.740028 0.740028 0.740028 0.740028 0.740028 0.740028 
0.740029 0.740029 0.740029 0.740029 0.740029 0.740029 0.740029 0.740029 0.740029 
0.740029 0.740029 0.740029 0.740029 0.740029 0.740029 0.740029 0.740029 0.740029 
0.740029 0.740029 0.740029 0.740029 0.740029 0.740029 0.740029 0.740029 0.740029 
0.740029 0.740029 0.740029 0.74003 0.74003 0.74003 0.74003 0.74003 0.74003 
0.74003 0.74003 0.74003 0.74003 0.74003 0.74003 0.74003 0.74003 0.74003 
0.74003 0.74003 0.74003 0.74003 0.74003 0.74003 0.74003 0.74003 0.74003 
0.74003 0.74003 0.74003 0.74003 0.74003 0.74003 0.740031 0.740031 0.740031 
0.740031 0.740031 0.740031 0.740031 0.740031 0.740031 0.740031 0.740031 0.740031 
0.740031 0.740031 0.740031 0.740031 0.740031 0.740031 0.740031 0.740031 0.740031 
0.740031 0.740031 0.740031 0.740031 0.740031 0.740031 0.740031 0.740031 0.740031 
0.740032 0.740032 0.740032 0.740032 0.740032 0.740032 0.740032 0.740032 0.740032 
0.740032 0.740032 0.740032 0.740032 0.740032 0.740032 0.740032 0.740032 0.740032 
0.740032 0.740032 0.740032 0.740032 0.740032 0.740032 0.740032 0.740032 0.740032 
0.740032 0.740032 0.740032 0.740033 0.740033 0.740033 0.740033 0.740033 0.740033 
0.740033 0.740033 0.740033 0.740033 0.740033 0.740033 0.740033 0.740033 0.740033 
0.740033 0.740033 0.740033 0.740033 0.740033 0.740033 0.740033 0.740033 0.740033 
0.740033 0.740033 0.740033 0.740033 0.740033 0.740033 0.740034 0.740034 0.740034 
0.740034 0.740034 0.740034 0.740034 0.740034 0.740034 0.740034 0.740034 0.740034 
0.740034 0.740034 0.740034 0.740034 0.740034 0.740034 0.740034 0.740034 0.740034 
0.740034 0.740034 0.740034 0.740034 0.740034 0.740034 0.740034 0.740034 0.740034 
0.740035 0.740035 0.740035 0.740035 0.740035 0.740035 0.740035 0.740035 0.740035 
0.740035 0.740035 0.740035 0.740035 0.740035 0.740035 0.740035 0.740035 0.740035 
0.740035 0.740035 0.740035 0.740035 0.740035 0.740035 0.740035 0.740035 0.740035 
0.740035 0.740035 0.740035 0.740036 0.740036 0.740036 0.740036 0.740036 0.740036 
0.740036 0.740036 0.740036 0.740036 0.740036 0.740036 0.740036 0.740036 0.740036 
0.740036 0.740036 0.740036 0.740036 0.740036 0.740036 0.740036 0.740036 0.740036 
0.740036 0.740036 0.740036 0.740036 0.740036 0.740036 0.740037 0.740037 0.740037 
0.740037 0.740037 0.740037 0.740037 0.740037 0.740037 0.740037 0.740037 0.740037 
0.740037 0.740037 0.740037 0.740037 0.740037 0.740037 0.740037 0.740037 0.740037 
0.740037 0.740037 0.740037 0.740037 0.740037 0.740037 0.740037 0.740037 0.740037 
0.740038 0.740038 0.740038 0.740038 0.740038 0.740038 0.740038 0.740038 0.740038 
0.740038 0.740038 0.740038 0.740038 0.740038 0.740038 0.740038 0.740038 0.740038 
0.740038 0.740038 0.740038 0.740038 0.740038 0.740038 0.740038 0.740038 0.740038 
0.740038 0.740038 0.740038 0.740039 0.740039 0.740039 0.740039 0.740039 0.740039 
0.740039 0.740039 0.740039 0.740039 0.740039 0.740039 0.740039 0.740039 0.740039 
0.740039 0.740039 0.740039 0.740039 0.740039 0.740039 0.740039 0.740039 0.740039 
0.740039 0.740039 0.740039 0.740039 0.740039 0.740039 0.74004 0.74004 0.74004 
0.74004 0.74004 0.74004 0.74004 0.74004 0.74004 0.74004 0.74004 0.74004 
0.74004 0.74004 0.74004 0.74004 0.74004 0.74004 0.74004 0.74004 0.74004 
0.74004 0.74004 0.74004 0.74004 0.74004 0.74004 0.74004 0.74004 0.74004 
0.740041 0.740041 0.740041 0.740041 0.740041 0.740041 0.740041 0.740041 0.740041 
0.740041 0.740041 0.740041 0.740041 0.740041 0.740041 0.740041 0.740041 0.740041 
0.740041 0.740041 0.740041 0.740041 0.740041 0.740041 0.740041 0.740041 0.740041 
0.740041 0.740041 0.740041 0.740042 0.740042 0.740042 0.740042 0.740042 0.740042 
0.740042 0.740042 0.740042 0.740042 0.740042 0.740042 0.740042 0.740042 0.740042 
0.740042 0.740042 0.740042 0.740042 0.740042 0.740042 0.740042 0.740042 0.740042 
0.740042 0.740042 0.740042 0.740042 0.740042 0.740042 0.740043 0.740043 0.740043 
0.740043 0.740043 0.740043 0.740043 0.740043 0.740043 0.740043 0.740043 0.740043 
0.740043 0.740043 0.740043 0.740043 0.740043 0.740043 0.740043 0.740043 0.740043 
0.740043 0.740043 0.740043 0.740043 0.740043 0.740043 0.740043 0.740043 0.740043 
0.740044 0.740044 0.740044 0.740044 0.740044 0.740044 0.740044 0.740044 0.740044 
0.740044 0.740044 0.740044 0.740044 0.740044 0.740044 0.740044 0.740044 0.740044 
0.740044 0.740044 0.740044 0.740044 0.740044 0.740044 0.740044 0.740044 0.740044 
0.740044 0.740044 0.740044 0.740045 0.740045 0.740045 0.740045 0.740045 0.740045 
0.740045 0.740045 0.740045 0.740045 0.740045 0.740045 0.740045 0.740045 0.740045 
0.740045 0.740045 0.740045 0.740045 0.740045 0.740045 0.740045 0.740045 0.740045 
0.740045 0.740045 0.740045 0.740045 0.740045 0.740045 0.740046 0.740046 0.740046 
0.740046 0.740046 0.740046 0.740046 0.740046 0.740046 0.740046 0.740046 0.740046 
0.740046 0.740046 0.740046 0.740046 0.740046 0.740046 0.740046 0.740046 0.740046 
0.740046 0.740046 0.740046 0.740046 0.740046 0.740046 0.740046 0.740046 0.740046 
0.740047 0.740047 0.740047 0.740047 0.740047 0.740047 0.740047 0.740047 0.740047 
0.740047 0.740047 0.740047 0.740047 0.740047 0.740047 0.740047 0.740047 0.740047 
0.740047 0.740047 0.740047 0.740047 0.740047 0.740047 0.740047 0.740047 0.740047 
0.740047 0.740047 0.740047 0.740048 0.740048 0.740048 0.740048 0.740048 0.740048 
0.740048 0.740048 0.740048 0.740048 0.740048 0.740048 0.740048 0.740048 0.740048 
0.740048 0.740048 0.740048 0.740048 0.740048 0.740048 0.740048 0.740048 0.740048 
0.740048 0.740048 0.740048 0.740048 0.740048 0.740048 0.740049 0.740049 0.740049 
0.740049 0.740049 0.740049 0.740049 0.740049 0.740049 0.740049 0.740049 0.740049 
0.740049 0.740049 0.740049 0.740049 0.740049 0.740049 0.740049 0.740049 0.740049 
0.740049 0.740049 0.740049 0.740049 0.740049 0.740049 0.740049 0.740049 0.740049 
0.74005 0.74005 0.74005 0.74005 0.74005 0.74005 0.74005 0.74005 0.74005 
0.74005 0.74005 0.74005 0.74005 0.74005 0.74005 0.74005 0.74005 0.74005 
0.74005 0.74005 0.74005 0.74005 0.74005 0.74005 0.74005 0.74005 0.74005 
0.74005 0.74005 0.74005 0.740051 0.740051 0.740051 0.740051 0.740051 0.740051 
0.740051 0.740051 0.740051 0.740051 0.740051 0.740051 0.740051 0.740051 0.740051 
0.740051 0.740051 0.740051 0.740051 0.740051 0.740051 0.740051 0.740051 0.740051 
0.740051 0.740051 0.740051 0.740051 0.740051 0.740051 0.740052 0.740052 0.740052 
0.740052 0.740052 0.740052 0.740052 0.740052 0.740052 0.740052 0.740052 0.740052 
0.740052 0.740052 0.740052 0.740052 0.740052 0.740052 0.740052 0.740052 0.740052 
0.740052 0.740052 0.740052 0.740052 0.740052 0.740052 0.740052 0.740052 0.740052 
0.740053 0.740053 0.740053 0.740053 0.740053 0.740053 0.740053 0.740053 0.740053 
0.740053 0.740053 0.740053 0.740053 0.740053 0.740053 0.740053 0.740053 0.740053 
0.740053 0.740053 0.740053 0.740053 0.740053 0.740053 0.740053 0.740053 0.740053 
0.740053 0.740053 0.740053 0.740053 0.740053 0.740053 0.740053 0.740053 0.740054 
0.740054 0.740054 0.740054 0.740054 0.740054 0.740054 0.740054 0.740054 0.740054 
0.740054 0.740054 0.740054 0.740054 0.740054 0.740054 0.740054 0.740054 0.740053 
0.740053 0.740053 0.740053 0.740053 0.740053 0.740053 0.740054 0.740054 0.740054 
0.740054 0.740054 0.740054 0.740054 0.740054 0.740054 0.740054 0.740054 0.740054 
0.740054 0.740054 0.740054 0.740054 0.740054 0.740054 0.740054 0.740054 0.740054 
0.740054 0.740054 0.740054 0.740054 0.740054 0.740054 0.740054 0.740054 0.740054 
0.740055 0.740055 0.740055 0.740055 0.740055 0.740055 0.740055 0.740055 0.740055 
0.740055 0.740055 0.740055 0.740055 0.740055 0.740055 0.740055 0.740055 0.740055 
0.740055 0.740055 0.740055 0.740055 0.740055 0.740055 0.740055 0.740055 0.740055 
0.740055 0.740055 0.740055 0.740056 0.740056 0.740056 0.740056 0.740056 0.740056 
0.740056 0.740056 0.740056 0.740056 0.740056 0.740056 0.740056 0.740056 0.740056 
0.740056 0.740056 0.740056 0.740056 0.740056 0.740056 0.740056 0.740056 0.740056 
0.740056 0.740056 0.740056 0.740056 0.740056 0.740056 0.740057 0.740057 0.740057 
0.740057 0.740057 0.740057 0.740057 0.740057 0.740057 0.740057 0.740057 0.740057 
0.740057 0.740057 0.740057 0.740057 0.740057 0.740057 0.740057 0.740057 0.740057 
0.740057 0.740057 0.740057 0.740057 0.740057 0.740057 0.740057 0.740057 0.740057 
0.740058 0.740058 0.740058 0.740058 0.740058 0.740058 0.740058 0.740058 0.740058 
0.740058 0.740058 0.740058 0.740058 0.740058 0.740058 0.740058 0.740058 0.740058 
0.740058 0.740058 0.740058 0.740058 0.740058 0.740058 0.740058 0.740058 0.740058 
0.740058 0.740058 0.740058 0.740059 0.740059 0.740059 0.740059 0.740059 0.740059 
0.740059 0.740059 0.740059 0.740059 0.740059 0.740059 0.740059 0.740059 0.740059 
0.740059 0.740059 0.740059 0.740059 0.740059 0.740059 0.740059 0.740059 0.740059 
0.740059 0.740059 0.740059 0.740059 0.740059 0.740059 0.74006 0.74006 0.74006 
0.74006 0.74006 0.74006 0.74006 0.74006 0.74006 0.74006 0.74006 0.74006 
0.74006 0.74006 0.74006 0.74006 0.74006 0.74006 0.74006 0.74006 0.74006 
0.74006 0.74006 0.74006 0.74006 0.74006 0.74006 0.74006 0.74006 0.74006 
0.740061 0.740061 0.740061 0.740061 0.740061 0.740061 0.740061 0.740061 0.740061 
0.740061 0.740061 0.740061 0.740061 0.740061 0.740061 0.740061 0.740061 0.740061 
0.740061 0.740061 0.740061 0.740061 0.740061 0.740061 0.740061 0.740061 0.740061 
0.740061 0.740061 0.740061 0.740062 0.740062 0.740062 0.740062 0.740062 0.740062 
0.740062 0.740062 0.740062 0.740062 0.740062 0.740062 0.740062 0.740062 0.740062 
0.740062 0.740062 0.740062 0.740062 0.740062 0.740062 0.740062 0.740062 0.740062 
0.740062 0.740062 0.740062 0.740062 0.740062 0.740062 0.740063 0.740063 0.740063 
0.740063 0.740063 0.740063 0.740063 0.740063 0.740063 0.740063 0.740063 0.740063 
0.740063 0.740063 0.740063 0.740063 0.740063 0.740063 0.740063 0.740063 0.740063 
0.740063 0.740063 0.740063 0.740063 0.740063 0.740063 0.740063 0.740063 0.740063 
0.740064 0.740064 0.740064 0.740064 0.740064 0.740064 0.740064 0.740064 0.740064 
0.740064 0.740064 0.740064 0.740064 0.740064 0.740064 0.740064 0.740064 0.740064 
0.740064 0.740064 0.740064 0.740064 0.740064 0.740064 0.740064 0.740064 0.740064 
0.740064 0.740064 0.740064 0.740065 0.740065 0.740065 0.740065 0.740065 0.740065 
0.740065 0.740065 0.740065 0.740065 0.740065 0.740065 0.740065 0.740065 0.740065 
0.740065 0.740065 0.740065 0.740065 0.740065 0.740065 0.740065 0.740065 0.740065 
0.740065 0.740065 0.740065 0.740065 0.740065 0.740065 0.740066 0.740066 0.740066 
0.740066 0.740066 0.740066 0.740066 0.740066 0.740066 0.740066 0.740066 0.740066 
0.740066 0.740066 0.740066 0.740066 0.740066 0.740066 0.740066 0.740066 0.740066 
0.740066 0.740066 0.740066 0.740066 0.740066 0.740066 0.740066 0.740066 0.740066 
0.740067 0.740067 0.740067 0.740067 0.740067 0.740067 0.740067 0.740067 0.740067 
0.740067 0.740067 0.740067 0.740067 0.740067 0.740067 0.740067 0.740067 0.740067 
0.740067 0.740067 0.740067 0.740067 0.740067 0.740067 0.740067 0.740067 0.740067 
0.740067 0.740067 0.740067 0.740068 0.740068 0.740068 0.740068 0.740068 0.740068 
0.740068 0.740068 0.740068 0.740068 0.740068 0.740068 0.740068 0.740068 0.740068 
0.740068 0.740068 0.740068 0.740068 0.740068 0.740068 0.740068 0.740068 0.740068 
0.740068 0.740068 0.740068 0.740068 0.740068 0.740068 0.740069 0.740069 0.740069 
0.740069 0.740069 0.740069 0.740069 0.740069 0.740069 0.740069 0.740069 0.740069 
0.740069 0.740069 0.740069 0.740069 0.740069 0.740069 0.740069 0.740069 0.740069 
0.740069 0.740069 0.740069 0.740069 0.740069 0.740069 0.740069 0.740069 0.740069 
0.74007 0.74007 0.74007 0.74007 0.74007 0.74007 0.74007 0.74007 0.74007 
0.74007 0.74007 0.74007 0.74007 0.74007 0.74007 0.74007 0.74007 0.74007 
0.74007 0.74007 0.74007 0.74007 0.74007 0.74007 0.74007 0.74007 0.74007 
0.74007 0.74007 0.74007 0.740071 0.740071 0.740071 0.740071 0.740071 0.740071 
0.740071 0.740071 0.740071 0.740071 0.740071 0.740071 0.740071 0.740071 0.740071 
0.740071 0.740071 0.740071 0.740071 0.740071 0.740071 0.740071 0.740071 0.740071 
0.740071 0.740071 0.740071 0.740071 0.740071 0.740071 0.740072 0.740072 0.740072 
0.740072 0.740072 0.740072 0.740072 0.740072 0.740072 0.740072 0.740072 0.740072 
0.740072 0.740072 0.740072 0.740072 0.740072 0.740072 0.740072 0.740072 0.740072 
0.740072 0.740072 0.740072 0.740072 0.740072 0.740072 0.740072 0.740072 0.740072 
0.740073 0.740073 0.740073 0.740073 0.740073 0.740073 0.740073 0.740073 0.740073 
0.740073 0.740073 0.740073 0.740073 0.740073 0.740073 0.740073 0.740073 0.740073 
0.740073 0.740073 0.740073 0.740073 0.740073 0.740073 0.740073 0.740073 0.740073 
0.740073 0.740073 0.740073 0.740074 0.740074 0.740074 0.740074 0.740074 0.740074 
0.740074 0.740074 0.740074 0.740074 0.740074 0.740074 0.740074 0.740074 0.740074 
0.740074 0.740074 0.740074 0.740074 0.740074 0.740074 0.740074 0.740074 0.740074 
0.740074 0.740074 0.740074 0.740074 0.740074 0.740074 0.740075 0.740075 0.740075 
0.740075 0.740075 0.740075 0.740075 0.740075 0.740075 0.740075 0.740075 0.740075 
0.740075 0.740075 0.740075 0.740075 0.740075 0.740075 0.740075 0.740075 0.740075 
0.740075 0.740075 0.740075 0.740075 0.740075 0.740075 0.740075 0.740075 0.740075 
0.740076 0.740076 0.740076 0.740076 0.740076 0.740076 0.740076 0.740076 0.740076 
0.740076 0.740076 0.740076 0.740076 0.740076 0.740076 0.740076 0.740076 0.740076 
0.740076 0.740076 0.740076 0.740076 0.740076 0.740076 0.740076 0.740076 0.740076 
0.740076 0.740076 0.740076 0.740077 0.740077 0.740077 0.740077 0.740077 0.740077 
0.740077 0.740077 0.740077 0.740077 0.740077 0.740077 0.740077 0.740077 0.740077 
0.740077 0.740077 0.740077 0.740077 0.740077 0.740077 0.740077 0.740077 0.740077 
0.740077 0.740077 0.740077 0.740077 0.740077 0.740077 0.740078 0.740078 0.740078 
0.740078 0.740078 0.740078 0.740078 0.740078 0.740078 0.740078 0.740078 0.740078 
0.740078 0.740078 0.740078 0.740078 0.740078 0.740078 0.740078 0.740078 0.740078 
0.740078 0.740078 0.740078 0.740078 0.740078 0.740078 0.740078 0.740078 0.740078 
0.740079 0.740079 0.740079 0.740079 0.740079 0.740079 0.740079 0.740079 0.740079 
0.740079 0.740079 0.740079 0.740079 0.740079 0.740079 0.740079 0.740079 0.740079 
0.740079 0.740079 0.740079 0.740079 0.740079 0.740079 0.740079 0.740079 0.740079 
0.740079 0.740079 0.740079 0.74008 0.74008 0.74008 0.74008 0.74008 0.74008 
0.74008 0.74008 0.74008 0.74008 0.74008 0.74008 0.74008 0.74008 0.74008 
0.74008 0.74008 0.74008 0.74008 0.74008 0.74008 0.74008 0.74008 0.74008 
0.74008 0.74008 0.74008 0.74008 0.74008 0.74008 0.740081 0.740081 0.740081 
0.740081 0.740081 0.740081 0.740081 0.740081 0.740081 0.740081 0.740081 0.740081 
0.740081 0.740081 0.740081 0.740081 0.740081 0.740081 0.740081 0.740081 0.740081 
0.740081 0.740081 0.740081 0.740081 0.740081 0.740081 0.740081 0.740081 0.740081 
0.740082 0.740082 0.740082 0.740082 0.740082 0.740082 0.740082 0.740082 0.740082 
0.740082 0.740082 0.740082 0.740082 0.740082 0.740082 0.740082 0.740082 0.740082 
0.740082 0.740082 0.740082 0.740082 0.740082 0.740082 0.740082 0.740082 0.740082 
0.740082 0.740082 0.740082 0.740083 0.740083 0.740083 0.740083 0.740083 0.740083 
0.740083 0.740083 0.740083 0.740083 0.740083 0.740083 0.740083 0.740083 0.740083 
0.740083 0.740083 0.740083 0.740083 0.740083 0.740083 0.740083 0.740083 0.740083 
0.740083 0.740083 0.740083 0.740083 0.740083 0.740083 0.740084 0.740084 0.740084 
0.740084 0.740084 0.740084 0.740084 0.740084 0.740084 0.740084 0.740084 0.740084 
0.740084 0.740084 0.740084 0.740084 0.740084 0.740084 0.740084 0.740084 0.740084 
0.740084 0.740084 0.740084 0.740084 0.740084 0.740084 0.740084 0.740084 0.740084 
0.740085 0.740085 0.740085 0.740085 0.740085 0.740085 0.740085 0.740085 0.740085 
0.740085 0.740085 0.740085 0.740085 0.740085 0.740085 0.740085 0.740085 0.740085 
0.740085 0.740085 0.740085 0.740085 0.740085 0.740085 0.740085 0.740085 0.740085 
0.740085 0.740085 0.740085 0.740085 0.740085 0.740085 0.740085 0.740085 0.740085 
0.740086 0.740086 0.740086 0.740086 0.740086 0.740086 0.740086 0.740086 0.740086 
0.740086 0.740086 0.740086 0.740086 0.740086 0.740086 0.740086 0.740086 0.740086 
0.740086 0.740086 0.740086 0.740086 0.740086 0.740086 0.740086 0.740086 0.740086 
0.740086 0.740086 0.740086 0.740086 0.740086 0.740086 0.740086 0.740087 0.740087 
0.740087 0.740087 0.740087 0.740087 0.740087 0.740087 0.740087 0.740087 0.740087 
0.740087 0.740087 0.740087 0.740087 0.740087 0.740087 0.740087 0.740087 0.740087 
0.740087 0.740087 0.740087 0.740087 0.740087 0.740087 0.740087 0.740087 0.740088 
0.740088 0.740088 0.740088 0.740088 0.740088 0.740088 0.740088 0.740088 0.740088 
0.740088 0.740088 0.740088 0.740088 0.740088 0.740088 0.740088 0.740088 0.740088 
0.740088 0.740088 0.740088 0.740088 0.740088 0.740088 0.740088 0.740088 0.740088 
0.740088 0.740088 0.740088 0.740088 0.740088 0.740088 0.740089 0.740089 0.740089 
0.740089 0.740089 0.740089 0.740089 0.740089 0.740089 0.740089 0.740089 0.740089 
0.740089 0.740089 0.740089 0.740089 0.740089 0.740089 0.740089 0.740089 0.740089 
0.740089 0.740089 0.740089 0.740089 0.740089 0.740089 0.740089 0.740089 0.740089 
0.740089 0.74009 0.74009 0.74009 0.74009 0.74009 0.74009 0.74009 0.74009 
0.74009 0.74009 0.74009 0.74009 0.74009 0.74009 0.74009 0.74009 0.74009 
0.74009 0.74009 0.74009 0.74009 0.74009 0.74009 0.74009 0.74009 0.74009 
0.74009 0.74009 0.74009 0.74009 0.74009 0.74009 0.740091 0.740091 0.740091 
0.740091 0.740091 0.740091 0.740091 0.740091 0.740091 0.740091 0.740091 0.740091 
0.740091 0.740091 0.740091 0.740091 0.740091 0.740091 0.740091 0.740091 0.740091 
0.740091 0.740091 0.740091 0.740091 0.740091 0.740091 0.740091 0.740091 0.740092 
0.740092 0.740092 0.740092 0.740092 0.740092 0.740092 0.740092 0.740092 0.740092 
0.740092 0.740092 0.740092 0.740092 0.740092 0.740092 0.740092 0.740092 0.740092 
0.740092 0.740092 0.740092 0.740092 0.740092 0.740092 0.740092 0.740092 0.740092 
0.740092 0.740092 0.740092 0.740093 0.740093 0.740093 0.740093 0.740093 0.740093 
0.740093 0.740093 0.740093 0.740093 0.740093 0.740093 0.740093 0.740093 0.740093 
0.740093 0.740093 0.740093 0.740093 0.740093 0.740093 0.740093 0.740093 0.740093 
0.740093 0.740093 0.740093 0.740093 0.740093 0.740093 0.740093 0.740093 0.740094 
0.740094 0.740094 0.740094 0.740094 0.740094 0.740094 0.740094 0.740094 0.740094 
0.740094 0.740094 0.740094 0.740094 0.740094 0.740094 0.740094 0.740094 0.740094 
0.740094 0.740094 0.740094 0.740094 0.740094 0.740094 0.740094 0.740094 0.740094 
0.740094 0.740094 0.740095 0.740095 0.740095 0.740095 0.740095 0.740095 0.740095 
0.740095 0.740095 0.740095 0.740095 0.740095 0.740095 0.740095 0.740095 0.740095 
0.740095 0.740095 0.740095 0.740095 0.740095 0.740095 0.740095 0.740095 0.740095 
0.740095 0.740095 0.740095 0.740095 0.740095 0.740095 0.740095 0.740096 0.740096 
0.740096 0.740096 0.740096 0.740096 0.740096 0.740096 0.740096 0.740096 0.740096 
0.740096 0.740096 0.740096 0.740096 0.740096 0.740096 0.740096 0.740096 0.740096 
0.740096 0.740096 0.740096 0.740096 0.740096 0.740096 0.740096 0.740096 0.740097 
0.740097 0.740097 0.740097 0.740097 0.740097 0.740097 0.740097 0.740097 0.740097 
0.740097 0.740097 0.740097 0.740097 0.740097 0.740097 0.740097 0.740097 0.740097 
0.740097 0.740097 0.740097 0.740097 0.740097 0.740097 0.740097 0.740097 0.740097 
0.740097 0.740097 0.740098 0.740098 0.740098 0.740098 0.740098 0.740098 0.740098 
0.740098 0.740098 0.740098 0.740098 0.740098 0.740098 0.740098 0.740098 0.740098 
0.740098 0.740098 0.740098 0.740098 0.740098 0.740098 0.740098 0.740098 0.740098 
0.740098 0.740098 0.740098 0.740098 0.740098 0.740099 0.740099 0.740099 0.740099 
0.740099 0.740099 0.740099 0.740099 0.740099 0.740099 0.740099 0.740099 0.740099 
0.740099 0.740099 0.740099 0.740099 0.740099 0.740099 0.740099 0.740099 0.740099 
0.740099 0.740099 0.740099 0.740099 0.740099 0.740099 0.740099 0.740099 0.740099 
0.7401 0.7401 0.7401 0.7401 0.7401 0.7401 0.7401 0.7401 0.7401 
0.7401 0.7401 0.7401 0.7401 0.7401 0.7401 0.7401 0.7401 0.7401 
0.7401 0.7401 0.7401 0.7401 0.7401 0.7401 0.7401 0.7401 0.7401 
0.7401 0.740101 0.740101 0.740101 0.740101 0.740101 0.740101 0.740101 0.740101 
0.740101 0.740101 0.740101 0.740101 0.740101 0.740101 0.740101 0.740101 0.740101 
0.740101 0.740101 0.740101 0.740101 0.740101 0.740101 0.740101 0.740101 0.740101 
0.740101 0.740101 0.740101 0.740101 0.740102 0.740102 0.740102 0.740102 0.740102 
0.740102 0.740102 0.740102 0.740102 0.740102 0.740102 0.740102 0.740102 0.740102 
0.740101 0.740101 0.740102 0.740102 0.740102 0.740102 0.740102 0.740102 0.740102 
0.740102 0.740102 0.740102 0.740102 0.740102 0.740102 0.740102 0.740103 0.740103 
0.740103 0.740103 0.740103 0.740103 0.740103 0.740103 0.740103 0.740103 0.740103 
0.740103 0.740103 0.740103 0.740102 0.740102 0.740102 0.740102 0.740103 0.740103 
0.740103 0.740103 0.740103 0.740103 0.740103 0.740103 0.740103 0.740103 0.740103 
0.740103 0.740104 0.740104 0.740104 0.740104 0.740104 0.740104 0.740104 0.740104 
0.740104 0.740104 0.740104 0.740104 0.740104 0.740104 0.740103 0.740103 0.740103 
0.740103 0.740103 0.740103 0.740104 0.740104 0.740104 0.740104 0.740104 0.740104 
0.740104 0.740104 0.740104 0.740105 0.740105 0.740105 0.740105 0.740105 0.740105 
0.740105 0.740105 0.740105 0.740105 0.740105 0.740105 0.740105 0.740105 0.740105 
0.740104 0.740104 0.740104 0.740104 0.740104 0.740104 0.740104 0.740105 0.740105 
0.740105 0.740105 0.740105 0.740105 0.740105 0.740106 0.740106 0.740106 0.740106 
0.740106 0.740106 0.740106 0.740106 0.740106 0.740106 0.740106 0.740106 0.740106 
0.740106 0.740106 0.740106 0.740105 0.740105 0.740105 0.740105 0.740105 0.740105 
0.740105 0.740106 0.740106 0.740106 0.740106 0.740106 0.740106 0.740106 0.740107 
0.740107 0.740107 0.740107 0.740107 0.740107 0.740107 0.740107 0.740107 0.740107 
0.740107 0.740107 0.740107 0.740107 0.740107 0.740107 0.740106 0.740106 0.740106 
0.740106 0.740106 0.740106 0.740106 0.740106 0.740107 0.740107 0.740107 0.740107 
0.740107 0.740108 0.740108 0.740108 0.740108 0.740108 0.740108 0.740108 0.740108 
0.740108 0.740108 0.740108 0.740108 0.740108 0.740108 0.740108 0.740108 0.740108 
0.740107 0.740107 0.740107 0.740107 0.740107 0.740107 0.740107 0.740107 0.740108 
0.740108 0.740108 0.740108 0.740108 0.740109 0.740109 0.740109 0.740109 0.740109 
0.740109 0.740109 0.740109 0.740109 0.740109 0.740109 0.740109 0.740109 0.740109 
0.740109 0.740108 0.740109 0.740107 0.740107 0.740107 0.740107 0.740108 0.740108 
0.740108 0.740108 0.740109 0.740109 0.740109 0.740109 0.74011 0.74011 0.74011 
0.74011 0.74011 0.74011 0.74011 0.74011 0.74011 0.74011 0.74011 0.74011 
0.74011 0.74011 0.74011 0.74011 0.740109 0.74011 0.740108 0.740108 0.740108 
0.740108 0.740109 0.740109 0.740109 0.740109 0.74011 0.74011 0.74011 0.74011 
0.740111 0.740111 0.740111 0.740111 0.740111 0.740111 0.740111 0.740111 0.740111 
0.740111 0.740111 0.740111 0.740111 0.740111 0.740111 0.740111 0.74011 0.74011 
0.740109 0.740109 0.740109 0.740109 0.740109 0.74011 0.74011 0.74011 0.740111 
0.740111 0.740111 0.740112 0.740112 0.740112 0.740112 0.740112 0.740112 0.740112 
0.740112 0.740112 0.740112 0.740112 0.740112 0.740112 0.740112 0.740112 0.740111 
0.740111 0.740111 0.740111 0.740109 0.740109 0.74011 0.74011 0.74011 0.74011 
0.740111 0.740111 0.740112 0.740112 0.740112 0.740113 0.740113 0.740113 0.740113 
0.740114 0.740114 0.740114 0.740114 0.740114 0.740113 0.740113 0.740113 0.740113 
0.740113 0.740113 0.740112 0.740112 0.740112 0.740112 0.74011 0.74011 0.74011 
0.74011 0.740111 0.740111 0.740112 0.740112 0.740113 0.740113 0.740113 0.740114 
0.740114 0.740115 0.740115 0.740115 0.740115 0.740115 0.740115 0.740115 0.740115 
0.740115 0.740114 0.740114 0.740114 0.740114 0.740113 0.740113 0.740113 0.740113 
0.74011 0.74011 0.740111 0.740111 0.740112 0.740112 0.740112 0.740113 0.740114 
0.740114 0.740115 0.740115 0.740116 0.740116 0.740116 0.740116 0.740116 0.740116 
0.740116 0.740116 0.740116 0.740116 0.740115 0.740115 0.740115 0.740115 0.740114 
0.740114 0.740114 0.740114 0.740111 0.740111 0.740111 0.740111 0.740112 0.740113 
0.740113 0.740114 0.740115 0.740115 0.740116 0.740116 0.740117 0.740117 0.740118 
0.740118 0.740118 0.740118 0.740118 0.740118 0.740117 0.740117 0.740117 0.740116 
0.740116 0.740116 0.740115 0.740115 0.740115 0.740115 0.740111 0.740111 0.740112 
0.740112 0.740113 0.740113 0.740114 0.740115 0.740116 0.740116 0.740117 0.740118 
0.740118 0.740119 0.740119 0.740119 0.740119 0.740119 0.740119 0.740119 0.740119 
0.740118 0.740118 0.740117 0.740117 0.740116 0.740116 0.740116 0.740115 0.740115 
0.740111 0.740111 0.740112 0.740112 0.740113 0.740114 0.740115 0.740116 0.740117 
0.740118 0.740119 0.740119 0.74012 0.740121 0.740121 0.740121 0.740121 0.740121 
0.740121 0.740121 0.74012 0.74012 0.740119 0.740118 0.740118 0.740117 0.740117 
0.740116 0.740116 0.740116 0.740111 0.740111 0.740112 0.740113 0.740114 0.740115 
0.740116 0.740117 0.740118 0.740119 0.74012 0.740121 0.740122 0.740122 0.740123 
0.740123 0.740123 0.740123 0.740122 0.740122 0.740122 0.740121 0.74012 0.74012 
0.740119 0.740118 0.740117 0.740117 0.740116 0.740116 0.740111 0.740111 0.740112 
0.740113 0.740114 0.740115 0.740117 0.740118 0.740119 0.740121 0.740122 0.740123 
0.740124 0.740124 0.740125 0.740125 0.740125 0.740125 0.740124 0.740124 0.740123 
0.740122 0.740121 0.740121 0.74012 0.740119 0.740118 0.740117 0.740117 0.740117 
0.740111 0.740111 0.740112 0.740113 0.740114 0.740116 0.740117 0.740119 0.740121 
0.740122 0.740124 0.740125 0.740126 0.740126 0.740127 0.740127 0.740127 0.740127 
0.740126 0.740126 0.740125 0.740124 0.740123 0.740122 0.740121 0.74012 0.740118 
0.740118 0.740117 0.740117 0.74011 0.74011 0.740112 0.740113 0.740115 0.740116 
0.740118 0.74012 0.740122 0.740124 0.740126 0.740127 0.740128 0.740129 0.740129 
0.740129 0.740129 0.740129 0.740128 0.740128 0.740127 0.740126 0.740124 0.740123 
0.740121 0.74012 0.740119 0.740118 0.740117 0.740117 0.740109 0.740109 0.740111 
0.740112 0.740115 0.740117 0.740119 0.740121 0.740124 0.740126 0.740128 0.740129 
0.740131 0.740131 0.740132 0.740132 0.740132 0.740131 0.740131 0.74013 0.740129 
0.740127 0.740126 0.740124 0.740122 0.740121 0.740119 0.740118 0.740117 0.740117 
0.740108 0.740108 0.74011 0.740112 0.740115 0.740117 0.74012 0.740123 0.740126 
0.740128 0.740131 0.740132 0.740134 0.740135 0.740135 0.740135 0.740135 0.740134 
0.740133 0.740132 0.740131 0.740129 0.740127 0.740126 0.740123 0.740121 0.740119 
0.740118 0.740116 0.740116 0.740106 0.740106 0.740109 0.740111 0.740114 0.740117 
0.740121 0.740124 0.740128 0.740131 0.740134 0.740135 0.740137 0.740138 0.740138 
0.740138 0.740138 0.740137 0.740136 0.740135 0.740133 0.740131 0.740129 0.740127 
0.740124 0.740122 0.740119 0.740117 0.740115 0.740115 0.740102 0.740103 0.740106 
0.740109 0.740114 0.740118 0.740122 0.740126 0.74013 0.740134 0.740137 0.740139 
0.740141 0.740141 0.740142 0.740142 0.740141 0.74014 0.740139 0.740138 0.740136 
0.740134 0.740131 0.740128 0.740125 0.740122 0.740118 0.740116 0.740113 0.740112 
0.740099 0.7401 0.740105 0.740109 0.740114 0.740119 0.740125 0.74013 0.740135 
0.740139 0.740143 0.740145 0.740146 0.740147 0.740147 0.740147 0.740146 0.740145 
0.740144 0.740142 0.74014 0.740138 0.740135 0.740131 0.740127 0.740123 0.740119 
0.740116 0.740111 0.74011 0.740095 0.740098 0.740104 0.74011 0.740116 0.740123 
0.740129 0.740136 0.740142 0.740147 0.740151 0.740153 0.740155 0.740155 0.740155 
0.740154 0.740153 0.740152 0.74015 0.740149 0.740147 0.740144 0.74014 0.740136 
0.740132 0.740127 0.740121 0.740116 0.74011 0.740108 0.739975 0.739986 0.739998 
0.740006 0.740014 0.740021 0.740029 0.740037 0.740044 0.740049 0.740053 0.740056 
0.740057 0.740057 0.740056 0.740055 0.740054 0.740053 0.740051 0.74005 0.740048 
0.740045 0.740041 0.740036 0.740031 0.740024 0.740017 0.740006 0.739991 0.739934 
0.736328 0.736676 0.736808 0.736867 0.736895 0.73691 0.736918 0.736924 0.736929 
0.736932 0.736935 0.736936 0.736936 0.736935 0.736934 0.736933 0.736932 0.736931 
0.736931 0.736932 0.736931 0.736931 0.736928 0.736922 0.736909 0.736882 0.736826 
0.7367 0.736399 0.735394 0.724465 0.726174 0.726796 0.727071 0.727194 0.727248 
0.727268 0.727274 0.727274 0.727272 0.727269 0.727266 0.727263 0.727261 0.727259 
0.727258 0.727257 0.727259 0.727261 0.727265 0.72727 0.727273 0.727272 0.72726 
0.727224 0.727139 0.726957 0.726574 0.72576 0.724039 0.706321 0.708681 0.709879 
0.710469 0.710753 0.710882 0.710934 0.710948 0.710947 0.710939 0.71093 0.710922 
0.710916 0.710912 0.710909 0.710907 0.710908 0.710912 0.710917 0.710925 0.710933 
0.71094 0.710937 0.710912 0.71084 0.710674 0.710336 0.709678 0.708453 0.706274 
0.683676 0.686108 0.687572 0.688388 0.688814 0.68902 0.689108 0.689137 0.689138 
0.689128 0.689116 0.689105 0.689097 0.68909 0.689086 0.689085 0.689087 0.689091 
0.689099 0.689109 0.689119 0.689127 0.68912 0.689082 0.688976 0.688744 0.68829 
0.687465 0.686065 0.68384 0.657756 0.659906 0.661332 0.662197 0.662679 0.662924 
0.663034 0.663073 0.663078 0.663069 0.663056 0.663044 0.663034 0.663027 0.663023 
0.663022 0.663023 0.663028 0.663036 0.663046 0.663057 0.663063 0.663054 0.66301 
0.662893 0.662641 0.662161 0.661324 0.659992 0.65804 0.629635 0.631292 0.632462 
0.63321 0.633641 0.633867 0.633971 0.634009 0.634015 0.634007 0.633996 0.633985 
0.633977 0.633971 0.633967 0.633966 0.633967 0.633971 0.633977 0.633985 0.633994 
0.633999 0.633992 0.633954 0.633855 0.633641 0.633235 0.632536 0.631456 0.629973 
0.600304 0.601358 0.602135 0.602643 0.602938 0.603093 0.603164 0.60319 0.603194 
0.603187 0.603179 0.603171 0.603165 0.60316 0.603157 0.603156 0.603156 0.603159 
0.603162 0.603167 0.603172 0.603177 0.603173 0.603153 0.603094 0.602965 0.602715 
0.602271 0.601568 0.600641 0.570715 0.57111 0.571433 0.571643 0.571761 0.571822 
0.571848 0.571855 0.571853 0.571848 0.571843 0.571837 0.571834 0.571831 0.571829 
0.571828 0.571828 0.571828 0.571829 0.57183 0.571832 0.571835 0.571836 0.571833 
0.571821 0.571789 0.57172 0.571589 0.571368 0.571026 0.541755 0.54153 0.541412 
0.541355 0.541323 0.541304 0.541291 0.54128 0.541272 0.541266 0.541262 0.541258 
0.541256 0.541255 0.541254 0.541254 0.541253 0.541252 0.541251 0.54125 0.54125 
0.541252 0.541256 0.541266 0.541283 0.541315 0.541378 0.541502 0.541747 0.542242 
0.514758 0.513806 0.513351 0.513134 0.513027 0.512972 0.51294 0.51292 0.512907 
0.512898 0.512893 0.51289 0.512888 0.512887 0.512887 0.512887 0.512886 0.512885 
0.512883 0.512881 0.512881 0.512883 0.512888 0.512901 0.512926 0.512978 0.51309 
0.513346 0.51393 0.51513 0.490921 0.489528 0.488902 0.488641 0.48853 0.488476 
0.488445 0.488424 0.488409 0.488398 0.488392 0.488387 0.488385 0.488383 0.488383 
0.488383 0.488382 0.488381 0.488379 0.488378 0.488377 0.48838 0.488384 0.488395 
0.488412 0.488451 0.488542 0.488787 0.489446 0.491038 0.471742 0.470385 0.469844 
0.46965 0.469577 0.469542 0.469521 0.469503 0.469489 0.469477 0.46947 0.469464 
0.469461 0.469458 0.469458 0.469457 0.469456 0.469455 0.469454 0.469453 0.469453 
0.469455 0.469458 0.469465 0.469474 0.469491 0.469531 0.469658 0.47006 0.471447 
0.459152 0.458226 0.457978 0.457897 0.457868 0.457851 0.457837 0.457823 0.457811 
0.4578 0.457792 0.457785 0.457781 0.457777 0.457775 0.457774 0.457772 0.457771 
0.45777 0.45777 0.45777 0.457772 0.457775 0.45778 0.457785 0.457793 0.457803 
0.45783 0.457918 0.458288 0.453906 0.453772 0.45375 0.453736 0.453727 0.453715 
0.453705 0.453692 0.453683 0.453672 0.453665 0.453657 0.453652 0.453648 0.453645 
0.453643 0.453641 0.453639 0.453638 0.453638 0.453638 0.45364 0.453641 0.453646 
0.453649 0.453655 0.453659 0.453665 0.453675 0.453691 0.453445 0.453443 0.453438 
0.453431 0.453424 0.453414 0.453406 0.453395 0.453386 0.453377 0.45337 0.453362 
0.453357 0.453352 0.453349 0.453346 0.453343 0.453341 0.453339 0.453339 0.453338 
0.45334 0.45334 0.453344 0.453345 0.45335 0.453353 0.453357 0.45336 0.453361 
0.453445 0.453443 0.45344 0.453433 0.453428 0.453419 0.453412 0.453402 0.453395 
0.453386 0.45338 0.453372 0.453367 0.453362 0.453358 0.453354 0.453351 0.453349 
0.453346 0.453346 0.453344 0.453345 0.453344 0.453347 0.453347 0.453351 0.453352 
0.453355 0.453357 0.453358 0.453446 0.453445 0.453442 0.453437 0.453432 0.453424 
0.453419 0.45341 0.453404 0.453395 0.453389 0.453382 0.453376 0.453371 0.453366 
0.453362 0.453359 0.453356 0.453353 0.453352 0.453349 0.453349 0.453348 0.45335 
0.453349 0.453352 0.453352 0.453354 0.453354 0.453355 0.453449 0.453448 0.453446 
0.453441 0.453437 0.45343 0.453425 0.453417 0.453412 0.453403 0.453397 0.45339 
0.453385 0.453379 0.453374 0.45337 0.453366 0.453362 0.453359 0.453357 0.453354 
0.453353 0.453351 0.453352 0.45335 0.453352 0.453351 0.453353 0.453352 0.453353 
0.453454 0.453453 0.453451 0.453446 0.453443 0.453437 0.453433 0.453425 0.453419 
0.453411 0.453406 0.453399 0.453393 0.453387 0.453382 0.453377 0.453372 0.453369 
0.453364 0.453362 0.453358 0.453357 0.453354 0.453354 0.453351 0.453352 0.45335 
0.453352 0.453351 0.453351 0.453459 0.453458 0.453457 0.453452 0.45345 0.453443 
0.45344 0.453432 0.453427 0.453419 0.453414 0.453406 0.453401 0.453394 0.453389 
0.453384 0.453378 0.453374 0.453369 0.453366 0.453362 0.45336 0.453356 0.453355 
0.453352 0.453352 0.45335 0.45335 0.453349 0.453349 0.453466 0.453465 0.453464 
0.453459 0.453457 0.453451 0.453448 0.45344 0.453435 0.453427 0.453422 0.453414 
0.453408 0.453401 0.453395 0.45339 0.453384 0.453379 0.453374 0.45337 0.453365 
0.453362 0.453358 0.453356 0.453352 0.453352 0.453348 0.453349 0.453347 0.453347 
0.453473 0.453472 0.453471 0.453467 0.453465 0.453459 0.453456 0.453448 0.453443 
0.453435 0.453429 0.453422 0.453415 0.453408 0.453402 0.453396 0.45339 0.453384 
0.453378 0.453374 0.453368 0.453365 0.453359 0.453357 0.453352 0.453351 0.453347 
0.453347 0.453344 0.453345 0.453482 0.453481 0.45348 0.453476 0.453474 0.453467 
0.453464 0.453456 0.453452 0.453443 0.453437 0.453429 0.453422 0.453415 0.453408 
0.453402 0.453395 0.453389 0.453382 0.453377 0.45337 0.453366 0.45336 0.453357 
0.453351 0.45335 0.453345 0.453344 0.453341 0.453341 0.453491 0.45349 0.45349 
0.453485 0.453484 0.453477 0.453474 0.453465 0.45346 0.453452 0.453445 0.453437 
0.45343 0.453422 0.453414 0.453407 0.4534 0.453393 0.453386 0.45338 0.453373 
0.453368 0.45336 0.453357 0.45335 0.453348 0.453342 0.453341 0.453338 0.453338 
0.453501 0.4535 0.4535 0.453495 0.453494 0.453487 0.453483 0.453475 0.453469 
0.45346 0.453453 0.453444 0.453437 0.453428 0.45342 0.453413 0.453405 0.453397 
0.453389 0.453383 0.453374 0.453369 0.45336 0.453356 0.453348 0.453345 0.453338 
0.453337 0.453333 0.453333 0.453513 0.453511 0.453511 0.453506 0.453505 0.453497 
0.453494 0.453485 0.453479 0.453469 0.453461 0.453452 0.453444 0.453435 0.453426 
0.453418 0.453409 0.453402 0.453393 0.453385 0.453376 0.453369 0.45336 0.453355 
0.453346 0.453342 0.453334 0.453332 0.453327 0.453327 0.453525 0.453523 0.453523 
0.453518 0.453517 0.453509 0.453505 0.453495 0.453489 0.453478 0.45347 0.45346 
0.453451 0.453441 0.453432 0.453423 0.453414 0.453405 0.453396 0.453388 0.453378 
0.45337 0.453359 0.453353 0.453342 0.453337 0.453328 0.453326 0.45332 0.45332 
0.453538 0.453536 0.453536 0.453531 0.45353 0.453521 0.453517 0.453506 0.453499 
0.453487 0.453478 0.453467 0.453457 0.453447 0.453438 0.453428 0.453418 0.453409 
0.453399 0.45339 0.453379 0.45337 0.453358 0.45335 0.453339 0.453332 0.453321 
0.453318 0.453311 0.453311 0.453551 0.45355 0.453551 0.453545 0.453544 0.453535 
0.45353 0.453519 0.45351 0.453497 0.453487 0.453475 0.453464 0.453453 0.453443 
0.453433 0.453423 0.453413 0.453402 0.453393 0.45338 0.453371 0.453357 0.453348 
0.453334 0.453326 0.453313 0.453308 0.4533 0.453299 0.453566 0.453564 0.453566 
0.45356 0.45356 0.45355 0.453545 0.453531 0.453522 0.453507 0.453495 0.453482 
0.45347 0.453459 0.453449 0.453438 0.453428 0.453418 0.453406 0.453395 0.453382 
0.453371 0.453356 0.453345 0.453329 0.453318 0.453303 0.453296 0.453286 0.453285 
0.453581 0.45358 0.453582 0.453577 0.453577 0.453567 0.453561 0.453546 0.453534 
0.453517 0.453503 0.453489 0.453476 0.453464 0.453454 0.453443 0.453433 0.453422 
0.45341 0.453399 0.453384 0.453372 0.453356 0.453342 0.453323 0.453309 0.45329 
0.45328 0.453268 0.453266 0.453597 0.453595 0.4536 0.453595 0.453597 0.453587 
0.453579 0.453561 0.453546 0.453527 0.453511 0.453495 0.45348 0.453469 0.453459 
0.453448 0.453437 0.453427 0.453414 0.453402 0.453387 0.453374 0.453356 0.453341 
0.453318 0.4533 0.453277 0.453264 0.453248 0.453246 0.453613 0.453611 0.453618 
0.453614 0.453618 0.453608 0.453599 0.453579 0.453561 0.453538 0.45352 0.453501 
0.453485 0.453474 0.453464 0.453452 0.453442 0.453432 0.453418 0.453406 0.453391 
0.453377 0.453357 0.45334 0.453315 0.453292 0.453264 0.453247 0.453229 0.453226 
0.453628 0.453628 0.453638 0.453638 0.453645 0.453636 0.453624 0.453597 0.453573 
0.453545 0.453525 0.453502 0.453483 0.453475 0.453469 0.453458 0.453448 0.453439 
0.453425 0.453413 0.453396 0.453382 0.453361 0.453341 0.453308 0.453275 0.453236 
0.45321 0.453186 0.453182 0.453633 0.453639 0.453662 0.453675 0.453695 0.453688 
0.453665 0.453617 0.453573 0.453536 0.453512 0.453482 0.453459 0.453467 0.453477 
0.453473 0.453464 0.453456 0.45344 0.453425 0.453408 0.453394 0.453372 0.453347 
0.453296 0.453234 0.453164 0.453114 0.453079 0.453072 0.453624 0.453638 0.453673 
0.453708 0.453751 0.453757 0.453724 0.453651 0.453581 0.453525 0.45349 0.453455 
0.453442 0.453453 0.453484 0.453489 0.453481 0.453473 0.453455 0.453438 0.45342 
0.45341 0.453395 0.453374 0.453314 0.453226 0.453124 0.45305 0.453004 0.452991 
0.453658 0.453656 0.453656 0.453671 0.453695 0.453717 0.453724 0.453709 0.453677 
0.45362 0.453559 0.453523 0.453578 0.453479 0.453459 0.453453 0.453435 0.453426 
0.45342 0.453412 0.453404 0.453408 0.453409 0.453417 0.453426 0.453426 0.453406 
0.453393 0.453365 0.453346 0.456785 0.455878 0.451749 0.449705 0.445252 0.44559 
0.448926 0.456433 0.460117 0.459727 0.457572 0.456229 0.468996 0.452114 0.450451 
0.450542 0.44998 0.449731 0.45118 0.451957 0.452215 0.452695 0.452377 0.45202 
0.457044 0.464565 0.472029 0.47703 0.477859 0.477457 0.463732 0.460923 0.450957 
0.443424 0.430499 0.425797 0.436436 0.451201 0.467121 0.474001 0.473248 0.471742 
0.475015 0.465483 0.446222 0.444401 0.442994 0.44263 0.444767 0.447832 0.449167 
0.450511 0.450661 0.449946 0.459801 0.480028 0.500771 0.519704 0.524851 0.527569 
0.463087 0.466874 0.455429 0.444676 0.431138 0.41546 0.427709 0.442942 0.462387 
0.47537 0.481499 0.486784 0.470321 0.469568 0.447015 0.443955 0.4417 0.439088 
0.441539 0.445488 0.448075 0.4494 0.450208 0.44953 0.457276 0.483682 0.512169 
0.536871 0.551273 0.561186 0.452431 0.443163 0.447477 0.43768 0.431187 0.41931 
0.424388 0.445751 0.452224 0.46086 0.468117 0.480095 0.479575 0.456662 0.449213 
0.448297 0.444638 0.440346 0.442052 0.445783 0.448601 0.45038 0.450722 0.450101 
0.457468 0.481394 0.512092 0.533974 0.549977 0.551453 0.435499 0.415441 0.411309 
0.408367 0.406667 0.406254 0.406019 0.428307 0.436691 0.438418 0.444368 0.460127 
0.466538 0.462172 0.455431 0.452598 0.448115 0.442926 0.442527 0.44607 0.449195 
0.450743 0.452117 0.451369 0.456963 0.479773 0.508355 0.529894 0.540917 0.547576 
0.406855 0.400013 0.37978 0.377577 0.370073 0.373636 0.373538 0.392218 0.408389 
0.406578 0.41127 0.429809 0.447179 0.454594 0.459684 0.458096 0.454226 0.44537 
0.443965 0.447555 0.451325 0.452176 0.453937 0.453698 0.458338 0.477503 0.500189 
0.516209 0.525123 0.529778 0.368116 0.359271 0.357954 0.351119 0.340865 0.340631 
0.348626 0.3616 0.378184 0.374121 0.376091 0.391858 0.420343 0.437226 0.457793 
0.461362 0.457688 0.450093 0.447538 0.447497 0.451676 0.456186 0.457009 0.458503 
0.459919 0.472448 0.488095 0.499846 0.505007 0.503519 0.330429 0.323046 0.320748 
0.319332 0.314148 0.308806 0.324269 0.334457 0.354021 0.349753 0.345203 0.361215 
0.384442 0.416314 0.447997 0.462552 0.465673 0.452741 0.450804 0.452735 0.454432 
0.45871 0.46337 0.466064 0.46332 0.467444 0.474118 0.479964 0.483562 0.485882 
0.300265 0.291411 0.288525 0.287525 0.282546 0.279785 0.284763 0.301318 0.314377 
0.325027 0.321805 0.336693 0.365717 0.393901 0.424984 0.452901 0.466192 0.459037 
0.457319 0.458598 0.460681 0.463505 0.46907 0.470927 0.468786 0.465609 0.457952 
0.458119 0.466088 0.464299 0.275017 0.270447 0.2636 0.263159 0.26044 0.258928 
0.263072 0.275282 0.291166 0.298002 0.30551 0.318703 0.350024 0.38071 0.400012 
0.425935 0.442338 0.456063 0.46305 0.46338 0.463302 0.468571 0.468719 0.470401 
0.465792 0.458723 0.448048 0.439896 0.443955 0.458091 0.266741 0.262553 0.26191 
0.259442 0.260565 0.258631 0.263574 0.274303 0.290345 0.294848 0.29359 0.305082 
0.332379 0.36238 0.382139 0.400891 0.4237 0.436753 0.451808 0.468458 0.45969 
0.460378 0.461651 0.459465 0.454004 0.450169 0.433613 0.421363 0.426729 0.430992 
0.268393 0.270024 0.270527 0.26865 0.273017 0.26876 0.274318 0.284684 0.298823 
0.297511 0.288961 0.300497 0.316518 0.334385 0.3581 0.383117 0.409286 0.426484 
0.4416 0.451252 0.448545 0.444008 0.442976 0.441467 0.44022 0.432593 0.420355 
0.404385 0.405987 0.422227 0.272213 0.283082 0.284858 0.280791 0.278527 0.282703 
0.281517 0.293056 0.308642 0.299926 0.289102 0.298161 0.309714 0.314818 0.33323 
0.366733 0.397698 0.411889 0.416368 0.425652 0.420803 0.415432 0.41121 0.413964 
0.421296 0.418632 0.402208 0.386056 0.384342 0.387742 0.27835 0.291152 0.300319 
0.294996 0.29295 0.289816 0.294007 0.302375 0.303328 0.304837 0.288674 0.291934 
0.302657 0.303656 0.315505 0.350633 0.38113 0.394911 0.396976 0.385872 0.384773 
0.377717 0.373056 0.377742 0.38555 0.398322 0.384965 0.367844 0.365112 0.364382 
0.29304 0.303762 0.311188 0.309767 0.308225 0.308218 0.307674 0.312068 0.310233 
0.297082 0.286936 0.289748 0.294587 0.294993 0.30201 0.330404 0.357538 0.36913 
0.367809 0.359859 0.351384 0.351359 0.344917 0.34445 0.355931 0.361045 0.366151 
0.349216 0.343493 0.345517 0.313861 0.325403 0.328615 0.325725 0.32179 0.317912 
0.321297 0.319493 0.313952 0.30015 0.286401 0.288584 0.29312 0.293131 0.292617 
0.308702 0.329964 0.336961 0.336502 0.333553 0.334471 0.338877 0.336847 0.32539 
0.328999 0.335008 0.336791 0.32807 0.324553 0.32374 0.324585 0.350666 0.348257 
0.345678 0.33762 0.330603 0.328909 0.328517 0.319 0.302322 0.289097 0.287015 
0.293435 0.293444 0.288248 0.290985 0.301818 0.308445 0.310396 0.317554 0.326503 
0.336291 0.336866 0.326443 0.308205 0.306535 0.307896 0.30539 0.307773 0.313892 
0.334939 0.361407 0.368601 0.364323 0.355597 0.342723 0.339866 0.340885 0.324439 
0.305598 0.291304 0.290995 0.293887 0.294354 0.286599 0.278282 0.28319 0.290615 
0.298226 0.309385 0.326312 0.337612 0.337247 0.32816 0.311705 0.297703 0.283142 
0.290855 0.297365 0.314417 0.350002 0.378717 0.386645 0.381426 0.373839 0.36396 
0.348219 0.346837 0.332507 0.305514 0.293579 0.298084 0.29993 0.297087 0.287938 
0.274754 0.275115 0.281524 0.296508 0.31023 0.327057 0.339232 0.339614 0.332488 
0.318091 0.306314 0.287623 0.282269 0.299314 0.314639 0.368379 0.39292 0.407634 
0.400064 0.390069 0.391126 0.368329 0.355716 0.335137 0.30896 0.300399 0.305771 
0.310112 0.304554 0.291622 0.280559 0.276216 0.288013 0.294066 0.312792 0.329585 
0.341785 0.346533 0.337639 0.327986 0.313873 0.295896 0.287639 0.302739 0.318275 
0.385018 0.410615 0.428834 0.415831 0.405454 0.39747 0.391565 0.36569 0.34438 
0.317779 0.309197 0.319891 0.322789 0.313576 0.302472 0.290157 0.289225 0.290044 
0.29958 0.314407 0.334972 0.347746 0.352287 0.348867 0.337894 0.327095 0.305685 
0.295918 0.31064 0.327298 0.404698 0.430155 0.449223 0.438846 0.421997 0.409119 
0.396692 0.375294 0.354723 0.335697 0.328372 0.336416 0.338686 0.327198 0.318921 
0.306798 0.306869 0.308401 0.304563 0.314972 0.338172 0.355552 0.363075 0.361251 
0.352775 0.342763 0.322237 0.313488 0.325107 0.334957 0.41912 0.453059 0.467054 
0.461145 0.438966 0.421405 0.405511 0.391247 0.368484 0.357656 0.360427 0.36337 
0.358504 0.346249 0.340613 0.336256 0.334459 0.331268 0.328173 0.32891 0.347965 
0.366146 0.37559 0.3775 0.371385 0.358527 0.343552 0.334937 0.34584 0.348046 
0.435662 0.466619 0.485374 0.477742 0.45914 0.436788 0.418865 0.407508 0.391722 
0.382886 0.393843 0.395735 0.388333 0.376625 0.364554 0.372831 0.366244 0.366568 
0.356868 0.354903 0.364996 0.384337 0.39647 0.395135 0.392092 0.374702 0.363338 
0.363104 0.370752 0.375921 0.449056 0.478476 0.505327 0.499832 0.47211 0.458642 
0.444978 0.425946 0.413081 0.415282 0.426268 0.437322 0.419535 0.408992 0.404396 
0.403946 0.405885 0.396161 0.387682 0.385391 0.392772 0.406306 0.419636 0.420074 
0.414189 0.404132 0.387827 0.391579 0.401592 0.406592 0.457502 0.49459 0.514493 
0.515605 0.497336 0.482061 0.460047 0.45534 0.445783 0.442578 0.453591 0.474649 
0.458523 0.442415 0.438754 0.435654 0.445171 0.430068 0.418147 0.41767 0.426949 
0.44152 0.449819 0.443262 0.442003 0.434203 0.415228 0.426544 0.435968 0.440045 
0.472067 0.505371 0.529554 0.530328 0.51015 0.502206 0.49748 0.473333 0.469791 
0.480675 0.490324 0.492853 0.494815 0.477967 0.472191 0.471957 0.466348 0.468928 
0.450771 0.453063 0.46528 0.477024 0.49121 0.480823 0.467449 0.469661 0.446184 
0.451219 0.462969 0.470734 0.489472 0.509165 0.545012 0.539995 0.533723 0.528007 
0.523069 0.515541 0.500478 0.514537 0.519788 0.518236 0.518011 0.510099 0.50754 
0.510589 0.502889 0.49471 0.483482 0.493386 0.49733 0.511545 0.515849 0.518976 
0.504704 0.500628 0.49972 0.4811 0.495289 0.483286 0.517656 0.520883 0.547853 
0.562088 0.548538 0.551763 0.559182 0.550267 0.550846 0.538828 0.555326 0.547982 
0.53921 0.538654 0.539171 0.537066 0.541078 0.532102 0.517714 0.520295 0.542189 
0.538283 0.549225 0.548958 0.540853 0.533994 0.532207 0.530772 0.521695 0.521379 
0.548436 0.552831 0.56289 0.58518 0.581238 0.578622 0.578913 0.574993 0.572647 
0.592078 0.582661 0.577096 0.569926 0.567356 0.569028 0.566276 0.564291 0.565463 
0.554051 0.551093 0.566781 0.573927 0.574839 0.576773 0.571999 0.573034 0.562884 
0.561753 0.559935 0.545813 0.574689 0.578467 0.585347 0.598191 0.611862 0.596047 
0.600614 0.606565 0.600828 0.594649 0.607901 0.60348 0.587948 0.583666 0.587915 
0.589842 0.590548 0.587281 0.583747 0.574503 0.586828 0.594337 0.594899 0.597368 
0.596083 0.591939 0.595433 0.590101 0.583491 0.57882 0.609634 0.607974 0.608864 
0.612948 0.618011 0.621869 0.612273 0.6238 0.630878 0.623725 0.615455 0.6108 
0.603677 0.596108 0.595469 0.602709 0.606441 0.607054 0.60415 0.598755 0.601171 
0.60897 0.610587 0.613569 0.615757 0.616635 0.614837 0.612443 0.609796 0.602375 

Water_Elev_m 1 9270 float
0.790062 0.791079 0.790838 0.790906 0.790917 0.790925 0.790929 0.790947 0.790945 
0.790932 0.790971 0.790953 0.790947 0.790963 0.790999 0.791013 0.791006 0.790998 
0.790994 0.790983 0.790987 0.790954 0.790946 0.790955 0.790965 0.790956 0.790939 
0.790891 0.791114 0.790092 0.790192 0.790375 0.79043 0.790469 0.79051 0.790525 
0.79054 0.790544 0.790563 0.790572 0.790583 0.790614 0.790616 0.790608 0.790607 
0.790606 0.790592 0.790585 0.790593 0.790582 0.79057 0.790569 0.790551 0.790555 
0.790562 0.790554 0.790525 0.790465 0.790402 0.790226 0.790151 0.790239 0.790321 
0.790349 0.790363 0.790398 0.790422 0.790428 0.790404 0.790455 0.790473 0.790479 
0.790487 0.790511 0.790504 0.790493 0.790459 0.790439 0.790427 0.790424 0.790438 
0.790429 0.790435 0.790426 0.790426 0.79042 0.790443 0.790372 0.79031 0.790188 
0.790046 0.790072 0.790074 0.790132 0.790155 0.790179 0.790208 0.790225 0.790264 
0.790208 0.79027 0.790286 0.790277 0.790294 0.790313 0.790293 0.790275 0.790235 
0.790212 0.79018 0.790185 0.790207 0.790219 0.790219 0.790222 0.790212 0.790159 
0.790214 0.790138 0.790092 0.789868 0.789883 0.789894 0.789905 0.789923 0.789943 
0.789957 0.789986 0.790017 0.79004 0.790006 0.790041 0.790044 0.790037 0.790056 
0.790073 0.79007 0.790045 0.790028 0.790014 0.789976 0.789977 0.789964 0.78997 
0.789965 0.789974 0.78995 0.789896 0.789907 0.789917 0.789722 0.789716 0.78973 
0.789732 0.789765 0.789791 0.789809 0.789825 0.789838 0.789878 0.789858 0.789871 
0.789903 0.789886 0.789891 0.789909 0.789932 0.789954 0.789949 0.789956 0.789942 
0.789901 0.789861 0.789821 0.789795 0.789774 0.789767 0.789744 0.789766 0.78977 
0.789688 0.789686 0.789707 0.789729 0.789764 0.789795 0.789817 0.789836 0.789851 
0.789866 0.789887 0.789892 0.789908 0.78992 0.78992 0.789933 0.789958 0.789981 
0.78999 0.789996 0.789988 0.789956 0.789913 0.789867 0.789826 0.789792 0.789765 
0.789747 0.789743 0.789756 0.789715 0.789731 0.789765 0.789796 0.789826 0.789853 
0.789875 0.789897 0.789915 0.789927 0.789951 0.78996 0.789971 0.789988 0.789994 
0.790004 0.790016 0.790024 0.790029 0.790032 0.790028 0.790012 0.789987 0.789954 
0.78992 0.789887 0.789855 0.789826 0.789791 0.789782 0.789716 0.789734 0.789763 
0.789785 0.789802 0.789817 0.78983 0.789843 0.789857 0.789868 0.789882 0.789891 
0.789903 0.789917 0.789925 0.789934 0.789939 0.789938 0.789935 0.789937 0.789937 
0.789932 0.789926 0.78991 0.789891 0.78987 0.789852 0.789827 0.789792 0.789776 
0.789662 0.789679 0.789675 0.789679 0.789678 0.789678 0.789679 0.789679 0.789677 
0.789682 0.789687 0.789689 0.789696 0.789709 0.789718 0.789722 0.789732 0.789733 
0.789732 0.789728 0.78973 0.789732 0.78973 0.789735 0.78973 0.789725 0.789719 
0.789722 0.789719 0.789714 0.789672 0.78965 0.789636 0.789625 0.78962 0.789615 
0.78961 0.789606 0.789601 0.789595 0.789596 0.789598 0.789601 0.789606 0.789615 
0.789622 0.789625 0.789631 0.789635 0.789637 0.789635 0.789635 0.789638 0.789639 
0.789644 0.789646 0.789648 0.789651 0.789663 0.789674 0.789659 0.789655 0.789647 
0.789641 0.789636 0.789632 0.789629 0.789626 0.789623 0.789622 0.789622 0.789624 
0.789627 0.789631 0.789637 0.789641 0.789645 0.789649 0.789652 0.789653 0.789654 
0.789655 0.789657 0.789658 0.78966 0.789662 0.789664 0.789667 0.789672 0.789675 
0.789656 0.789654 0.789648 0.789644 0.78964 0.789636 0.789633 0.789631 0.789629 
0.789628 0.789628 0.789629 0.789631 0.789635 0.789639 0.789642 0.789646 0.789649 
0.789651 0.789653 0.789654 0.789656 0.789657 0.789659 0.789661 0.789662 0.789665 
0.789667 0.78967 0.789672 0.789655 0.789654 0.78965 0.789647 0.789644 0.789642 
0.789639 0.789637 0.789636 0.789635 0.789635 0.789636 0.789638 0.789641 0.789644 
0.789647 0.789649 0.789652 0.789654 0.789656 0.789657 0.789659 0.78966 0.789662 
0.789663 0.789665 0.789667 0.789668 0.789671 0.789671 0.789656 0.789655 0.789653 
0.789651 0.789648 0.789646 0.789644 0.789643 0.789642 0.789641 0.789642 0.789642 
0.789644 0.789646 0.789648 0.78965 0.789653 0.789655 0.789657 0.789658 0.78966 
0.789661 0.789663 0.789664 0.789666 0.789667 0.789669 0.78967 0.789671 0.789672 
0.789657 0.789657 0.789655 0.789654 0.789652 0.78965 0.789649 0.789648 0.789647 
0.789647 0.789647 0.789648 0.789649 0.78965 0.789652 0.789654 0.789656 0.789658 
0.78966 0.789661 0.789663 0.789664 0.789665 0.789667 0.789668 0.789669 0.78967 
0.789671 0.789672 0.789673 0.78966 0.789659 0.789658 0.789657 0.789656 0.789655 
0.789654 0.789653 0.789652 0.789652 0.789652 0.789653 0.789654 0.789655 0.789656 
0.789658 0.78966 0.789661 0.789663 0.789664 0.789665 0.789667 0.789668 0.789669 
0.78967 0.789671 0.789672 0.789673 0.789674 0.789674 0.789662 0.789662 0.789661 
0.78966 0.789659 0.789659 0.789658 0.789657 0.789657 0.789657 0.789657 0.789658 
0.789658 0.789659 0.789661 0.789662 0.789663 0.789665 0.789666 0.789667 0.789668 
0.789669 0.78967 0.789672 0.789673 0.789673 0.789674 0.789675 0.789676 0.789676 
0.789665 0.789665 0.789664 0.789664 0.789663 0.789663 0.789662 0.789662 0.789661 
0.789661 0.789662 0.789662 0.789663 0.789663 0.789665 0.789666 0.789667 0.789668 
0.789669 0.78967 0.789671 0.789672 0.789673 0.789674 0.789675 0.789676 0.789677 
0.789677 0.789678 0.789678 0.789668 0.789668 0.789668 0.789667 0.789667 0.789666 
0.789666 0.789666 0.789666 0.789666 0.789666 0.789666 0.789667 0.789667 0.789668 
0.789669 0.78967 0.789671 0.789672 0.789673 0.789674 0.789675 0.789676 0.789677 
0.789678 0.789678 0.789679 0.789679 0.78968 0.78968 0.789671 0.789671 0.789671 
0.789671 0.78967 0.78967 0.78967 0.78967 0.78967 0.78967 0.78967 0.78967 
0.789671 0.789671 0.789672 0.789673 0.789674 0.789675 0.789675 0.789676 0.789677 
0.789678 0.789679 0.789679 0.78968 0.789681 0.789681 0.789682 0.789682 0.789682 
0.789674 0.789674 0.789674 0.789674 0.789674 0.789674 0.789674 0.789674 0.789674 
0.789674 0.789674 0.789674 0.789675 0.789675 0.789676 0.789676 0.789677 0.789678 
0.789679 0.789679 0.78968 0.789681 0.789682 0.789682 0.789683 0.789683 0.789684 
0.789684 0.789684 0.789684 0.789678 0.789678 0.789678 0.789678 0.789678 0.789677 
0.789677 0.789677 0.789677 0.789678 0.789678 0.789678 0.789678 0.789679 0.789679 
0.78968 0.789681 0.789681 0.789682 0.789683 0.789683 0.789684 0.789685 0.789685 
0.789686 0.789686 0.789686 0.789687 0.789687 0.789687 0.789681 0.789681 0.789681 
0.789681 0.789681 0.789681 0.789681 0.789681 0.789681 0.789681 0.789681 0.789682 
0.789682 0.789683 0.789683 0.789683 0.789684 0.789685 0.789685 0.789686 0.789686 
0.789687 0.789687 0.789688 0.789688 0.789689 0.789689 0.789689 0.78969 0.78969 
0.789685 0.789685 0.789685 0.789685 0.789685 0.789685 0.789685 0.789685 0.789685 
0.789685 0.789685 0.789685 0.789686 0.789686 0.789687 0.789687 0.789687 0.789688 
0.789688 0.789689 0.789689 0.78969 0.78969 0.789691 0.789691 0.789692 0.789692 
0.789692 0.789692 0.789692 0.789688 0.789688 0.789688 0.789688 0.789688 0.789688 
0.789688 0.789688 0.789688 0.789689 0.789689 0.789689 0.789689 0.78969 0.78969 
0.78969 0.789691 0.789691 0.789692 0.789692 0.789693 0.789693 0.789693 0.789694 
0.789694 0.789694 0.789695 0.789695 0.789695 0.789695 0.789692 0.789692 0.789692 
0.789692 0.789692 0.789692 0.789692 0.789692 0.789692 0.789692 0.789692 0.789693 
0.789693 0.789693 0.789693 0.789694 0.789694 0.789695 0.789695 0.789695 0.789696 
0.789696 0.789696 0.789697 0.789697 0.789697 0.789698 0.789698 0.789698 0.789698 
0.789695 0.789695 0.789695 0.789695 0.789695 0.789695 0.789695 0.789695 0.789696 
0.789696 0.789696 0.789696 0.789696 0.789697 0.789697 0.789697 0.789698 0.789698 
0.789698 0.789699 0.789699 0.789699 0.7897 0.7897 0.7897 0.7897 0.789701 
0.789701 0.789701 0.789701 0.789698 0.789699 0.789699 0.789699 0.789699 0.789699 
0.789699 0.789699 0.789699 0.789699 0.789699 0.789699 0.7897 0.7897 0.7897 
0.789701 0.789701 0.789701 0.789701 0.789702 0.789702 0.789702 0.789703 0.789703 
0.789703 0.789703 0.789703 0.789704 0.789704 0.789704 0.789702 0.789702 0.789702 
0.789702 0.789702 0.789702 0.789702 0.789702 0.789702 0.789703 0.789703 0.789703 
0.789703 0.789703 0.789704 0.789704 0.789704 0.789704 0.789705 0.789705 0.789705 
0.789706 0.789706 0.789706 0.789706 0.789706 0.789706 0.789707 0.789707 0.789707 
0.789705 0.789705 0.789705 0.789706 0.789706 0.789706 0.789706 0.789706 0.789706 
0.789706 0.789706 0.789706 0.789707 0.789707 0.789707 0.789707 0.789707 0.789708 
0.789708 0.789708 0.789708 0.789709 0.789709 0.789709 0.789709 0.789709 0.78971 
0.78971 0.78971 0.78971 0.789709 0.789709 0.789709 0.789709 0.789709 0.789709 
0.789709 0.789709 0.789709 0.78971 0.78971 0.78971 0.78971 0.78971 0.78971 
0.789711 0.789711 0.789711 0.789711 0.789711 0.789712 0.789712 0.789712 0.789712 
0.789712 0.789712 0.789713 0.789713 0.789713 0.789713 0.789712 0.789712 0.789712 
0.789712 0.789712 0.789713 0.789713 0.789713 0.789713 0.789713 0.789713 0.789713 
0.789713 0.789714 0.789714 0.789714 0.789714 0.789714 0.789714 0.789715 0.789715 
0.789715 0.789715 0.789715 0.789715 0.789716 0.789716 0.789716 0.789716 0.789716 
0.789716 0.789716 0.789716 0.789716 0.789716 0.789716 0.789716 0.789716 0.789716 
0.789716 0.789716 0.789717 0.789717 0.789717 0.789717 0.789717 0.789717 0.789718 
0.789718 0.789718 0.789718 0.789718 0.789718 0.789718 0.789719 0.789719 0.789719 
0.789719 0.789719 0.789719 0.789719 0.789719 0.789719 0.789719 0.789719 0.789719 
0.789719 0.78972 0.78972 0.78972 0.78972 0.78972 0.78972 0.78972 0.78972 
0.789721 0.789721 0.789721 0.789721 0.789721 0.789721 0.789721 0.789722 0.789722 
0.789722 0.789722 0.789722 0.789722 0.789722 0.789722 0.789723 0.789723 0.789723 
0.789723 0.789723 0.789723 0.789723 0.789723 0.789723 0.789723 0.789723 0.789723 
0.789723 0.789724 0.789724 0.789724 0.789724 0.789724 0.789724 0.789724 0.789725 
0.789725 0.789725 0.789725 0.789725 0.789725 0.789725 0.789725 0.789725 0.789725 
0.789726 0.789726 0.789726 0.789726 0.789726 0.789726 0.789726 0.789726 0.789726 
0.789726 0.789727 0.789727 0.789727 0.789727 0.789727 0.789727 0.789727 0.789727 
0.789728 0.789728 0.789728 0.789728 0.789728 0.789728 0.789728 0.789728 0.789728 
0.789728 0.789728 0.789728 0.789729 0.789729 0.789729 0.789729 0.789729 0.78973 
0.78973 0.78973 0.78973 0.78973 0.78973 0.78973 0.78973 0.78973 0.78973 
0.78973 0.789731 0.789731 0.789731 0.789731 0.789731 0.789731 0.789731 0.789731 
0.789731 0.789731 0.789731 0.789731 0.789731 0.789731 0.789733 0.789733 0.789733 
0.789733 0.789733 0.789733 0.789733 0.789733 0.789733 0.789733 0.789733 0.789733 
0.789734 0.789734 0.789734 0.789734 0.789734 0.789734 0.789734 0.789734 0.789734 
0.789734 0.789734 0.789734 0.789735 0.789735 0.789735 0.789735 0.789735 0.789735 
0.789736 0.789736 0.789736 0.789736 0.789736 0.789736 0.789736 0.789736 0.789737 
0.789737 0.789737 0.789737 0.789737 0.789737 0.789737 0.789737 0.789737 0.789737 
0.789737 0.789737 0.789738 0.789738 0.789738 0.789738 0.789738 0.789738 0.789738 
0.789738 0.789738 0.789738 0.789739 0.78974 0.78974 0.78974 0.78974 0.78974 
0.78974 0.78974 0.78974 0.78974 0.78974 0.78974 0.78974 0.78974 0.78974 
0.78974 0.789741 0.789741 0.789741 0.789741 0.789741 0.789741 0.789741 0.789741 
0.789741 0.789741 0.789741 0.789741 0.789741 0.789741 0.789743 0.789743 0.789743 
0.789743 0.789743 0.789743 0.789743 0.789743 0.789743 0.789743 0.789743 0.789743 
0.789743 0.789744 0.789744 0.789744 0.789744 0.789744 0.789744 0.789744 0.789744 
0.789744 0.789744 0.789744 0.789744 0.789744 0.789744 0.789744 0.789744 0.789744 
0.789746 0.789746 0.789746 0.789746 0.789746 0.789746 0.789746 0.789747 0.789747 
0.789747 0.789747 0.789747 0.789747 0.789747 0.789747 0.789747 0.789747 0.789747 
0.789747 0.789747 0.789747 0.789747 0.789747 0.789747 0.789747 0.789747 0.789748 
0.789747 0.789748 0.789747 0.78975 0.78975 0.78975 0.78975 0.78975 0.78975 
0.78975 0.78975 0.78975 0.78975 0.78975 0.78975 0.78975 0.78975 0.78975 
0.78975 0.78975 0.78975 0.789751 0.789751 0.789751 0.789751 0.789751 0.789751 
0.789751 0.789751 0.789751 0.789751 0.789751 0.789751 0.789753 0.789753 0.789753 
0.789753 0.789753 0.789753 0.789753 0.789753 0.789753 0.789753 0.789753 0.789753 
0.789753 0.789754 0.789754 0.789754 0.789754 0.789754 0.789754 0.789754 0.789754 
0.789754 0.789754 0.789754 0.789754 0.789754 0.789754 0.789754 0.789754 0.789754 
0.789756 0.789756 0.789756 0.789756 0.789756 0.789756 0.789757 0.789757 0.789757 
0.789757 0.789757 0.789757 0.789757 0.789757 0.789757 0.789757 0.789757 0.789757 
0.789757 0.789757 0.789757 0.789757 0.789757 0.789757 0.789757 0.789757 0.789757 
0.789757 0.789757 0.789757 0.78976 0.78976 0.78976 0.78976 0.78976 0.78976 
0.78976 0.78976 0.78976 0.78976 0.78976 0.78976 0.78976 0.78976 0.78976 
0.78976 0.78976 0.78976 0.78976 0.78976 0.78976 0.78976 0.789761 0.789761 
0.789761 0.789761 0.789761 0.789761 0.789761 0.78976 0.789763 0.789763 0.789763 
0.789763 0.789763 0.789763 0.789763 0.789763 0.789763 0.789763 0.789763 0.789763 
0.789763 0.789764 0.789764 0.789764 0.789764 0.789764 0.789764 0.789764 0.789764 
0.789764 0.789764 0.789764 0.789764 0.789764 0.789764 0.789764 0.789764 0.789764 
0.789766 0.789766 0.789766 0.789766 0.789766 0.789767 0.789767 0.789767 0.789767 
0.789767 0.789767 0.789767 0.789767 0.789767 0.789767 0.789767 0.789767 0.789767 
0.789767 0.789767 0.789767 0.789767 0.789767 0.789767 0.789767 0.789767 0.789767 
0.789767 0.789767 0.789767 0.78977 0.78977 0.78977 0.78977 0.78977 0.78977 
0.78977 0.78977 0.78977 0.78977 0.78977 0.78977 0.78977 0.78977 0.78977 
0.78977 0.78977 0.78977 0.78977 0.78977 0.78977 0.78977 0.78977 0.78977 
0.78977 0.78977 0.78977 0.78977 0.78977 0.78977 0.789773 0.789773 0.789773 
0.789773 0.789773 0.789773 0.789773 0.789773 0.789773 0.789773 0.789773 0.789773 
0.789773 0.789773 0.789774 0.789774 0.789774 0.789774 0.789774 0.789774 0.789774 
0.789774 0.789774 0.789774 0.789774 0.789774 0.789774 0.789774 0.789774 0.789774 
0.789776 0.789776 0.789776 0.789777 0.789777 0.789777 0.789777 0.789777 0.789777 
0.789777 0.789777 0.789777 0.789777 0.789777 0.789777 0.789777 0.789777 0.789777 
0.789777 0.789777 0.789777 0.789777 0.789777 0.789777 0.789777 0.789777 0.789777 
0.789777 0.789777 0.789777 0.78978 0.78978 0.78978 0.78978 0.78978 0.78978 
0.78978 0.78978 0.78978 0.78978 0.78978 0.78978 0.78978 0.78978 0.78978 
0.78978 0.78978 0.78978 0.78978 0.78978 0.78978 0.78978 0.78978 0.78978 
0.78978 0.78978 0.78978 0.78978 0.78978 0.78978 0.789783 0.789783 0.789783 
0.789783 0.789783 0.789783 0.789783 0.789783 0.789783 0.789783 0.789783 0.789783 
0.789783 0.789783 0.789783 0.789783 0.789784 0.789784 0.789784 0.789784 0.789784 
0.789784 0.789784 0.789784 0.789784 0.789784 0.789784 0.789784 0.789784 0.789783 
0.789786 0.789787 0.789786 0.789787 0.789787 0.789787 0.789787 0.789787 0.789787 
0.789787 0.789787 0.789787 0.789787 0.789787 0.789787 0.789787 0.789787 0.789787 
0.789787 0.789787 0.789787 0.789787 0.789787 0.789787 0.789787 0.789787 0.789787 
0.789787 0.789787 0.789787 0.78979 0.78979 0.78979 0.78979 0.78979 0.78979 
0.78979 0.78979 0.78979 0.78979 0.78979 0.78979 0.78979 0.78979 0.78979 
0.78979 0.78979 0.78979 0.78979 0.78979 0.78979 0.78979 0.78979 0.78979 
0.78979 0.78979 0.78979 0.78979 0.78979 0.78979 0.789793 0.789793 0.789793 
0.789793 0.789793 0.789793 0.789793 0.789793 0.789793 0.789793 0.789793 0.789793 
0.789793 0.789793 0.789793 0.789793 0.789793 0.789793 0.789793 0.789793 0.789793 
0.789793 0.789793 0.789793 0.789793 0.789793 0.789793 0.789793 0.789793 0.789793 
0.789796 0.789797 0.789796 0.789797 0.789797 0.789797 0.789797 0.789797 0.789797 
0.789797 0.789797 0.789797 0.789797 0.789797 0.789797 0.789797 0.789797 0.789797 
0.789797 0.789797 0.789797 0.789797 0.789797 0.789797 0.789797 0.789797 0.789797 
0.789797 0.789797 0.789797 0.7898 0.7898 0.7898 0.7898 0.7898 0.7898 
0.7898 0.7898 0.7898 0.7898 0.7898 0.7898 0.7898 0.7898 0.7898 
0.7898 0.7898 0.7898 0.7898 0.7898 0.7898 0.7898 0.7898 0.7898 
0.7898 0.7898 0.7898 0.7898 0.7898 0.7898 0.789803 0.789803 0.789803 
0.789803 0.789803 0.789803 0.789803 0.789803 0.789803 0.789803 0.789803 0.789803 
0.789803 0.789803 0.789803 0.789803 0.789803 0.789803 0.789803 0.789803 0.789804 
0.789803 0.789803 0.789803 0.789803 0.789803 0.789803 0.789803 0.789803 0.789803 
0.789806 0.789807 0.789806 0.789807 0.789807 0.789807 0.789807 0.789807 0.789807 
0.789807 0.789807 0.789807 0.789807 0.789807 0.789807 0.789807 0.789807 0.789807 
0.789807 0.789807 0.789807 0.789807 0.789807 0.789807 0.789807 0.789807 0.789807 
0.789807 0.789807 0.789807 0.78981 0.78981 0.78981 0.78981 0.78981 0.78981 
0.78981 0.78981 0.78981 0.78981 0.78981 0.78981 0.78981 0.78981 0.78981 
0.78981 0.78981 0.78981 0.78981 0.78981 0.78981 0.78981 0.78981 0.78981 
0.78981 0.78981 0.78981 0.78981 0.78981 0.78981 0.789813 0.789813 0.789813 
0.789813 0.789813 0.789813 0.789813 0.789813 0.789813 0.789813 0.789813 0.789813 
0.789813 0.789813 0.789813 0.789813 0.789813 0.789813 0.789813 0.789813 0.789813 
0.789813 0.789813 0.789813 0.789813 0.789813 0.789813 0.789813 0.789813 0.789813 
0.789816 0.789817 0.789817 0.789817 0.789817 0.789817 0.789817 0.789817 0.789817 
0.789817 0.789817 0.789817 0.789817 0.789817 0.789817 0.789817 0.789817 0.789817 
0.789817 0.789817 0.789817 0.789817 0.789817 0.789817 0.789817 0.789817 0.789817 
0.789817 0.789817 0.789817 0.78982 0.78982 0.78982 0.78982 0.78982 0.78982 
0.78982 0.78982 0.78982 0.78982 0.78982 0.78982 0.78982 0.78982 0.78982 
0.78982 0.78982 0.78982 0.78982 0.78982 0.78982 0.78982 0.78982 0.78982 
0.78982 0.78982 0.78982 0.78982 0.78982 0.78982 0.789823 0.789823 0.789823 
0.789823 0.789823 0.789823 0.789823 0.789823 0.789823 0.789823 0.789823 0.789823 
0.789823 0.789823 0.789823 0.789823 0.789823 0.789823 0.789823 0.789823 0.789823 
0.789823 0.789823 0.789823 0.789823 0.789823 0.789823 0.789823 0.789823 0.789823 
0.789827 0.789827 0.789827 0.789827 0.789827 0.789827 0.789827 0.789827 0.789827 
0.789827 0.789827 0.789827 0.789827 0.789827 0.789827 0.789827 0.789827 0.789827 
0.789827 0.789827 0.789827 0.789827 0.789827 0.789827 0.789827 0.789827 0.789827 
0.789827 0.789827 0.789827 0.78983 0.78983 0.78983 0.78983 0.78983 0.78983 
0.78983 0.78983 0.78983 0.78983 0.78983 0.78983 0.78983 0.78983 0.78983 
0.78983 0.78983 0.78983 0.78983 0.78983 0.78983 0.78983 0.78983 0.78983 
0.78983 0.78983 0.78983 0.78983 0.78983 0.78983 0.789833 0.789833 0.789833 
0.789833 0.789833 0.789833 0.789833 0.789833 0.789833 0.789833 0.789833 0.789833 
0.789833 0.789833 0.789833 0.789833 0.789833 0.789833 0.789833 0.789833 0.789833 
0.789833 0.789833 0.789833 0.789833 0.789833 0.789833 0.789833 0.789833 0.789833 
0.789837 0.789837 0.789837 0.789837 0.789837 0.789837 0.789837 0.789837 0.789837 
0.789837 0.789837 0.789837 0.789837 0.789837 0.789837 0.789837 0.789837 0.789837 
0.789837 0.789837 0.789837 0.789837 0.789837 0.789837 0.789837 0.789837 0.789837 
0.789837 0.789837 0.789837 0.78984 0.78984 0.78984 0.78984 0.78984 0.78984 
0.78984 0.78984 0.78984 0.78984 0.78984 0.78984 0.78984 0.78984 0.78984 
0.78984 0.78984 0.78984 0.78984 0.78984 0.78984 0.78984 0.78984 0.78984 
0.78984 0.78984 0.78984 0.78984 0.78984 0.78984 0.789843 0.789843 0.789843 
0.789843 0.789843 0.789843 0.789843 0.789843 0.789843 0.789843 0.789843 0.789843 
0.789843 0.789843 0.789843 0.789843 0.789843 0.789843 0.789843 0.789843 0.789843 
0.789843 0.789843 0.789843 0.789843 0.789843 0.789843 0.789843 0.789843 0.789843 
0.789847 0.789847 0.789847 0.789847 0.789847 0.789847 0.789847 0.789847 0.789847 
0.789847 0.789847 0.789847 0.789847 0.789847 0.789847 0.789847 0.789847 0.789847 
0.789847 0.789847 0.789847 0.789847 0.789847 0.789847 0.789847 0.789847 0.789847 
0.789847 0.789847 0.789847 0.78985 0.78985 0.78985 0.78985 0.78985 0.78985 
0.78985 0.78985 0.78985 0.78985 0.78985 0.78985 0.78985 0.78985 0.78985 
0.78985 0.78985 0.78985 0.78985 0.78985 0.78985 0.78985 0.78985 0.78985 
0.78985 0.78985 0.78985 0.78985 0.78985 0.78985 0.789853 0.789853 0.789853 
0.789853 0.789853 0.789853 0.789853 0.789853 0.789853 0.789853 0.789853 0.789853 
0.789853 0.789853 0.789853 0.789853 0.789853 0.789853 0.789853 0.789853 0.789853 
0.789853 0.789853 0.789853 0.789853 0.789853 0.789853 0.789853 0.789853 0.789853 
0.789857 0.789857 0.789857 0.789857 0.789857 0.789857 0.789857 0.789857 0.789857 
0.789857 0.789857 0.789857 0.789857 0.789857 0.789857 0.789857 0.789857 0.789857 
0.789857 0.789857 0.789857 0.789857 0.789857 0.789857 0.789857 0.789857 0.789857 
0.789857 0.789857 0.789857 0.78986 0.78986 0.78986 0.78986 0.78986 0.78986 
0.78986 0.78986 0.78986 0.78986 0.78986 0.78986 0.78986 0.78986 0.78986 
0.78986 0.78986 0.78986 0.78986 0.78986 0.78986 0.78986 0.78986 0.78986 
0.78986 0.78986 0.78986 0.78986 0.78986 0.78986 0.789863 0.789863 0.789863 
0.789863 0.789863 0.789863 0.789863 0.789863 0.789863 0.789863 0.789863 0.789863 
0.789863 0.789863 0.789863 0.789863 0.789863 0.789863 0.789863 0.789863 0.789863 
0.789863 0.789863 0.789863 0.789863 0.789863 0.789864 0.789863 0.789864 0.789863 
0.789867 0.789867 0.789867 0.789867 0.789867 0.789867 0.789867 0.789867 0.789867 
0.789867 0.789867 0.789867 0.789867 0.789867 0.789867 0.789867 0.789867 0.789867 
0.789867 0.789867 0.789867 0.789867 0.789867 0.789867 0.789867 0.789867 0.789867 
0.789867 0.789867 0.789867 0.78987 0.78987 0.78987 0.78987 0.78987 0.78987 
0.78987 0.78987 0.78987 0.78987 0.78987 0.78987 0.78987 0.78987 0.78987 
0.78987 0.78987 0.78987 0.78987 0.78987 0.78987 0.78987 0.78987 0.78987 
0.78987 0.78987 0.78987 0.78987 0.78987 0.78987 0.789873 0.789874 0.789873 
0.789874 0.789873 0.789874 0.789873 0.789873 0.789873 0.789873 0.789873 0.789873 
0.789873 0.789873 0.789873 0.789873 0.789873 0.789873 0.789873 0.789873 0.789873 
0.789873 0.789873 0.789873 0.789874 0.789874 0.789874 0.789874 0.789874 0.789873 
0.789877 0.789877 0.789877 0.789877 0.789877 0.789877 0.789877 0.789877 0.789877 
0.789877 0.789877 0.789877 0.789877 0.789877 0.789877 0.789877 0.789877 0.789877 
0.789877 0.789877 0.789877 0.789877 0.789877 0.789877 0.789877 0.789877 0.789877 
0.789877 0.789877 0.789877 0.78988 0.78988 0.78988 0.78988 0.78988 0.78988 
0.78988 0.78988 0.78988 0.78988 0.78988 0.78988 0.78988 0.78988 0.78988 
0.78988 0.78988 0.78988 0.78988 0.78988 0.78988 0.78988 0.78988 0.78988 
0.78988 0.78988 0.78988 0.78988 0.78988 0.78988 0.789884 0.789884 0.789884 
0.789884 0.789884 0.789884 0.789884 0.789883 0.789883 0.789883 0.789883 0.789883 
0.789883 0.789883 0.789883 0.789883 0.789883 0.789883 0.789883 0.789883 0.789883 
0.789883 0.789884 0.789884 0.789884 0.789884 0.789884 0.789884 0.789884 0.789884 
0.789887 0.789887 0.789887 0.789887 0.789887 0.789887 0.789887 0.789887 0.789887 
0.789887 0.789887 0.789887 0.789887 0.789887 0.789887 0.789887 0.789887 0.789887 
0.789887 0.789887 0.789887 0.789887 0.789887 0.789887 0.789887 0.789887 0.789887 
0.789887 0.789887 0.789887 0.789891 0.789891 0.78989 0.789891 0.78989 0.78989 
0.78989 0.78989 0.78989 0.78989 0.78989 0.78989 0.78989 0.78989 0.78989 
0.78989 0.78989 0.78989 0.78989 0.78989 0.78989 0.78989 0.78989 0.78989 
0.78989 0.78989 0.789891 0.789891 0.789891 0.789891 0.789894 0.789894 0.789894 
0.789894 0.789894 0.789894 0.789894 0.789894 0.789893 0.789893 0.789893 0.789893 
0.789893 0.789893 0.789893 0.789893 0.789893 0.789893 0.789893 0.789893 0.789893 
0.789893 0.789894 0.789894 0.789894 0.789894 0.789894 0.789894 0.789894 0.789894 
0.789897 0.789898 0.789897 0.789897 0.789897 0.789897 0.789897 0.789897 0.789897 
0.789897 0.789897 0.789896 0.789896 0.789896 0.789896 0.789896 0.789896 0.789896 
0.789896 0.789897 0.789897 0.789897 0.789897 0.789897 0.789897 0.789897 0.789897 
0.789897 0.789898 0.789897 0.789901 0.789901 0.789901 0.789901 0.789901 0.789901 
0.7899 0.7899 0.7899 0.7899 0.7899 0.7899 0.7899 0.7899 0.7899 
0.7899 0.7899 0.7899 0.7899 0.7899 0.7899 0.7899 0.7899 0.7899 
0.789901 0.789901 0.789901 0.789901 0.789901 0.789901 0.789904 0.789905 0.789904 
0.789904 0.789904 0.789904 0.789904 0.789904 0.789903 0.789903 0.789903 0.789903 
0.789903 0.789903 0.789903 0.789903 0.789903 0.789903 0.789903 0.789903 0.789903 
0.789903 0.789904 0.789904 0.789904 0.789904 0.789904 0.789904 0.789905 0.789905 
0.789908 0.789908 0.789908 0.789908 0.789908 0.789907 0.789907 0.789907 0.789907 
0.789906 0.789906 0.789906 0.789906 0.789906 0.789906 0.789906 0.789906 0.789906 
0.789906 0.789906 0.789906 0.789907 0.789907 0.789907 0.789907 0.789908 0.789908 
0.789908 0.789908 0.789908 0.789912 0.789912 0.789912 0.789911 0.789911 0.789911 
0.78991 0.78991 0.78991 0.78991 0.789909 0.789909 0.789909 0.789909 0.789909 
0.789909 0.789909 0.789909 0.789909 0.789909 0.78991 0.78991 0.78991 0.78991 
0.789911 0.789911 0.789911 0.789912 0.789912 0.789912 0.789916 0.789916 0.789915 
0.789915 0.789915 0.789914 0.789914 0.789913 0.789913 0.789913 0.789913 0.789912 
0.789912 0.789912 0.789912 0.789912 0.789912 0.789912 0.789912 0.789913 0.789913 
0.789913 0.789913 0.789914 0.789914 0.789915 0.789915 0.789915 0.789916 0.789916 
0.789919 0.789919 0.789919 0.789919 0.789918 0.789918 0.789917 0.789917 0.789916 
0.789916 0.789916 0.789915 0.789915 0.789915 0.789915 0.789915 0.789915 0.789915 
0.789915 0.789916 0.789916 0.789916 0.789917 0.789917 0.789918 0.789918 0.789919 
0.789919 0.789919 0.789919 0.789924 0.789923 0.789923 0.789922 0.789922 0.789921 
0.78992 0.78992 0.789919 0.789919 0.789919 0.789918 0.789918 0.789918 0.789918 
0.789918 0.789918 0.789918 0.789918 0.789919 0.789919 0.789919 0.78992 0.789921 
0.789921 0.789922 0.789922 0.789923 0.789923 0.789924 0.789928 0.789928 0.789927 
0.789926 0.789925 0.789924 0.789924 0.789923 0.789923 0.789922 0.789922 0.789921 
0.789921 0.789921 0.789921 0.789921 0.789921 0.789921 0.789921 0.789922 0.789922 
0.789923 0.789923 0.789924 0.789924 0.789925 0.789926 0.789927 0.789928 0.789928 
0.789933 0.789932 0.789931 0.78993 0.789929 0.789928 0.789927 0.789926 0.789926 
0.789925 0.789925 0.789924 0.789924 0.789924 0.789924 0.789924 0.789924 0.789924 
0.789924 0.789925 0.789925 0.789926 0.789926 0.789927 0.789928 0.789929 0.78993 
0.789931 0.789932 0.789933 0.789938 0.789937 0.789935 0.789934 0.789932 0.789931 
0.78993 0.789929 0.789928 0.789928 0.789927 0.789927 0.789927 0.789926 0.789926 
0.789926 0.789926 0.789927 0.789927 0.789927 0.789928 0.789928 0.789929 0.78993 
0.789931 0.789932 0.789934 0.789935 0.789937 0.789938 0.789944 0.789942 0.78994 
0.789937 0.789936 0.789934 0.789933 0.789932 0.789931 0.78993 0.78993 0.78993 
0.789929 0.789929 0.789929 0.789929 0.789929 0.789929 0.78993 0.78993 0.78993 
0.789931 0.789932 0.789933 0.789934 0.789936 0.789937 0.78994 0.789942 0.789944 
0.789955 0.789947 0.789943 0.78994 0.789938 0.789937 0.789935 0.789934 0.789934 
0.789933 0.789932 0.789932 0.789932 0.789932 0.789931 0.789931 0.789932 0.789932 
0.789932 0.789932 0.789933 0.789934 0.789934 0.789935 0.789937 0.789938 0.78994 
0.789943 0.789947 0.789955 0.744889 0.74357 0.744047 0.743901 0.743905 0.743909 
0.74403 0.744023 0.744033 0.744106 0.744131 0.744114 0.744117 0.744121 0.744087 
0.744016 0.74397 0.743944 0.74394 0.743947 0.743901 0.74384 0.743837 0.743838 
0.743843 0.743858 0.743849 0.74397 0.743504 0.744826 0.75248 0.7517 0.751888 
0.751722 0.751632 0.751611 0.751791 0.751765 0.751778 0.751978 0.752123 0.752154 
0.752182 0.752182 0.752075 0.751875 0.751717 0.751628 0.75161 0.751622 0.751549 
0.751447 0.751438 0.751436 0.751431 0.751453 0.751517 0.751672 0.75155 0.752423 
0.759687 0.759315 0.759376 0.759249 0.759125 0.759094 0.759231 0.75923 0.759289 
0.759573 0.759843 0.759971 0.760031 0.760003 0.759815 0.759513 0.759255 0.759107 
0.759057 0.759038 0.758952 0.758855 0.758841 0.758831 0.758802 0.758814 0.758919 
0.759096 0.759189 0.759702 0.76607 0.765944 0.76598 0.765909 0.765784 0.765738 
0.765825 0.765863 0.765984 0.766315 0.76665 0.766857 0.766953 0.766902 0.766651 
0.766285 0.765976 0.765803 0.765727 0.765671 0.765568 0.765491 0.765488 0.765477 
0.765424 0.765414 0.765528 0.765704 0.765886 0.766172 0.771929 0.771995 0.772017 
0.772006 0.771884 0.771821 0.77188 0.771953 0.772121 0.772472 0.772808 0.773044 
0.773172 0.773119 0.772831 0.772437 0.772125 0.771972 0.771892 0.771807 0.771679 
0.771622 0.771649 0.771652 0.771574 0.771537 0.771647 0.771797 0.772018 0.772108 
0.777479 0.777778 0.777747 0.777801 0.777677 0.777604 0.777656 0.777745 0.777922 
0.778262 0.778535 0.778742 0.778892 0.778862 0.778577 0.778196 0.777926 0.777838 
0.777777 0.777678 0.777519 0.777486 0.777554 0.777581 0.777482 0.777418 0.777525 
0.777621 0.77788 0.777705 0.782879 0.783529 0.783365 0.783484 0.783366 0.783302 
0.783358 0.783434 0.783562 0.783842 0.783993 0.78412 0.78426 0.784272 0.784051 
0.783754 0.78357 0.783565 0.78353 0.783446 0.783278 0.783273 0.783362 0.783405 
0.783303 0.783232 0.78334 0.783342 0.783675 0.783092 0.78744 0.788486 0.788169 
0.788313 0.788234 0.788211 0.788256 0.788294 0.788334 0.788488 0.788515 0.788554 
0.788631 0.788663 0.788581 0.788454 0.788372 0.788411 0.788379 0.788345 0.788231 
0.788243 0.788293 0.788323 0.788258 0.788215 0.788304 0.788205 0.788595 0.787566 
0.74 0.74 0.74 0.74 0.740001 0.740001 0.740001 0.740001 0.740001 
0.74 0.74 0.740001 0.740001 0.740001 0.740001 0.740001 0.740001 0.740001 
0.740001 0.740001 0.740001 0.740001 0.740001 0.74 0.74 0.74 0.74 
0.74 0.74 0.74 0.740001 0.740001 0.740001 0.740001 0.740001 0.740001 
0.740001 0.740001 0.740001 0.740001 0.740001 0.740001 0.740001 0.740001 0.740001 
0.740001 0.740001 0.740001 0.740001 0.740001 0.740001 0.740001 0.740001 0.740001 
0.740001 0.740001 0.740001 0.740001 0.740001 0.740001 0.740002 0.740002 0.740002 
0.740002 0.740002 0.740002 0.740002 0.740002 0.740002 0.740002 0.740002 0.740002 
0.740002 0.740002 0.740002 0.740002 0.740002 0.740002 0.740002 0.740002 0.740002 
0.740002 0.740002 0.740002 0.740002 0.740002 0.740002 0.740002 0.740002 0.740002 
0.740003 0.740003 0.740003 0.740003 0.740003 0.740003 0.740003 0.740003 0.740003 
0.740003 0.740003 0.740003 0.740003 0.740003 0.740003 0.740003 0.740003 0.740003 
0.740003 0.740003 0.740003 0.740003 0.740003 0.740003 0.740003 0.740003 0.740003 
0.740003 0.740003 0.740003 0.740004 0.740004 0.740004 0.740004 0.740004 0.740004 
0.740004 0.740004 0.740004 0.740004 0.740004 0.740004 0.740004 0.740004 0.740004 
0.740004 0.740004 0.740004 0.740004 0.740004 0.740004 0.740004 0.740004 0.740004 
0.740004 0.740004 0.740004 0.740004 0.740004 0.740004 0.740005 0.740005 0.740005 
0.740005 0.740005 0.740005 0.740005 0.740005 0.740005 0.740005 0.740005 0.740005 
0.740005 0.740005 0.740005 0.740005 0.740005 0.740005 0.740005 0.740005 0.740005 
0.740005 0.740005 0.740005 0.740005 0.740005 0.740005 0.740005 0.740005 0.740005 
0.740006 0.740006 0.740006 0.740006 0.740006 0.740006 0.740006 0.740006 0.740006 
0.740006 0.740006 0.740006 0.740006 0.740006 0.740006 0.740006 0.740006 0.740006 
0.740006 0.740006 0.740006 0.740006 0.740006 0.740006 0.740006 0.740006 0.740006 
0.740006 0.740006 0.740006 0.740007 0.740007 0.740007 0.740007 0.740007 0.740007 
0.740007 0.740007 0.740007 0.740007 0.740007 0.740007 0.740007 0.740007 0.740007 
0.740007 0.740007 0.740007 0.740007 0.740007 0.740007 0.740007 0.740007 0.740007 
0.740007 0.740007 0.740007 0.740007 0.740007 0.740007 0.740008 0.740008 0.740008 
0.740008 0.740008 0.740008 0.740008 0.740008 0.740008 0.740008 0.740008 0.740008 
0.740008 0.740008 0.740008 0.740008 0.740008 0.740008 0.740008 0.740008 0.740008 
0.740008 0.740008 0.740008 0.740008 0.740008 0.740008 0.740008 0.740008 0.740008 
0.740009 0.740009 0.740009 0.740009 0.740009 0.740009 0.740009 0.740009 0.740009 
0.740009 0.740009 0.740009 0.740009 0.740009 0.740009 0.740009 0.740009 0.740009 
0.740009 0.740009 0.740009 0.740009 0.740009 0.740009 0.740009 0.740009 0.740009 
0.740009 0.740009 0.740009 0.74001 0.74001 0.74001 0.74001 0.74001 0.74001 
0.74001 0.74001 0.74001 0.74001 0.74001 0.74001 0.74001 0.74001 0.74001 
0.74001 0.74001 0.74001 0.74001 0.74001 0.74001 0.74001 0.74001 0.74001 
0.74001 0.74001 0.74001 0.74001 0.74001 0.74001 0.740011 0.740011 0.740011 
0.740011 0.740011 0.740011 0.740011 0.740011 0.740011 0.740011 0.740011 0.740011 
0.740011 0.740011 0.740011 0.740011 0.740011 0.740011 0.740011 0.740011 0.740011 
0.740011 0.740011 0.740011 0.740011 0.740011 0.740011 0.740011 0.740011 0.740011 
0.740012 0.740012 0.740012 0.740012 0.740012 0.740012 0.740012 0.740012 0.740012 
0.740012 0.740012 0.740012 0.740012 0.740012 0.740012 0.740012 0.740012 0.740012 
0.740012 0.740012 0.740012 0.740012 0.740012 0.740012 0.740012 0.740012 0.740012 
0.740012 0.740012 0.740012 0.740013 0.740013 0.740013 0.740013 0.740013 0.740013 
0.740013 0.740013 0.740013 0.740013 0.740013 0.740013 0.740013 0.740013 0.740013 
0.740013 0.740013 0.740013 0.740013 0.740013 0.740013 0.740013 0.740013 0.740013 
0.740013 0.740013 0.740013 0.740013 0.740013 0.740013 0.740014 0.740014 0.740014 
0.740014 0.740014 0.740014 0.740014 0.740014 0.740014 0.740014 0.740014 0.740014 
0.740014 0.740014 0.740014 0.740014 0.740014 0.740014 0.740014 0.740014 0.740014 
0.740014 0.740014 0.740014 0.740014 0.740014 0.740014 0.740014 0.740014 0.740014 
0.740015 0.740015 0.740015 0.740015 0.740015 0.740015 0.740015 0.740015 0.740015 
0.740015 0.740015 0.740015 0.740015 0.740015 0.740015 0.740015 0.740015 0.740015 
0.740015 0.740015 0.740015 0.740015 0.740015 0.740015 0.740015 0.740015 0.740015 
0.740015 0.740015 0.740015 0.740016 0.740016 0.740016 0.740016 0.740016 0.740016 
0.740016 0.740016 0.740016 0.740016 0.740016 0.740016 0.740016 0.740016 0.740016 
0.740016 0.740016 0.740016 0.740016 0.740016 0.740016 0.740016 0.740016 0.740016 
0.740016 0.740016 0.740016 0.740016 0.740016 0.740016 0.740017 0.740017 0.740017 
0.740017 0.740017 0.740017 0.740017 0.740017 0.740017 0.740017 0.740017 0.740017 
0.740017 0.740017 0.740017 0.740017 0.740017 0.740017 0.740017 0.740017 0.740017 
0.740017 0.740017 0.740017 0.740017 0.740017 0.740017 0.740017 0.740017 0.740017 
0.740018 0.740018 0.740018 0.740018 0.740018 0.740018 0.740018 0.740018 0.740018 
0.740018 0.740018 0.740018 0.740018 0.740018 0.740018 0.740018 0.740018 0.740018 
0.740018 0.740018 0.740018 0.740018 0.740018 0.740018 0.740018 0.740018 0.740018 
0.740018 0.740018 0.740018 0.740019 0.740019 0.740019 0.740019 0.740019 0.740019 
0.740019 0.740019 0.740019 0.740019 0.740019 0.740019 0.740019 0.740019 0.740019 
0.740019 0.740019 0.740019 0.740019 0.740019 0.740019 0.740019 0.740019 0.740019 
0.740019 0.740019 0.740019 0.740019 0.740019 0.740019 0.74002 0.74002 0.74002 
0.74002 0.74002 0.74002 0.74002 0.74002 0.74002 0.74002 0.74002 0.74002 
0.74002 0.74002 0.74002 0.74002 0.74002 0.74002 0.74002 0.74002 0.74002 
0.74002 0.74002 0.74002 0.74002 0.74002 0.74002 0.74002 0.74002 0.74002 
0.740021 0.740021 0.740021 0.740021 0.740021 0.740021 0.740021 0.740021 0.740021 
0.740021 0.740021 0.740021 0.740021 0.740021 0.740021 0.740021 0.740021 0.740021 
0.740021 0.740021 0.740021 0.740021 0.740021 0.740021 0.740021 0.740021 0.740021 
0.740021 0.740021 0.740021 0.740022 0.740022 0.740022 0.740022 0.740022 0.740022 
0.740022 0.740022 0.740022 0.740022 0.740022 0.740022 0.740022 0.740022 0.740022 
0.740022 0.740022 0.740022 0.740022 0.740022 0.740022 0.740022 0.740022 0.740022 
0.740022 0.740022 0.740022 0.740022 0.740022 0.740022 0.740023 0.740023 0.740023 
0.740023 0.740023 0.740023 0.740023 0.740023 0.740023 0.740023 0.740023 0.740023 
0.740023 0.740023 0.740023 0.740023 0.740023 0.740023 0.740023 0.740023 0.740023 
0.740023 0.740023 0.740023 0.740023 0.740023 0.740023 0.740023 0.740023 0.740023 
0.740024 0.740024 0.740024 0.740024 0.740024 0.740024 0.740024 0.740024 0.740024 
0.740024 0.740024 0.740024 0.740024 0.740024 0.740024 0.740024 0.740024 0.740024 
0.740024 0.740024 0.740024 0.740024 0.740024 0.740024 0.740024 0.740023 0.740023 
0.740023 0.740023 0.740023 0.740025 0.740025 0.740025 0.740025 0.740025 0.740025 
0.740025 0.740025 0.740025 0.740025 0.740025 0.740025 0.740025 0.740025 0.740025 
0.740025 0.740025 0.740025 0.740025 0.740025 0.740025 0.740025 0.740025 0.740025 
0.740025 0.740025 0.740025 0.740025 0.740025 0.740024 0.740025 0.740025 0.740025 
0.740025 0.740025 0.740025 0.740025 0.740025 0.740025 0.740025 0.740025 0.740025 
0.740025 0.740025 0.740025 0.740025 0.740025 0.740025 0.740025 0.740025 0.740025 
0.740025 0.740025 0.740025 0.740025 0.740025 0.740025 0.740025 0.740025 0.740025 
0.740026 0.740026 0.740026 0.740026 0.740026 0.740026 0.740026 0.740026 0.740026 
0.740026 0.740026 0.740026 0.740026 0.740026 0.740026 0.740026 0.740026 0.740026 
0.740026 0.740026 0.740026 0.740026 0.740026 0.740026 0.740026 0.740026 0.740026 
0.740026 0.740026 0.740026 0.740027 0.740027 0.740027 0.740027 0.740027 0.740027 
0.740027 0.740027 0.740027 0.740027 0.740027 0.740027 0.740027 0.740027 0.740027 
0.740027 0.740027 0.740027 0.740027 0.740027 0.740027 0.740027 0.740027 0.740027 
0.740027 0.740027 0.740027 0.740027 0.740027 0.740027 0.740028 0.740028 0.740028 
0.740028 0.740028 0.740028 0.740028 0.740028 0.740028 0.740028 0.740028 0.740028 
0.740028 0.740028 0.740028 0.740028 0.740028 0.740028 0.740028 0.740028 0.740028 
0.740028 0.740028 0.740028 0.740028 0.740028 0.740028 0.740028 0.740028 0.740028 
0.740029 0.740029 0.740029 0.740029 0.740029 0.740029 0.740029 0.740029 0.740029 
0.740029 0.740029 0.740029 0.740029 0.740029 0.740029 0.740029 0.740029 0.740029 
0.740029 0.740029 0.740029 0.740029 0.740029 0.740029 0.740029 0.740029 0.740029 
0.740029 0.740029 0.740029 0.74003 0.74003 0.74003 0.74003 0.74003 0.74003 
0.74003 0.74003 0.74003 0.74003 0.74003 0.74003 0.74003 0.74003 0.74003 
0.74003 0.74003 0.74003 0.74003 0.74003 0.74003 0.74003 0.74003 0.74003 
0.74003 0.74003 0.74003 0.74003 0.74003 0.74003 0.740031 0.740031 0.740031 
0.740031 0.740031 0.740031 0.740031 0.740031 0.740031 0.740031 0.740031 0.740031 
0.740031 0.740031 0.740031 0.740031 0.740031 0.740031 0.740031 0.740031 0.740031 
0.740031 0.740031 0.740031 0.740031 0.740031 0.740031 0.740031 0.740031 0.740031 
0.740032 0.740032 0.740032 0.740032 0.740032 0.740032 0.740032 0.740032 0.740032 
0.740032 0.740032 0.740032 0.740032 0.740032 0.740032 0.740032 0.740032 0.740032 
0.740032 0.740032 0.740032 0.740032 0.740032 0.740032 0.740032 0.740032 0.740032 
0.740032 0.740032 0.740032 0.740033 0.740033 0.740033 0.740033 0.740033 0.740033 
0.740033 0.740033 0.740033 0.740033 0.740033 0.740033 0.740033 0.740033 0.740033 
0.740033 0.740033 0.740033 0.740033 0.740033 0.740033 0.740033 0.740033 0.740033 
0.740033 0.740033 0.740033 0.740033 0.740033 0.740033 0.740034 0.740034 0.740034 
0.740034 0.740034 0.740034 0.740034 0.740034 0.740034 0.740034 0.740034 0.740034 
0.740034 0.740034 0.740034 0.740034 0.740034 0.740034 0.740034 0.740034 0.740034 
0.740034 0.740034 0.740034 0.740034 0.740034 0.740034 0.740034 0.740034 0.740034 
0.740035 0.740035 0.740035 0.740035 0.740035 0.740035 0.740035 0.740035 0.740035 
0.740035 0.740035 0.740035 0.740035 0.740035 0.740035 0.740035 0.740035 0.740035 
0.740035 0.740035 0.740035 0.740035 0.740035 0.740035 0.740035 0.740035 0.740035 
0.740035 0.740035 0.740035 0.740036 0.740036 0.740036 0.740036 0.740036 0.740036 
0.740036 0.740036 0.740036 0.740036 0.740036 0.740036 0.740036 0.740036 0.740036 
0.740036 0.740036 0.740036 0.740036 0.740036 0.740036 0.740036 0.740036 0.740036 
0.740036 0.740036 0.740036 0.740036 0.740036 0.740036 0.740037 0.740037 0.740037 
0.740037 0.740037 0.740037 0.740037 0.740037 0.740037 0.740037 0.740037 0.740037 
0.740037 0.740037 0.740037 0.740037 0.740037 0.740037 0.740037 0.740037 0.740037 
0.740037 0.740037 0.740037 0.740037 0.740037 0.740037 0.740037 0.740037 0.740037 
0.740038 0.740038 0.740038 0.740038 0.740038 0.740038 0.740038 0.740038 0.740038 
0.740038 0.740038 0.740038 0.740038 0.740038 0.740038 0.740038 0.740038 0.740038 
0.740038 0.740038 0.740038 0.740038 0.740038 0.740038 0.740038 0.740038 0.740038 
0.740038 0.740038 0.740038 0.740039 0.740039 0.740039 0.740039 0.740039 0.740039 
0.740039 0.740039 0.740039 0.740039 0.740039 0.740039 0.740039 0.740039 0.740039 
0.740039 0.740039 0.740039 0.740039 0.740039 0.740039 0.740039 0.740039 0.740039 
0.740039 0.740039 0.740039 0.740039 0.740039 0.740039 0.74004 0.74004 0.74004 
0.74004 0.74004 0.74004 0.74004 0.74004 0.74004 0.74004 0.74004 0.74004 
0.74004 0.74004 0.74004 0.74004 0.74004 0.74004 0.74004 0.74004 0.74004 
0.74004 0.74004 0.74004 0.74004 0.74004 0.74004 0.74004 0.74004 0.74004 
0.740041 0.740041 0.740041 0.740041 0.740041 0.740041 0.740041 0.740041 0.740041 
0.740041 0.740041 0.740041 0.740041 0.740041 0.740041 0.740041 0.740041 0.740041 
0.740041 0.740041 0.740041 0.740041 0.740041 0.740041 0.740041 0.740041 0.740041 
0.740041 0.740041 0.740041 0.740042 0.740042 0.740042 0.740042 0.740042 0.740042 
0.740042 0.740042 0.740042 0.740042 0.740042 0.740042 0.740042 0.740042 0.740042 
0.740042 0.740042 0.740042 0.740042 0.740042 0.740042 0.740042 0.740042 0.740042 
0.740042 0.740042 0.740042 0.740042 0.740042 0.740042 0.740043 0.740043 0.740043 
0.740043 0.740043 0.740043 0.740043 0.740043 0.740043 0.740043 0.740043 0.740043 
0.740043 0.740043 0.740043 0.740043 0.740043 0.740043 0.740043 0.740043 0.740043 
0.740043 0.740043 0.740043 0.740043 0.740043 0.740043 0.740043 0.740043 0.740043 
0.740044 0.740044 0.740044 0.740044 0.740044 0.740044 0.740044 0.740044 0.740044 
0.740044 0.740044 0.740044 0.740044 0.740044 0.740044 0.740044 0.740044 0.740044 
0.740044 0.740044 0.740044 0.740044 0.740044 0.740044 0.740044 0.740044 0.740044 
0.740044 0.740044 0.740044 0.740045 0.740045 0.740045 0.740045 0.740045 0.740045 
0.740045 0.740045 0.740045 0.740045 0.740045 0.740045 0.740045 0.740045 0.740045 
0.740045 0.740045 0.740045 0.740045 0.740045 0.740045 0.740045 0.740045 0.740045 
0.740045 0.740045 0.740045 0.740045 0.740045 0.740045 0.740046 0.740046 0.740046 
0.740046 0.740046 0.740046 0.740046 0.740046 0.740046 0.740046 0.740046 0.740046 
0.740046 0.740046 0.740046 0.740046 0.740046 0.740046 0.740046 0.740046 0.740046 
0.740046 0.740046 0.740046 0.740046 0.740046 0.740046 0.740046 0.740046 0.740046 
0.740047 0.740047 0.740047 0.740047 0.740047 0.740047 0.740047 0.740047 0.740047 
0.740047 0.740047 0.740047 0.740047 0.740047 0.740047 0.740047 0.740047 0.740047 
0.740047 0.740047 0.740047 0.740047 0.740047 0.740047 0.740047 0.740047 0.740047 
0.740047 0.740047 0.740047 0.740048 0.740048 0.740048 0.740048 0.740048 0.740048 
0.740048 0.740048 0.740048 0.740048 0.740048 0.740048 0.740048 0.740048 0.740048 
0.740048 0.740048 0.740048 0.740048 0.740048 0.740048 0.740048 0.740048 0.740048 
0.740048 0.740048 0.740048 0.740048 0.740048 0.740048 0.740049 0.740049 0.740049 
0.740049 0.740049 0.740049 0.740049 0.740049 0.740049 0.740049 0.740049 0.740049 
0.740049 0.740049 0.740049 0.740049 0.740049 0.740049 0.740049 0.740049 0.740049 
0.740049 0.740049 0.740049 0.740049 0.740049 0.740049 0.740049 0.740049 0.740049 
0.74005 0.74005 0.74005 0.74005 0.74005 0.74005 0.74005 0.74005 0.74005 
0.74005 0.74005 0.74005 0.74005 0.74005 0.74005 0.74005 0.74005 0.74005 
0.74005 0.74005 0.74005 0.74005 0.74005 0.74005 0.74005 0.74005 0.74005 
0.74005 0.74005 0.74005 0.740051 0.740051 0.740051 0.740051 0.740051 0.740051 
0.740051 0.740051 0.740051 0.740051 0.740051 0.740051 0.740051 0.740051 0.740051 
0.740051 0.740051 0.740051 0.740051 0.740051 0.740051 0.740051 0.740051 0.740051 
0.740051 0.740051 0.740051 0.740051 0.740051 0.740051 0.740052 0.740052 0.740052 
0.740052 0.740052 0.740052 0.740052 0.740052 0.740052 0.740052 0.740052 0.740052 
0.740052 0.740052 0.740052 0.740052 0.740052 0.740052 0.740052 0.740052 0.740052 
0.740052 0.740052 0.740052 0.740052 0.740052 0.740052 0.740052 0.740052 0.740052 
0.740053 0.740053 0.740053 0.740053 0.740053 0.740053 0.740053 0.740053 0.740053 
0.740053 0.740053 0.740053 0.740053 0.740053 0.740053 0.740053 0.740053 0.740053 
0.740053 0.740053 0.740053 0.740053 0.740053 0.740053 0.740053 0.740053 0.740053 
0.740053 0.740053 0.740053 0.740053 0.740053 0.740053 0.740053 0.740053 0.740054 
0.740054 0.740054 0.740054 0.740054 0.740054 0.740054 0.740054 0.740054 0.740054 
0.740054 0.740054 0.740054 0.740054 0.740054 0.740054 0.740054 0.740054 0.740053 
0.740053 0.740053 0.740053 0.740053 0.740053 0.740053 0.740054 0.740054 0.740054 
0.740054 0.740054 0.740054 0.740054 0.740054 0.740054 0.740054 0.740054 0.740054 
0.740054 0.740054 0.740054 0.740054 0.740054 0.740054 0.740054 0.740054 0.740054 
0.740054 0.740054 0.740054 0.740054 0.740054 0.740054 0.740054 0.740054 0.740054 
0.740055 0.740055 0.740055 0.740055 0.740055 0.740055 0.740055 0.740055 0.740055 
0.740055 0.740055 0.740055 0.740055 0.740055 0.740055 0.740055 0.740055 0.740055 
0.740055 0.740055 0.740055 0.740055 0.740055 0.740055 0.740055 0.740055 0.740055 
0.740055 0.740055 0.740055 0.740056 0.740056 0.740056 0.740056 0.740056 0.740056 
0.740056 0.740056 0.740056 0.740056 0.740056 0.740056 0.740056 0.740056 0.740056 
0.740056 0.740056 0.740056 0.740056 0.740056 0.740056 0.740056 0.740056 0.740056 
0.740056 0.740056 0.740056 0.740056 0.740056 0.740056 0.740057 0.740057 0.740057 
0.740057 0.740057 0.740057 0.740057 0.740057 0.740057 0.740057 0.740057 0.740057 
0.740057 0.740057 0.740057 0.740057 0.740057 0.740057 0.740057 0.740057 0.740057 
0.740057 0.740057 0.740057 0.740057 0.740057 0.740057 0.740057 0.740057 0.740057 
0.740058 0.740058 0.740058 0.740058 0.740058 0.740058 0.740058 0.740058 0.740058 
0.740058 0.740058 0.740058 0.740058 0.740058 0.740058 0.740058 0.740058 0.740058 
0.740058 0.740058 0.740058 0.740058 0.740058 0.740058 0.740058 0.740058 0.740058 
0.740058 0.740058 0.740058 0.740059 0.740059 0.740059 0.740059 0.740059 0.740059 
0.740059 0.740059 0.740059 0.740059 0.740059 0.740059 0.740059 0.740059 0.740059 
0.740059 0.740059 0.740059 0.740059 0.740059 0.740059 0.740059 0.740059 0.740059 
0.740059 0.740059 0.740059 0.740059 0.740059 0.740059 0.74006 0.74006 0.74006 
0.74006 0.74006 0.74006 0.74006 0.74006 0.74006 0.74006 0.74006 0.74006 
0.74006 0.74006 0.74006 0.74006 0.74006 0.74006 0.74006 0.74006 0.74006 
0.74006 0.74006 0.74006 0.74006 0.74006 0.74006 0.74006 0.74006 0.74006 
0.740061 0.740061 0.740061 0.740061 0.740061 0.740061 0.740061 0.740061 0.740061 
0.740061 0.740061 0.740061 0.740061 0.740061 0.740061 0.740061 0.740061 0.740061 
0.740061 0.740061 0.740061 0.740061 0.740061 0.740061 0.740061 0.740061 0.740061 
0.740061 0.740061 0.740061 0.740062 0.740062 0.740062 0.740062 0.740062 0.740062 
0.740062 0.740062 0.740062 0.740062 0.740062 0.740062 0.740062 0.740062 0.740062 
0.740062 0.740062 0.740062 0.740062 0.740062 0.740062 0.740062 0.740062 0.740062 
0.740062 0.740062 0.740062 0.740062 0.740062 0.740062 0.740063 0.740063 0.740063 
0.740063 0.740063 0.740063 0.740063 0.740063 0.740063 0.740063 0.740063 0.740063 
0.740063 0.740063 0.740063 0.740063 0.740063 0.740063 0.740063 0.740063 0.740063 
0.740063 0.740063 0.740063 0.740063 0.740063 0.740063 0.740063 0.740063 0.740063 
0.740064 0.740064 0.740064 0.740064 0.740064 0.740064 0.740064 0.740064 0.740064 
0.740064 0.740064 0.740064 0.740064 0.740064 0.740064 0.740064 0.740064 0.740064 
0.740064 0.740064 0.740064 0.740064 0.740064 0.740064 0.740064 0.740064 0.740064 
0.740064 0.740064 0.740064 0.740065 0.740065 0.740065 0.740065 0.740065 0.740065 
0.740065 0.740065 0.740065 0.740065 0.740065 0.740065 0.740065 0.740065 0.740065 
0.740065 0.740065 0.740065 0.740065 0.740065 0.740065 0.740065 0.740065 0.740065 
0.740065 0.740065 0.740065 0.740065 0.740065 0.740065 0.740066 0.740066 0.740066 
0.740066 0.740066 0.740066 0.740066 0.740066 0.740066 0.740066 0.740066 0.740066 
0.740066 0.740066 0.740066 0.740066 0.740066 0.740066 0.740066 0.740066 0.740066 
0.740066 0.740066 0.740066 0.740066 0.740066 0.740066 0.740066 0.740066 0.740066 
0.740067 0.740067 0.740067 0.740067 0.740067 0.740067 0.740067 0.740067 0.740067 
0.740067 0.740067 0.740067 0.740067 0.740067 0.740067 0.740067 0.740067 0.740067 
0.740067 0.740067 0.740067 0.740067 0.740067 0.740067 0.740067 0.740067 0.740067 
0.740067 0.740067 0.740067 0.740068 0.740068 0.740068 0.740068 0.740068 0.740068 
0.740068 0.740068 0.740068 0.740068 0.740068 0.740068 0.740068 0.740068 0.740068 
0.740068 0.740068 0.740068 0.740068 0.740068 0.740068 0.740068 0.740068 0.740068 
0.740068 0.740068 0.740068 0.740068 0.740068 0.740068 0.740069 0.740069 0.740069 
0.740069 0.740069 0.740069 0.740069 0.740069 0.740069 0.740069 0.740069 0.740069 
0.740069 0.740069 0.740069 0.740069 0.740069 0.740069 0.740069 0.740069 0.740069 
0.740069 0.740069 0.740069 0.740069 0.740069 0.740069 0.740069 0.740069 0.740069 
0.74007 0.74007 0.74007 0.74007 0.74007 0.74007 0.74007 0.74007 0.74007 
0.74007 0.74007 0.74007 0.74007 0.74007 0.74007 0.74007 0.74007 0.74007 
0.74007 0.74007 0.74007 0.74007 0.74007 0.74007 0.74007 0.74007 0.74007 
0.74007 0.74007 0.74007 0.740071 0.740071 0.740071 0.740071 0.740071 0.740071 
0.740071 0.740071 0.740071 0.740071 0.740071 0.740071 0.740071 0.740071 0.740071 
0.740071 0.740071 0.740071 0.740071 0.740071 0.740071 0.740071 0.740071 0.740071 
0.740071 0.740071 0.740071 0.740071 0.740071 0.740071 0.740072 0.740072 0.740072 
0.740072 0.740072 0.740072 0.740072 0.740072 0.740072 0.740072 0.740072 0.740072 
0.740072 0.740072 0.740072 0.740072 0.740072 0.740072 0.740072 0.740072 0.740072 
0.740072 0.740072 0.740072 0.740072 0.740072 0.740072 0.740072 0.740072 0.740072 
0.740073 0.740073 0.740073 0.740073 0.740073 0.740073 0.740073 0.740073 0.740073 
0.740073 0.740073 0.740073 0.740073 0.740073 0.740073 0.740073 0.740073 0.740073 
0.740073 0.740073 0.740073 0.740073 0.740073 0.740073 0.740073 0.740073 0.740073 
0.740073 0.740073 0.740073 0.740074 0.740074 0.740074 0.740074 0.740074 0.740074 
0.740074 0.740074 0.740074 0.740074 0.740074 0.740074 0.740074 0.740074 0.740074 
0.740074 0.740074 0.740074 0.740074 0.740074 0.740074 0.740074 0.740074 0.740074 
0.740074 0.740074 0.740074 0.740074 0.740074 0.740074 0.740075 0.740075 0.740075 
0.740075 0.740075 0.740075 0.740075 0.740075 0.740075 0.740075 0.740075 0.740075 
0.740075 0.740075 0.740075 0.740075 0.740075 0.740075 0.740075 0.740075 0.740075 
0.740075 0.740075 0.740075 0.740075 0.740075 0.740075 0.740075 0.740075 0.740075 
0.740076 0.740076 0.740076 0.740076 0.740076 0.740076 0.740076 0.740076 0.740076 
0.740076 0.740076 0.740076 0.740076 0.740076 0.740076 0.740076 0.740076 0.740076 
0.740076 0.740076 0.740076 0.740076 0.740076 0.740076 0.740076 0.740076 0.740076 
0.740076 0.740076 0.740076 0.740077 0.740077 0.740077 0.740077 0.740077 0.740077 
0.740077 0.740077 0.740077 0.740077 0.740077 0.740077 0.740077 0.740077 0.740077 
0.740077 0.740077 0.740077 0.740077 0.740077 0.740077 0.740077 0.740077 0.740077 
0.740077 0.740077 0.740077 0.740077 0.740077 0.740077 0.740078 0.740078 0.740078 
0.740078 0.740078 0.740078 0.740078 0.740078 0.740078 0.740078 0.740078 0.740078 
0.740078 0.740078 0.740078 0.740078 0.740078 0.740078 0.740078 0.740078 0.740078 
0.740078 0.740078 0.740078 0.740078 0.740078 0.740078 0.740078 0.740078 0.740078 
0.740079 0.740079 0.740079 0.740079 0.740079 0.740079 0.740079 0.740079 0.740079 
0.740079 0.740079 0.740079 0.740079 0.740079 0.740079 0.740079 0.740079 0.740079 
0.740079 0.740079 0.740079 0.740079 0.740079 0.740079 0.740079 0.740079 0.740079 
0.740079 0.740079 0.740079 0.74008 0.74008 0.74008 0.74008 0.74008 0.74008 
0.74008 0.74008 0.74008 0.74008 0.74008 0.74008 0.74008 0.74008 0.74008 
0.74008 0.74008 0.74008 0.74008 0.74008 0.74008 0.74008 0.74008 0.74008 
0.74008 0.74008 0.74008 0.74008 0.74008 0.74008 0.740081 0.740081 0.740081 
0.740081 0.740081 0.740081 0.740081 0.740081 0.740081 0.740081 0.740081 0.740081 
0.740081 0.740081 0.740081 0.740081 0.740081 0.740081 0.740081 0.740081 0.740081 
0.740081 0.740081 0.740081 0.740081 0.740081 0.740081 0.740081 0.740081 0.740081 
0.740082 0.740082 0.740082 0.740082 0.740082 0.740082 0.740082 0.740082 0.740082 
0.740082 0.740082 0.740082 0.740082 0.740082 0.740082 0.740082 0.740082 0.740082 
0.740082 0.740082 0.740082 0.740082 0.740082 0.740082 0.740082 0.740082 0.740082 
0.740082 0.740082 0.740082 0.740083 0.740083 0.740083 0.740083 0.740083 0.740083 
0.740083 0.740083 0.740083 0.740083 0.740083 0.740083 0.740083 0.740083 0.740083 
0.740083 0.740083 0.740083 0.740083 0.740083 0.740083 0.740083 0.740083 0.740083 
0.740083 0.740083 0.740083 0.740083 0.740083 0.740083 0.740084 0.740084 0.740084 
0.740084 0.740084 0.740084 0.740084 0.740084 0.740084 0.740084 0.740084 0.740084 
0.740084 0.740084 0.740084 0.740084 0.740084 0.740084 0.740084 0.740084 0.740084 
0.740084 0.740084 0.740084 0.740084 0.740084 0.740084 0.740084 0.740084 0.740084 
0.740085 0.740085 0.740085 0.740085 0.740085 0.740085 0.740085 0.740085 0.740085 
0.740085 0.740085 0.740085 0.740085 0.740085 0.740085 0.740085 0.740085 0.740085 
0.740085 0.740085 0.740085 0.740085 0.740085 0.740085 0.740085 0.740085 0.740085 
0.740085 0.740085 0.740085 0.740085 0.740085 0.740085 0.740085 0.740085 0.740085 
0.740086 0.740086 0.740086 0.740086 0.740086 0.740086 0.740086 0.740086 0.740086 
0.740086 0.740086 0.740086 0.740086 0.740086 0.740086 0.740086 0.740086 0.740086 
0.740086 0.740086 0.740086 0.740086 0.740086 0.740086 0.740086 0.740086 0.740086 
0.740086 0.740086 0.740086 0.740086 0.740086 0.740086 0.740086 0.740087 0.740087 
0.740087 0.740087 0.740087 0.740087 0.740087 0.740087 0.740087 0.740087 0.740087 
0.740087 0.740087 0.740087 0.740087 0.740087 0.740087 0.740087 0.740087 0.740087 
0.740087 0.740087 0.740087 0.740087 0.740087 0.740087 0.740087 0.740087 0.740088 
0.740088 0.740088 0.740088 0.740088 0.740088 0.740088 0.740088 0.740088 0.740088 
0.740088 0.740088 0.740088 0.740088 0.740088 0.740088 0.740088 0.740088 0.740088 
0.740088 0.740088 0.740088 0.740088 0.740088 0.740088 0.740088 0.740088 0.740088 
0.740088 0.740088 0.740088 0.740088 0.740088 0.740088 0.740089 0.740089 0.740089 
0.740089 0.740089 0.740089 0.740089 0.740089 0.740089 0.740089 0.740089 0.740089 
0.740089 0.740089 0.740089 0.740089 0.740089 0.740089 0.740089 0.740089 0.740089 
0.740089 0.740089 0.740089 0.740089 0.740089 0.740089 0.740089 0.740089 0.740089 
0.740089 0.74009 0.74009 0.74009 0.74009 0.74009 0.74009 0.74009 0.74009 
0.74009 0.74009 0.74009 0.74009 0.74009 0.74009 0.74009 0.74009 0.74009 
0.74009 0.74009 0.74009 0.74009 0.74009 0.74009 0.74009 0.74009 0.74009 
0.74009 0.74009 0.74009 0.74009 0.74009 0.74009 0.740091 0.740091 0.740091 
0.740091 0.740091 0.740091 0.740091 0.740091 0.740091 0.740091 0.740091 0.740091 
0.740091 0.740091 0.740091 0.740091 0.740091 0.740091 0.740091 0.740091 0.740091 
0.740091 0.740091 0.740091 0.740091 0.740091 0.740091 0.740091 0.740091 0.740092 
0.740092 0.740092 0.740092 0.740092 0.740092 0.740092 0.740092 0.740092 0.740092 
0.740092 0.740092 0.740092 0.740092 0.740092 0.740092 0.740092 0.740092 0.740092 
0.740092 0.740092 0.740092 0.740092 0.740092 0.740092 0.740092 0.740092 0.740092 
0.740092 0.740092 0.740092 0.740093 0.740093 0.740093 0.740093 0.740093 0.740093 
0.740093 0.740093 0.740093 0.740093 0.740093 0.740093 0.740093 0.740093 0.740093 
0.740093 0.740093 0.740093 0.740093 0.740093 0.740093 0.740093 0.740093 0.740093 
0.740093 0.740093 0.740093 0.740093 0.740093 0.740093 0.740093 0.740093 0.740094 
0.740094 0.740094 0.740094 0.740094 0.740094 0.740094 0.740094 0.740094 0.740094 
0.740094 0.740094 0.740094 0.740094 0.740094 0.740094 0.740094 0.740094 0.740094 
0.740094 0.740094 0.740094 0.740094 0.740094 0.740094 0.740094 0.740094 0.740094 
0.740094 0.740094 0.740095 0.740095 0.740095 0.740095 0.740095 0.740095 0.740095 
0.740095 0.740095 0.740095 0.740095 0.740095 0.740095 0.740095 0.740095 0.740095 
0.740095 0.740095 0.740095 0.740095 0.740095 0.740095 0.740095 0.740095 0.740095 
0.740095 0.740095 0.740095 0.740095 0.740095 0.740095 0.740095 0.740096 0.740096 
0.740096 0.740096 0.740096 0.740096 0.740096 0.740096 0.740096 0.740096 0.740096 
0.740096 0.740096 0.740096 0.740096 0.740096 0.740096 0.740096 0.740096 0.740096 
0.740096 0.740096 0.740096 0.740096 0.740096 0.740096 0.740096 0.740096 0.740097 
0.740097 0.740097 0.740097 0.740097 0.740097 0.740097 0.740097 0.740097 0.740097 
0.740097 0.740097 0.740097 0.740097 0.740097 0.740097 0.740097 0.740097 0.740097 
0.740097 0.740097 0.740097 0.740097 0.740097 0.740097 0.740097 0.740097 0.740097 
0.740097 0.740097 0.740098 0.740098 0.740098 0.740098 0.740098 0.740098 0.740098 
0.740098 0.740098 0.740098 0.740098 0.740098 0.740098 0.740098 0.740098 0.740098 
0.740098 0.740098 0.740098 0.740098 0.740098 0.740098 0.740098 0.740098 0.740098 
0.740098 0.740098 0.740098 0.740098 0.740098 0.740099 0.740099 0.740099 0.740099 
0.740099 0.740099 0.740099 0.740099 0.740099 0.740099 0.740099 0.740099 0.740099 
0.740099 0.740099 0.740099 0.740099 0.740099 0.740099 0.740099 0.740099 0.740099 
0.740099 0.740099 0.740099 0.740099 0.740099 0.740099 0.740099 0.740099 0.740099 
0.7401 0.7401 0.7401 0.7401 0.7401 0.7401 0.7401 0.7401 0.7401 
0.7401 0.7401 0.7401 0.7401 0.7401 0.7401 0.7401 0.7401 0.7401 
0.7401 0.7401 0.7401 0.7401 0.7401 0.7401 0.7401 0.7401 0.7401 
0.7401 0.740101 0.740101 0.740101 0.740101 0.740101 0.740101 0.740101 0.740101 
0.740101 0.740101 0.740101 0.740101 0.740101 0.740101 0.740101 0.740101 0.740101 
0.740101 0.740101 0.740101 0.740101 0.740101 0.740101 0.740101 0.740101 0.740101 
0.740101 0.740101 0.740101 0.740101 0.740102 0.740102 0.740102 0.740102 0.740102 
0.740102 0.740102 0.740102 0.740102 0.740102 0.740102 0.740102 0.740102 0.740102 
0.740101 0.740101 0.740102 0.740102 0.740102 0.740102 0.740102 0.740102 0.740102 
0.740102 0.740102 0.740102 0.740102 0.740102 0.740102 0.740102 0.740103 0.740103 
0.740103 0.740103 0.740103 0.740103 0.740103 0.740103 0.740103 0.740103 0.740103 
0.740103 0.740103 0.740103 0.740102 0.740102 0.740102 0.740102 0.740103 0.740103 
0.740103 0.740103 0.740103 0.740103 0.740103 0.740103 0.740103 0.740103 0.740103 
0.740103 0.740104 0.740104 0.740104 0.740104 0.740104 0.740104 0.740104 0.740104 
0.740104 0.740104 0.740104 0.740104 0.740104 0.740104 0.740103 0.740103 0.740103 
0.740103 0.740103 0.740103 0.740104 0.740104 0.740104 0.740104 0.740104 0.740104 
0.740104 0.740104 0.740104 0.740105 0.740105 0.740105 0.740105 0.740105 0.740105 
0.740105 0.740105 0.740105 0.740105 0.740105 0.740105 0.740105 0.740105 0.740105 
0.740104 0.740104 0.740104 0.740104 0.740104 0.740104 0.740104 0.740105 0.740105 
0.740105 0.740105 0.740105 0.740105 0.740105 0.740106 0.740106 0.740106 0.740106 
0.740106 0.740106 0.740106 0.740106 0.740106 0.740106 0.740106 0.740106 0.740106 
0.740106 0.740106 0.740106 0.740105 0.740105 0.740105 0.740105 0.740105 0.740105 
0.740105 0.740106 0.740106 0.740106 0.740106 0.740106 0.740106 0.740106 0.740107 
0.740107 0.740107 0.740107 0.740107 0.740107 0.740107 0.740107 0.740107 0.740107 
0.740107 0.740107 0.740107 0.740107 0.740107 0.740107 0.740106 0.740106 0.740106 
0.740106 0.740106 0.740106 0.740106 0.740106 0.740107 0.740107 0.740107 0.740107 
0.740107 0.740108 0.740108 0.740108 0.740108 0.740108 0.740108 0.740108 0.740108 
0.740108 0.740108 0.740108 0.740108 0.740108 0.740108 0.740108 0.740108 0.740108 
0.740107 0.740107 0.740107 0.740107 0.740107 0.740107 0.740107 0.740107 0.740108 
0.740108 0.740108 0.740108 0.740108 0.740109 0.740109 0.740109 0.740109 0.740109 
0.740109 0.740109 0.740109 0.740109 0.740109 0.740109 0.740109 0.740109 0.740109 
0.740109 0.740108 0.740109 0.740107 0.740107 0.740107 0.740107 0.740108 0.740108 
0.740108 0.740108 0.740109 0.740109 0.740109 0.740109 0.74011 0.74011 0.74011 
0.74011 0.74011 0.74011 0.74011 0.74011 0.74011 0.74011 0.74011 0.74011 
0.74011 0.74011 0.74011 0.74011 0.740109 0.74011 0.740108 0.740108 0.740108 
0.740108 0.740109 0.740109 0.740109 0.740109 0.74011 0.74011 0.74011 0.74011 
0.740111 0.740111 0.740111 0.740111 0.740111 0.740111 0.740111 0.740111 0.740111 
0.740111 0.740111 0.740111 0.740111 0.740111 0.740111 0.740111 0.74011 0.74011 
0.740109 0.740109 0.740109 0.740109 0.740109 0.74011 0.74011 0.74011 0.740111 
0.740111 0.740111 0.740112 0.740112 0.740112 0.740112 0.740112 0.740112 0.740112 
0.740112 0.740112 0.740112 0.740112 0.740112 0.740112 0.740112 0.740112 0.740111 
0.740111 0.740111 0.740111 0.740109 0.740109 0.74011 0.74011 0.74011 0.74011 
0.740111 0.740111 0.740112 0.740112 0.740112 0.740113 0.740113 0.740113 0.740113 
0.740114 0.740114 0.740114 0.740114 0.740114 0.740113 0.740113 0.740113 0.740113 
0.740113 0.740113 0.740112 0.740112 0.740112 0.740112 0.74011 0.74011 0.74011 
0.74011 0.740111 0.740111 0.740112 0.740112 0.740113 0.740113 0.740113 0.740114 
0.740114 0.740115 0.740115 0.740115 0.740115 0.740115 0.740115 0.740115 0.740115 
0.740115 0.740114 0.740114 0.740114 0.740114 0.740113 0.740113 0.740113 0.740113 
0.74011 0.74011 0.740111 0.740111 0.740112 0.740112 0.740112 0.740113 0.740114 
0.740114 0.740115 0.740115 0.740116 0.740116 0.740116 0.740116 0.740116 0.740116 
0.740116 0.740116 0.740116 0.740116 0.740115 0.740115 0.740115 0.740115 0.740114 
0.740114 0.740114 0.740114 0.740111 0.740111 0.740111 0.740111 0.740112 0.740113 
0.740113 0.740114 0.740115 0.740115 0.740116 0.740116 0.740117 0.740117 0.740118 
0.740118 0.740118 0.740118 0.740118 0.740118 0.740117 0.740117 0.740117 0.740116 
0.740116 0.740116 0.740115 0.740115 0.740115 0.740115 0.740111 0.740111 0.740112 
0.740112 0.740113 0.740113 0.740114 0.740115 0.740116 0.740116 0.740117 0.740118 
0.740118 0.740119 0.740119 0.740119 0.740119 0.740119 0.740119 0.740119 0.740119 
0.740118 0.740118 0.740117 0.740117 0.740116 0.740116 0.740116 0.740115 0.740115 
0.740111 0.740111 0.740112 0.740112 0.740113 0.740114 0.740115 0.740116 0.740117 
0.740118 0.740119 0.740119 0.74012 0.740121 0.740121 0.740121 0.740121 0.740121 
0.740121 0.740121 0.74012 0.74012 0.740119 0.740118 0.740118 0.740117 0.740117 
0.740116 0.740116 0.740116 0.740111 0.740111 0.740112 0.740113 0.740114 0.740115 
0.740116 0.740117 0.740118 0.740119 0.74012 0.740121 0.740122 0.740122 0.740123 
0.740123 0.740123 0.740123 0.740122 0.740122 0.740122 0.740121 0.74012 0.74012 
0.740119 0.740118 0.740117 0.740117 0.740116 0.740116 0.740111 0.740111 0.740112 
0.740113 0.740114 0.740115 0.740117 0.740118 0.740119 0.740121 0.740122 0.740123 
0.740124 0.740124 0.740125 0.740125 0.740125 0.740125 0.740124 0.740124 0.740123 
0.740122 0.740121 0.740121 0.74012 0.740119 0.740118 0.740117 0.740117 0.740117 
0.740111 0.740111 0.740112 0.740113 0.740114 0.740116 0.740117 0.740119 0.740121 
0.740122 0.740124 0.740125 0.740126 0.740126 0.740127 0.740127 0.740127 0.740127 
0.740126 0.740126 0.740125 0.740124 0.740123 0.740122 0.740121 0.74012 0.740118 
0.740118 0.740117 0.740117 0.74011 0.74011 0.740112 0.740113 0.740115 0.740116 
0.740118 0.74012 0.740122 0.740124 0.740126 0.740127 0.740128 0.740129 0.740129 
0.740129 0.740129 0.740129 0.740128 0.740128 0.740127 0.740126 0.740124 0.740123 
0.740121 0.74012 0.740119 0.740118 0.740117 0.740117 0.740109 0.740109 0.740111 
0.740112 0.740115 0.740117 0.740119 0.740121 0.740124 0.740126 0.740128 0.740129 
0.740131 0.740131 0.740132 0.740132 0.740132 0.740131 0.740131 0.74013 0.740129 
0.740127 0.740126 0.740124 0.740122 0.740121 0.740119 0.740118 0.740117 0.740117 
0.740108 0.740108 0.74011 0.740112 0.740115 0.740117 0.74012 0.740123 0.740126 
0.740128 0.740131 0.740132 0.740134 0.740135 0.740135 0.740135 0.740135 0.740134 
0.740133 0.740132 0.740131 0.740129 0.740127 0.740126 0.740123 0.740121 0.740119 
0.740118 0.740116 0.740116 0.740106 0.740106 0.740109 0.740111 0.740114 0.740117 
0.740121 0.740124 0.740128 0.740131 0.740134 0.740135 0.740137 0.740138 0.740138 
0.740138 0.740138 0.740137 0.740136 0.740135 0.740133 0.740131 0.740129 0.740127 
0.740124 0.740122 0.740119 0.740117 0.740115 0.740115 0.740102 0.740103 0.740106 
0.740109 0.740114 0.740118 0.740122 0.740126 0.74013 0.740134 0.740137 0.740139 
0.740141 0.740141 0.740142 0.740142 0.740141 0.74014 0.740139 0.740138 0.740136 
0.740134 0.740131 0.740128 0.740125 0.740122 0.740118 0.740116 0.740113 0.740112 
0.740099 0.7401 0.740105 0.740109 0.740114 0.740119 0.740125 0.74013 0.740135 
0.740139 0.740143 0.740145 0.740146 0.740147 0.740147 0.740147 0.740146 0.740145 
0.740144 0.740142 0.74014 0.740138 0.740135 0.740131 0.740127 0.740123 0.740119 
0.740116 0.740111 0.74011 0.740095 0.740098 0.740104 0.74011 0.740116 0.740123 
0.740129 0.740136 0.740142 0.740147 0.740151 0.740153 0.740155 0.740155 0.740155 
0.740154 0.740153 0.740152 0.74015 0.740149 0.740147 0.740144 0.74014 0.740136 
0.740132 0.740127 0.740121 0.740116 0.74011 0.740108 0.740082 0.740086 0.740094 
0.740101 0.740108 0.740116 0.740124 0.740131 0.740138 0.740144 0.740148 0.740151 
0.740152 0.740152 0.740151 0.74015 0.740149 0.740148 0.740146 0.740145 0.740142 
0.740139 0.740135 0.740131 0.740126 0.74012 0.740113 0.740107 0.740098 0.740094 
0.740049 0.740055 0.740063 0.740071 0.740079 0.740087 0.740095 0.740103 0.740111 
0.740116 0.740121 0.740123 0.740124 0.740124 0.740123 0.740122 0.74012 0.740119 
0.740117 0.740116 0.740113 0.740111 0.740106 0.740102 0.740096 0.74009 0.740083 
0.740075 0.740066 0.740061 0.739998 0.740003 0.740012 0.74002 0.740028 0.740036 
0.740044 0.740051 0.740059 0.740064 0.740068 0.74007 0.740071 0.740071 0.74007 
0.740068 0.740067 0.740065 0.740064 0.740062 0.74006 0.740057 0.740053 0.740048 
0.740043 0.740036 0.740029 0.740021 0.740013 0.740007 0.739928 0.739933 0.73994 
0.739948 0.739955 0.739962 0.73997 0.739976 0.739983 0.739987 0.739991 0.739992 
0.739993 0.739993 0.739992 0.73999 0.739989 0.739987 0.739986 0.739985 0.739982 
0.73998 0.739976 0.739971 0.739966 0.73996 0.739954 0.739946 0.739939 0.739934 
0.739838 0.739843 0.739847 0.739854 0.73986 0.739866 0.739872 0.739877 0.739882 
0.739885 0.739888 0.739889 0.73989 0.739889 0.739888 0.739887 0.739885 0.739884 
0.739883 0.739882 0.739879 0.739877 0.739874 0.73987 0.739866 0.73986 0.739855 
0.739848 0.739844 0.739839 0.739727 0.73973 0.739732 0.739737 0.739741 0.739745 
0.739749 0.739752 0.739755 0.739757 0.739759 0.739759 0.739759 0.739759 0.739758 
0.739756 0.739755 0.739754 0.739753 0.739752 0.73975 0.739748 0.739746 0.739743 
0.73974 0.739736 0.739732 0.739727 0.739725 0.739721 0.739591 0.739594 0.739593 
0.739595 0.739596 0.739597 0.739599 0.7396 0.739601 0.739601 0.739601 0.739601 
0.7396 0.739599 0.739599 0.739597 0.739596 0.739595 0.739594 0.739593 0.739592 
0.739591 0.739589 0.739588 0.739586 0.739585 0.739584 0.739581 0.739582 0.739578 
0.739432 0.739434 0.739429 0.739428 0.739425 0.739423 0.739421 0.739419 0.739417 
0.739415 0.739414 0.739413 0.739412 0.73941 0.73941 0.739409 0.739408 0.739407 
0.739406 0.739405 0.739405 0.739404 0.739404 0.739404 0.739405 0.739406 0.739407 
0.739408 0.739412 0.73941 0.739248 0.739248 0.739239 0.739234 0.739227 0.739221 
0.739216 0.73921 0.739206 0.739201 0.739198 0.739196 0.739194 0.739192 0.739192 
0.739191 0.73919 0.73919 0.739189 0.739189 0.739188 0.739189 0.73919 0.739192 
0.739195 0.739198 0.739203 0.739207 0.739216 0.739216 0.739044 0.739041 0.739028 
0.739019 0.739008 0.738998 0.738989 0.73898 0.738972 0.738965 0.73896 0.738956 
0.738954 0.738952 0.738951 0.738951 0.73895 0.73895 0.738949 0.738949 0.738949 
0.738951 0.738953 0.738957 0.738962 0.738968 0.738976 0.738984 0.738997 0.739 
0.738832 0.738826 0.738809 0.738796 0.738782 0.738769 0.738757 0.738744 0.738733 
0.738723 0.738717 0.738711 0.738708 0.738706 0.738706 0.738705 0.738705 0.738705 
0.738704 0.738705 0.738705 0.738707 0.73871 0.738716 0.738722 0.73873 0.73874 
0.738751 0.738767 0.738775 0.738638 0.738629 0.738611 0.738597 0.738582 0.738566 
0.738552 0.738536 0.738523 0.738512 0.738504 0.738498 0.738494 0.738492 0.738491 
0.738491 0.73849 0.73849 0.738489 0.73849 0.73849 0.738493 0.738497 0.738503 
0.73851 0.738519 0.738529 0.73854 0.738556 0.738565 0.738504 0.738495 0.738481 
0.738468 0.738454 0.738438 0.738423 0.738407 0.738394 0.738382 0.738374 0.738367 
0.738362 0.738359 0.738358 0.738358 0.738357 0.738356 0.738355 0.738356 0.738356 
0.738359 0.738362 0.738369 0.738375 0.738384 0.738393 0.738403 0.738414 0.738419 
0.738452 0.738449 0.738439 0.738428 0.738417 0.738403 0.738391 0.738376 0.738364 
0.738353 0.738345 0.738337 0.738333 0.738329 0.738327 0.738325 0.738324 0.738323 
0.738322 0.738322 0.738322 0.738325 0.738328 0.738333 0.738338 0.738346 0.738352 
0.738361 0.738368 0.738371 0.738448 0.738446 0.738439 0.73843 0.738421 0.738409 
0.738399 0.738387 0.738377 0.738366 0.738359 0.738351 0.738346 0.738342 0.738339 
0.738337 0.738335 0.738333 0.738332 0.738332 0.738332 0.738334 0.738335 0.73834 
0.738343 0.738349 0.738353 0.738359 0.738364 0.738366 0.738445 0.738443 0.738438 
0.738431 0.738424 0.738414 0.738406 0.738395 0.738386 0.738377 0.73837 0.738362 
0.738357 0.738352 0.738349 0.738346 0.738343 0.738341 0.738339 0.738339 0.738338 
0.73834 0.73834 0.738344 0.738345 0.73835 0.738353 0.738357 0.73836 0.738361 
0.738445 0.738443 0.73844 0.738433 0.738428 0.738419 0.738412 0.738402 0.738395 
0.738386 0.73838 0.738372 0.738367 0.738362 0.738358 0.738354 0.738351 0.738349 
0.738347 0.738346 0.738344 0.738345 0.738344 0.738347 0.738347 0.738351 0.738352 
0.738355 0.738357 0.738358 0.738446 0.738445 0.738442 0.738437 0.738432 0.738424 
0.738419 0.73841 0.738404 0.738395 0.738389 0.738382 0.738376 0.738371 0.738366 
0.738362 0.738359 0.738356 0.738353 0.738352 0.738349 0.738349 0.738348 0.73835 
0.738349 0.738352 0.738352 0.738354 0.738354 0.738355 0.738449 0.738448 0.738446 
0.738441 0.738437 0.73843 0.738425 0.738417 0.738412 0.738403 0.738397 0.73839 
0.738385 0.738379 0.738374 0.73837 0.738366 0.738362 0.738359 0.738357 0.738354 
0.738353 0.738351 0.738352 0.73835 0.738352 0.738351 0.738353 0.738352 0.738353 
0.738454 0.738453 0.738451 0.738446 0.738443 0.738437 0.738433 0.738425 0.738419 
0.738411 0.738406 0.738399 0.738393 0.738387 0.738382 0.738377 0.738372 0.738369 
0.738364 0.738362 0.738358 0.738357 0.738354 0.738354 0.738351 0.738352 0.73835 
0.738352 0.738351 0.738351 0.738459 0.738458 0.738457 0.738452 0.73845 0.738443 
0.73844 0.738432 0.738427 0.738419 0.738414 0.738406 0.738401 0.738394 0.738389 
0.738383 0.738378 0.738374 0.738369 0.738366 0.738362 0.73836 0.738356 0.738355 
0.738352 0.738352 0.73835 0.73835 0.738349 0.738349 0.738466 0.738465 0.738464 
0.738459 0.738457 0.738451 0.738448 0.73844 0.738435 0.738427 0.738422 0.738414 
0.738408 0.738401 0.738395 0.73839 0.738384 0.738379 0.738374 0.73837 0.738365 
0.738362 0.738358 0.738356 0.738352 0.738352 0.738348 0.738349 0.738347 0.738347 
0.738473 0.738472 0.738471 0.738467 0.738465 0.738459 0.738456 0.738448 0.738443 
0.738435 0.738429 0.738422 0.738415 0.738408 0.738402 0.738396 0.73839 0.738384 
0.738378 0.738374 0.738368 0.738365 0.738359 0.738357 0.738352 0.738351 0.738347 
0.738347 0.738344 0.738344 0.738482 0.738481 0.73848 0.738476 0.738474 0.738467 
0.738464 0.738456 0.738452 0.738443 0.738437 0.738429 0.738423 0.738415 0.738408 
0.738402 0.738395 0.738389 0.738382 0.738377 0.73837 0.738366 0.73836 0.738357 
0.738351 0.73835 0.738345 0.738344 0.738341 0.738341 0.738491 0.73849 0.73849 
0.738485 0.738484 0.738477 0.738474 0.738465 0.73846 0.738452 0.738445 0.738437 
0.73843 0.738422 0.738414 0.738407 0.7384 0.738393 0.738386 0.73838 0.738373 
0.738368 0.73836 0.738357 0.73835 0.738348 0.738342 0.738341 0.738338 0.738338 
0.738501 0.7385 0.7385 0.738495 0.738494 0.738486 0.738483 0.738475 0.738469 
0.73846 0.738453 0.738444 0.738437 0.738428 0.73842 0.738412 0.738405 0.738397 
0.738389 0.738383 0.738374 0.738369 0.73836 0.738356 0.738348 0.738345 0.738338 
0.738337 0.738333 0.738333 0.738513 0.738511 0.738511 0.738506 0.738505 0.738497 
0.738494 0.738485 0.738479 0.738469 0.738461 0.738452 0.738444 0.738435 0.738426 
0.738418 0.738409 0.738402 0.738393 0.738385 0.738376 0.738369 0.73836 0.738355 
0.738346 0.738342 0.738334 0.738332 0.738327 0.738327 0.738525 0.738523 0.738523 
0.738518 0.738517 0.738509 0.738505 0.738495 0.738489 0.738478 0.73847 0.73846 
0.738451 0.738441 0.738432 0.738423 0.738414 0.738405 0.738396 0.738388 0.738378 
0.73837 0.738359 0.738353 0.738342 0.738337 0.738328 0.738326 0.73832 0.73832 
0.738538 0.738536 0.738536 0.738531 0.73853 0.738521 0.738517 0.738506 0.738499 
0.738487 0.738478 0.738467 0.738457 0.738447 0.738438 0.738428 0.738418 0.738409 
0.738399 0.73839 0.738379 0.73837 0.738358 0.73835 0.738339 0.738332 0.738321 
0.738318 0.738311 0.738311 0.738551 0.73855 0.738551 0.738545 0.738544 0.738535 
0.73853 0.738518 0.73851 0.738497 0.738487 0.738475 0.738464 0.738453 0.738443 
0.738433 0.738423 0.738413 0.738402 0.738393 0.73838 0.738371 0.738357 0.738348 
0.738334 0.738326 0.738313 0.738308 0.7383 0.738299 0.738566 0.738564 0.738566 
0.73856 0.73856 0.73855 0.738545 0.738531 0.738522 0.738507 0.738495 0.738482 
0.73847 0.738459 0.738449 0.738438 0.738428 0.738418 0.738406 0.738396 0.738382 
0.738371 0.738356 0.738345 0.738329 0.738318 0.738303 0.738296 0.738286 0.738285 
0.738581 0.73858 0.738582 0.738577 0.738577 0.738567 0.738561 0.738546 0.738534 
0.738517 0.738503 0.738489 0.738476 0.738464 0.738454 0.738443 0.738433 0.738422 
0.73841 0.738399 0.738384 0.738372 0.738356 0.738342 0.738323 0.738309 0.73829 
0.73828 0.738268 0.738266 0.738597 0.738595 0.7386 0.738595 0.738597 0.738587 
0.738579 0.738561 0.738546 0.738527 0.738511 0.738495 0.73848 0.738469 0.738459 
0.738448 0.738437 0.738427 0.738414 0.738402 0.738387 0.738374 0.738356 0.738341 
0.738318 0.7383 0.738277 0.738264 0.738248 0.738246 0.738613 0.738611 0.738618 
0.738614 0.738618 0.738608 0.738599 0.738579 0.738561 0.738538 0.73852 0.738501 
0.738485 0.738474 0.738464 0.738452 0.738442 0.738432 0.738418 0.738406 0.738391 
0.738377 0.738357 0.73834 0.738315 0.738292 0.738264 0.738247 0.738229 0.738226 
0.738629 0.738628 0.738638 0.738638 0.738645 0.738636 0.738624 0.738597 0.738573 
0.738545 0.738525 0.738502 0.738483 0.738475 0.738469 0.738458 0.738448 0.738439 
0.738425 0.738413 0.738396 0.738382 0.738361 0.738341 0.738308 0.738275 0.738236 
0.73821 0.738186 0.738182 0.738633 0.738639 0.738662 0.738675 0.738695 0.738688 
0.738665 0.738617 0.738573 0.738536 0.738512 0.738482 0.738459 0.738467 0.738477 
0.738473 0.738464 0.738456 0.73844 0.738425 0.738408 0.738394 0.738372 0.738347 
0.738296 0.738234 0.738164 0.738114 0.738079 0.738072 0.738624 0.738638 0.738673 
0.738708 0.738751 0.738757 0.738724 0.738651 0.738581 0.738525 0.73849 0.738455 
0.738442 0.738453 0.738484 0.738489 0.738481 0.738473 0.738455 0.738438 0.73842 
0.73841 0.738395 0.738374 0.738314 0.738226 0.738124 0.73805 0.738005 0.737991 
0.738658 0.738656 0.738656 0.738671 0.738695 0.738717 0.738724 0.738709 0.738677 
0.73862 0.738558 0.738523 0.738578 0.738479 0.738459 0.738453 0.738435 0.738426 
0.73842 0.738412 0.738404 0.738408 0.738409 0.738417 0.738426 0.738426 0.738406 
0.738393 0.738365 0.738346 0.738752 0.738735 0.738686 0.738636 0.738592 0.738574 
0.738636 0.738684 0.738769 0.738807 0.738776 0.738726 0.738647 0.738616 0.738446 
0.738376 0.738339 0.738329 0.73833 0.738345 0.738356 0.738382 0.738409 0.738455 
0.738533 0.738653 0.738756 0.738862 0.7389 0.738914 0.738759 0.738807 0.738795 
0.738735 0.738689 0.738603 0.738641 0.738683 0.738765 0.738848 0.738876 0.738837 
0.738651 0.738587 0.738448 0.738358 0.738315 0.738291 0.738296 0.738316 0.738339 
0.738373 0.738413 0.738478 0.738555 0.738699 0.738834 0.738956 0.739056 0.73911 
0.738595 0.738586 0.738683 0.73869 0.738719 0.738712 0.738709 0.738764 0.738739 
0.738761 0.738783 0.738766 0.738711 0.73847 0.738416 0.738361 0.738319 0.738298 
0.738298 0.738314 0.738336 0.738375 0.738414 0.738483 0.738568 0.738686 0.738811 
0.738908 0.738982 0.738983 0.738367 0.738298 0.738271 0.738321 0.738394 0.73847 
0.738473 0.738519 0.738554 0.738561 0.738598 0.738602 0.738557 0.738517 0.73843 
0.738349 0.738306 0.738289 0.73828 0.738298 0.738321 0.738355 0.738398 0.738464 
0.738541 0.738664 0.738777 0.738879 0.73893 0.738972 0.738005 0.738026 0.737904 
0.73789 0.737904 0.737966 0.737995 0.738029 0.738129 0.738168 0.738249 0.738313 
0.73836 0.73837 0.738374 0.738323 0.738291 0.738264 0.73826 0.738282 0.73831 
0.73834 0.73837 0.738432 0.738505 0.738609 0.738694 0.738766 0.738804 0.738826 
0.737324 0.737325 0.737433 0.737404 0.73741 0.73744 0.737572 0.737596 0.737675 
0.737703 0.737782 0.73788 0.738022 0.738138 0.738256 0.73827 0.73825 0.738247 
0.738242 0.738242 0.738275 0.738335 0.738358 0.738415 0.738454 0.738519 0.73858 
0.73864 0.738643 0.738628 0.736404 0.73642 0.736464 0.736528 0.736609 0.736643 
0.736865 0.736977 0.737121 0.737199 0.737258 0.73742 0.737567 0.737852 0.738093 
0.738237 0.738282 0.738236 0.738227 0.738257 0.738281 0.738333 0.738388 0.738437 
0.738435 0.738441 0.738453 0.738489 0.738485 0.738486 0.73529 0.735243 0.73524 
0.735264 0.73531 0.735395 0.735495 0.735776 0.735992 0.736386 0.736678 0.736967 
0.737299 0.737567 0.737821 0.738079 0.738209 0.738253 0.738252 0.738272 0.738318 
0.738372 0.738416 0.738449 0.73844 0.738395 0.738321 0.738331 0.738344 0.738307 
0.734215 0.734183 0.734096 0.734106 0.734221 0.73434 0.734537 0.734766 0.735152 
0.735559 0.736131 0.736554 0.737004 0.737375 0.737547 0.737723 0.737875 0.73809 
0.73821 0.738265 0.738309 0.738387 0.738389 0.738398 0.738348 0.738291 0.738224 
0.73819 0.738174 0.738245 0.733975 0.733872 0.733963 0.733994 0.734223 0.734348 
0.734579 0.734803 0.735136 0.735478 0.735782 0.736185 0.73661 0.737038 0.737306 
0.737424 0.737606 0.737785 0.738003 0.738216 0.738238 0.738272 0.738288 0.738252 
0.738174 0.73813 0.738035 0.737998 0.737988 0.737951 0.734288 0.734283 0.734348 
0.734439 0.73469 0.734797 0.734979 0.735191 0.735424 0.735569 0.735715 0.736018 
0.736234 0.736515 0.736897 0.737163 0.737373 0.737597 0.737805 0.737951 0.738045 
0.73806 0.738055 0.738036 0.737965 0.737867 0.7378 0.737759 0.737739 0.73785 
0.734619 0.734774 0.734878 0.734859 0.734893 0.735126 0.735163 0.735369 0.735608 
0.735683 0.73576 0.7359 0.736055 0.736169 0.736475 0.736881 0.737144 0.737293 
0.737385 0.737513 0.737561 0.737559 0.737547 0.737606 0.737625 0.737597 0.73746 
0.737407 0.73734 0.737289 0.73495 0.735068 0.735312 0.73533 0.73539 0.735347 
0.735494 0.73552 0.735453 0.73572 0.735711 0.735669 0.735781 0.735897 0.736127 
0.736546 0.736825 0.736963 0.736987 0.736838 0.736799 0.736728 0.736711 0.73684 
0.736961 0.737123 0.73708 0.737014 0.736939 0.736895 0.735636 0.735584 0.735656 
0.735747 0.735845 0.7359 0.735865 0.735764 0.735689 0.735516 0.735608 0.735566 
0.735503 0.735577 0.735731 0.736038 0.736324 0.736427 0.736379 0.736249 0.736011 
0.735938 0.735874 0.735969 0.736222 0.736387 0.736561 0.736517 0.736379 0.736353 
0.736423 0.736314 0.736223 0.736175 0.736171 0.736109 0.736139 0.735957 0.735829 
0.735736 0.735625 0.735514 0.735449 0.73542 0.735375 0.735451 0.73566 0.735707 
0.735646 0.735553 0.735474 0.73544 0.735411 0.735328 0.735401 0.735671 0.735794 
0.735848 0.735713 0.73557 0.736773 0.736859 0.736742 0.736645 0.736557 0.736409 
0.736314 0.736222 0.736055 0.735906 0.735752 0.735492 0.73539 0.735301 0.735142 
0.73496 0.734973 0.735031 0.735023 0.735099 0.735172 0.735243 0.735229 0.735133 
0.734754 0.734775 0.734922 0.735102 0.73508 0.735068 0.73706 0.73708 0.737133 
0.737027 0.73694 0.736702 0.736603 0.736538 0.73633 0.73612 0.735889 0.735637 
0.735379 0.735238 0.735025 0.734689 0.734598 0.734681 0.734824 0.734965 0.735149 
0.735224 0.735167 0.735087 0.734863 0.734583 0.734369 0.73466 0.734769 0.734927 
0.737461 0.737475 0.73748 0.737385 0.737348 0.737183 0.73688 0.736731 0.736606 
0.736269 0.736042 0.73584 0.735588 0.735349 0.735107 0.734784 0.734592 0.734683 
0.734962 0.735159 0.735254 0.735307 0.735272 0.735225 0.735088 0.734986 0.734787 
0.73468 0.73488 0.734926 0.737851 0.737794 0.737842 0.737738 0.737724 0.737688 
0.73744 0.737085 0.736812 0.736519 0.736289 0.736084 0.735918 0.735673 0.735382 
0.735149 0.734929 0.735066 0.735146 0.735401 0.735493 0.735523 0.735537 0.735477 
0.735408 0.73531 0.735167 0.735098 0.735114 0.735177 0.738191 0.738151 0.738171 
0.738023 0.737999 0.737853 0.737848 0.737474 0.737196 0.736872 0.736595 0.736484 
0.736332 0.736099 0.735883 0.735619 0.735479 0.735312 0.735478 0.73564 0.735815 
0.735862 0.735852 0.735896 0.73581 0.73581 0.735611 0.735537 0.735525 0.735634 
0.738565 0.738511 0.738503 0.738396 0.73831 0.73814 0.737996 0.737793 0.737572 
0.73738 0.737148 0.736966 0.736849 0.736678 0.736523 0.736308 0.736161 0.736051 
0.73587 0.735917 0.736117 0.736264 0.736314 0.736373 0.736365 0.736394 0.736262 
0.736212 0.736097 0.73606 0.738837 0.738842 0.738799 0.738699 0.738615 0.738425 
0.738295 0.738191 0.738016 0.737925 0.737863 0.737664 0.737486 0.737368 0.737274 
0.737234 0.737069 0.73691 0.736809 0.736661 0.73668 0.736781 0.736838 0.736935 
0.736957 0.736963 0.736928 0.736913 0.736786 0.736681 0.739116 0.739062 0.739074 
0.738953 0.738924 0.738745 0.738644 0.738567 0.738525 0.738474 0.738472 0.738355 
0.738234 0.738157 0.738028 0.738078 0.737939 0.737861 0.737698 0.737539 0.737392 
0.737436 0.73749 0.737527 0.737541 0.737531 0.737521 0.73765 0.737538 0.737552 
0.739325 0.739279 0.739344 0.739246 0.73918 0.739101 0.739065 0.738958 0.738941 
0.73899 0.738999 0.739013 0.738868 0.738817 0.73881 0.738717 0.738698 0.738525 
0.738428 0.738303 0.738162 0.738091 0.738107 0.738162 0.738149 0.738235 0.738167 
0.738313 0.738271 0.738302 0.739476 0.739494 0.739528 0.739464 0.739505 0.739401 
0.739326 0.739357 0.739386 0.73936 0.73939 0.739471 0.739431 0.739341 0.739303 
0.739242 0.739247 0.739132 0.739015 0.738936 0.738862 0.73882 0.738759 0.738719 
0.738732 0.7388 0.738725 0.738921 0.738898 0.738956 0.739657 0.739658 0.739755 
0.739657 0.739684 0.739649 0.739704 0.7396 0.739646 0.739746 0.739769 0.739731 
0.739803 0.739756 0.739703 0.739666 0.739564 0.739596 0.739506 0.739463 0.739421 
0.739389 0.739382 0.739329 0.739229 0.73931 0.739205 0.739288 0.739285 0.739387 
0.739805 0.73976 0.739926 0.739813 0.739916 0.739911 0.739946 0.73999 0.739967 
0.740006 0.740014 0.740002 0.740022 0.74004 0.740031 0.74002 0.739959 0.739881 
0.73987 0.739874 0.739801 0.739778 0.739729 0.739761 0.739707 0.739724 0.739739 
0.739713 0.739636 0.739614 0.740081 0.739949 0.740079 0.740047 0.740101 0.740147 
0.740249 0.740271 0.740331 0.74026 0.740298 0.740279 0.740261 0.74029 0.740292 
0.740266 0.740277 0.740234 0.740191 0.740158 0.74019 0.740102 0.740099 0.74009 
0.740069 0.740084 0.740033 0.740163 0.739973 0.740097 0.740478 0.740329 0.740446 
0.740391 0.74049 0.740486 0.740517 0.740547 0.740579 0.740684 0.740631 0.740625 
0.740627 0.740632 0.740629 0.740605 0.740576 0.740579 0.740562 0.740524 0.740502 
0.7405 0.740455 0.740454 0.740446 0.740489 0.740406 0.74052 0.740381 0.740475 
0.740741 0.740546 0.740713 0.740595 0.74071 0.740683 0.740726 0.740771 0.740774 
0.740746 0.740809 0.74082 0.740797 0.740794 0.740801 0.740802 0.740793 0.740772 
0.740772 0.740732 0.740706 0.740692 0.740667 0.74066 0.740657 0.74067 0.740655 
0.740775 0.7406 0.740807 0.740216 0.739781 0.739989 0.739863 0.739918 0.73997 
0.739965 0.740005 0.740048 0.740041 0.739994 0.739992 0.740003 0.739996 0.739993 
0.740014 0.740028 0.740037 0.740033 0.740018 0.739976 0.739964 0.739947 0.73994 
0.739943 0.739965 0.739919 0.740039 0.739823 0.740212 0.739621 0.738381 0.738856 
0.7388 0.738873 0.738888 0.738939 0.738961 0.738975 0.738956 0.738926 0.7389 
0.738887 0.738888 0.738901 0.73892 0.738946 0.738957 0.738953 0.73894 0.738922 
0.738904 0.738899 0.738896 0.7389 0.738901 0.738855 0.738901 0.738411 0.739604 

Velocity_m_p_s 3 9270 double
-0.20578831434 -0.038972381502 0 -0.20394513011 0.021759355441 0 -0.20605428517 0.0026111279149 0 
-0.20703820884 0.0067087598145 0 -0.2079321146 0.0051670274697 0 -0.20873205364 0.004947649315 0 
-0.20786324143 0.0048319976777 0 -0.2066539228 0.0043883114122 0 -0.20588511229 0.0045129870996 0 
-0.20288071036 0.0057398998179 0 -0.20052497089 0.0055266008712 0 -0.19995059073 0.0042751845904 0 
-0.19836756587 0.0040458147414 0 -0.19701729715 0.0035245353356 0 -0.19810828567 0.0015913809184 0 
-0.20160590112 -0.00072858092608 0 -0.20458868146 -0.0013189202873 0 -0.20433995128 -0.00098228745628 0 
-0.20469382405 -0.0015189875849 0 -0.20563426614 -0.0022116992623 0 -0.20768836141 -0.0027903162409 0 
-0.20839567482 -0.00301569351 0 -0.20740178227 -0.0025524203666 0 -0.20649154484 -0.0026398315094 0 
-0.2074855566 -0.0034865045454 0 -0.20836953819 -0.0042397598736 0 -0.20746260881 -0.0055727162398 0 
-0.20460903645 -0.0019261313137 0 -0.20088006556 -0.022457096726 0 -0.20333664119 0.037562392652 0 
-0.15652641654 0.018874049187 0 -0.15276215971 0.014582751319 0 -0.16749981046 0.0098514473066 0 
-0.16692373157 0.00908788573 0 -0.16603380442 0.0084794769064 0 -0.16557733715 0.0074313520454 0 
-0.16499626637 0.005985524971 0 -0.16414518654 0.0052363062277 0 -0.16371670365 0.0051691210829 0 
-0.16342666745 0.0052695516497 0 -0.16152393818 0.0062739620917 0 -0.16164113581 0.005871404428 0 
-0.16165283322 0.0045679323375 0 -0.16113680601 0.0043483912013 0 -0.16033391654 0.003716136096 0 
-0.16038817167 0.0019570621662 0 -0.16130577028 -0.00011385394464 0 -0.16150982678 -0.00082844216377 0 
-0.16132499278 -0.0011091906345 0 -0.16191408038 -0.001654462656 0 -0.16225704551 -0.0021773087792 0 
-0.16355401278 -0.0036959159188 0 -0.16407586634 -0.0048321755603 0 -0.16345329583 -0.0044764708728 0 
-0.16308052838 -0.00454206625 0 -0.16376708448 -0.006071374286 0 -0.16445599496 -0.0085810702294 0 
-0.16472649574 -0.010655445978 0 -0.15044751763 -0.015349873342 0 -0.15450340509 -0.019823791459 0 
-0.15384505689 0.0083028608933 0 -0.17652350664 0.0076834913343 0 -0.18232090771 0.0072261844762 0 
-0.18287092447 0.0068179853261 0 -0.18182164431 0.0069601237774 0 -0.18061062694 0.0066364770755 0 
-0.17946018279 0.005449286662 0 -0.17912836373 0.0045648985542 0 -0.17931903899 0.0043348087929 0 
-0.17735661566 0.0046326396987 0 -0.17621868849 0.0050662257709 0 -0.17543081939 0.0049657495692 0 
-0.17511498928 0.0047277021222 0 -0.17453688383 0.0046390793286 0 -0.17500071228 0.0038560968824 0 
-0.17565558851 0.0024371438194 0 -0.17729909718 0.0005018459633 0 -0.17792026699 -0.00084745907225 0 
-0.17788094282 -0.00098909763619 0 -0.17822404206 -0.00098720705137 0 -0.17818763852 -0.0018092042301 0 
-0.17856368423 -0.0031668420415 0 -0.1788020134 -0.0044735819101 0 -0.17876535654 -0.0048189722002 0 
-0.17857068777 -0.0045259720646 0 -0.17906542122 -0.0050595547073 0 -0.17853498459 -0.006151673384 0 
-0.17974597216 -0.0072585898452 0 -0.17348948121 -0.0083245625719 0 -0.15156231821 -0.0095909610391 0 
-0.15783165395 0.0025872220285 0 -0.1854211241 0.0027640124317 0 -0.19223938882 0.0042369267903 0 
-0.19238673151 0.0056552970782 0 -0.19191499054 0.0056160725653 0 -0.19039157033 0.0050656562671 0 
-0.18887683749 0.0046492838301 0 -0.18818186224 0.0050385105424 0 -0.18809206784 0.0035542631522 0 
-0.18783096969 0.0026989113539 0 -0.18535348773 0.0043990025297 0 -0.18499152362 0.0045515424572 0 
-0.18502494693 0.0038195075467 0 -0.18366625905 0.0042078592815 0 -0.18355160952 0.0043985391967 0 
-0.18467155099 0.0037103081122 0 -0.18645742536 0.0020156460814 0 -0.18804474175 3.2303109037e-05 0 
-0.18890352547 -0.00058351963526 0 -0.18978713453 -0.001286740764 0 -0.18916141987 -0.0019583397079 0 
-0.18891505897 -0.0031041831244 0 -0.18825954199 -0.0044038128108 0 -0.18842510879 -0.0045777014457 0 
-0.18832199275 -0.0043499134481 0 -0.18888947368 -0.0055300071836 0 -0.18876777589 -0.0048585543409 0 
-0.18706707656 -0.0035934704356 0 -0.18128143251 -0.0030196306761 0 -0.15506955981 -0.0015654118033 0 
-0.16668118536 0.00099654565565 0 -0.19521695375 0.0019321638392 0 -0.20377752185 0.0026107295416 0 
-0.20412640274 0.0035776419099 0 -0.20358796418 0.0043945517391 0 -0.20254203677 0.0036786941346 0 
-0.20132477582 0.0034190027509 0 -0.20008188486 0.003612231696 0 -0.19831381738 0.004003492184 0 
-0.19938446581 0.0024711459409 0 -0.19805443287 0.0023183857556 0 -0.19693133235 0.0043869907968 0 
-0.19725257158 0.0035852710716 0 -0.1967330426 0.0032079126686 0 -0.19578081369 0.0044343760237 0 
-0.19609715044 0.0047747851349 0 -0.19689585268 0.003580944147 0 -0.19866763055 0.0016973881284 0 
-0.19965040684 0.0008501051343 0 -0.20087914169 -0.00058438524138 0 -0.20158463717 -0.0026605080348 0 
-0.2010011524 -0.003996909596 0 -0.20085296035 -0.0047502168454 0 -0.20071546733 -0.0046752253547 0 
-0.20069527626 -0.0041695856489 0 -0.20081344247 -0.0039275404997 0 -0.20234319568 -0.0048730340786 0 
-0.19973437488 -0.0029909957666 0 -0.19264869392 0.00037937870366 0 -0.16380093992 0.0013029600959 0 
-0.17667718232 0.00020115269581 0 -0.20460678637 0.001277238247 0 -0.21252153814 0.0020635440014 0 
-0.21420821548 0.0028215872589 0 -0.21343617141 0.0034699959215 0 -0.21239192784 0.002841245383 0 
-0.21154232323 0.0023415903561 0 -0.21040482819 0.0020923807751 0 -0.2092140913 0.0026910940651 0 
-0.2078191787 0.0027219774202 0 -0.20891144872 0.0022161060479 0 -0.20771560073 0.0034679190721 0 
-0.20697166026 0.0036863191053 0 -0.20747128129 0.0028689552564 0 -0.20687516034 0.0035158095416 0 
-0.20608071983 0.0044453199953 0 -0.2057044208 0.0043274387717 0 -0.20588319004 0.002769241808 0 
-0.20638357103 0.0016306175385 0 -0.20660789311 0.00069954630453 0 -0.20783822238 -0.0017869508592 0 
-0.20879076421 -0.0037446785718 0 -0.21004833281 -0.0045831180178 0 -0.21088908613 -0.0046890312806 0 
-0.21165318787 -0.004265550524 0 -0.21193684638 -0.0035241760779 0 -0.2123850435 -0.002985164756 0 
-0.21206189692 -0.0018590398831 0 -0.2029132545 -0.00013068411499 0 -0.17400729656 0.00060550513444 0 
-0.18218007684 0.00068177259527 0 -0.20969429612 0.0010734130628 0 -0.21711748838 0.0016641120892 0 
-0.21854412556 0.0020016026683 0 -0.21736486256 0.0021316425409 0 -0.21606488526 0.0018034121022 0 
-0.21503926814 0.0015283523826 0 -0.21417239308 0.0013992339373 0 -0.21342621744 0.0014173886739 0 
-0.21208663285 0.0022538630292 0 -0.2120205462 0.0023564682342 0 -0.21151854098 0.0023704192135 0 
-0.21038839221 0.0033351837192 0 -0.2105139792 0.0031360397115 0 -0.2103933543 0.0029448880814 0 
-0.20964971185 0.0034720746335 0 -0.20857667923 0.0032821565401 0 -0.2075535357 0.0023620652501 0 
-0.20743760467 0.0016035765875 0 -0.20715452731 0.00088860554388 0 -0.20769669116 -0.00051422073739 0 
-0.2094591558 -0.0018593813293 0 -0.21145518124 -0.0027289008722 0 -0.21353301406 -0.0031522330828 0 
-0.21516248584 -0.0031404374167 0 -0.21646279097 -0.0028272862546 0 -0.21692921221 -0.0022665101569 0 
-0.21589784324 -0.0018295347691 0 -0.20728105307 -0.00078205071623 0 -0.17908591032 0.00023663410684 0 
-0.18268926442 0.00087371608242 0 -0.20956024528 0.00063486670842 0 -0.21650592983 0.00069426174741 0 
-0.21728594601 0.00072127464227 0 -0.21612171829 0.00066527083982 0 -0.21478205919 0.00059682567371 0 
-0.21366557479 0.00058981351322 0 -0.21265953779 0.00062873377465 0 -0.21180196106 0.00069352966966 0 
-0.2110593915 0.0014218830038 0 -0.21001239121 0.0017651271774 0 -0.20959378779 0.0018498916179 0 
-0.20891560614 0.0027080052532 0 -0.20828805864 0.0028799714055 0 -0.20813854039 0.0026098771486 0 
-0.20755641162 0.0025846783537 0 -0.20674203336 0.0021992430557 0 -0.20601542294 0.0016201891704 0 
-0.20567899942 0.0012427408947 0 -0.20544950664 0.00093472492881 0 -0.20579858124 0.00042208965169 0 
-0.20701479912 -0.00013871233386 0 -0.20868606865 -0.00068700284464 0 -0.21066084504 -0.0011617757846 0 
-0.21248447895 -0.0014406450791 0 -0.21406231821 -0.0014528059401 0 -0.21508532763 -0.0012375611113 0 
-0.21420739591 -0.0013181427494 0 -0.2068888694 -0.0010078637861 0 -0.1791562587 -0.00057259702589 0 
-0.18226669729 7.809089584e-05 0 -0.20865932107 -0.00051303690998 0 -0.21539086103 -0.00076157134026 0 
-0.21616658568 -0.00065326946788 0 -0.21537062526 -0.00061943818582 0 -0.21436977386 -0.0005109460908 0 
-0.21346135437 -0.00040307920426 0 -0.21257331967 -0.00026425617398 0 -0.21173834801 -1.0216966984e-05 0 
-0.21112081409 0.00059388368391 0 -0.21020187438 0.0010152221657 0 -0.20969961584 0.0013628790621 0 
-0.2091139406 0.0020677139983 0 -0.20841795206 0.0023578393739 0 -0.20809958875 0.002219153801 0 
-0.20762133598 0.0020836465992 0 -0.20727297664 0.0017442508833 0 -0.20709097385 0.0013050622074 0 
-0.20703673363 0.0010453640716 0 -0.20691841841 0.00097168592038 0 -0.20707243681 0.00091824086849 0 
-0.20763812959 0.00081707077334 0 -0.2084748596 0.00065309100319 0 -0.20975168049 0.0003735559585 0 
-0.21110211313 7.6183292549e-05 0 -0.21239238977 1.3583761756e-05 0 -0.21324746311 0.00013112279703 0 
-0.21251878142 0.00010934928287 0 -0.20590206981 2.6143432478e-05 0 -0.17890313268 -8.6875748821e-05 0 
-0.18410213292 -0.00089021667372 0 -0.21011975408 -0.0016170087038 0 -0.21756893396 -0.0019085610984 0 
-0.21890376508 -0.0015306585701 0 -0.2188141197 -0.0013560039224 0 -0.21842506528 -0.0011604363099 0 
-0.21803671122 -0.0010110335425 0 -0.21766084433 -0.00089105969528 0 -0.21730521321 -0.00058056868147 0 
-0.21689464152 2.0480052626e-05 0 -0.2164196223 0.00046448933426 0 -0.21609942615 0.00085404788842 0 
-0.21563008428 0.0014625790063 0 -0.21501608193 0.0018596496666 0 -0.21465209126 0.0018199525075 0 
-0.21432618797 0.0017668149667 0 -0.21402002871 0.0016640623799 0 -0.21403075755 0.0013818498701 0 
-0.21413764358 0.0010723781306 0 -0.21420656145 0.00093738728901 0 -0.21418061852 0.0010257260874 0 
-0.21429938078 0.0010795333656 0 -0.21453757584 0.0011746537639 0 -0.21490116417 0.0011875699274 0 
-0.21555097401 0.00099913973827 0 -0.21618011594 0.00090882933 0 -0.21643565595 0.0011111554923 0 
-0.2150207907 0.0014712100383 0 -0.20782677829 0.0012466437183 0 -0.18112358451 0.00081120367395 0 
-0.18570128083 -0.001805641572 0 -0.21243798733 -0.0019372612005 0 -0.22066932917 -0.0019216049695 0 
-0.22262825072 -0.0016040897463 0 -0.22304159403 -0.0013536051847 0 -0.223118186 -0.0011858186917 0 
-0.22315509617 -0.0010266057216 0 -0.22320365906 -0.0008511566557 0 -0.22331516445 -0.00065042969072 0 
-0.22328858078 -0.00020533549832 0 -0.22313903272 0.00028994324384 0 -0.22301921248 0.00062767107738 0 
-0.22278612852 0.00099877535831 0 -0.22236435115 0.0013590223389 0 -0.22198939323 0.0015188395046 0 
-0.22173926234 0.0014336899621 0 -0.22144491971 0.00140884961 0 -0.22130180895 0.0013827509247 0 
-0.22125902772 0.0011959614931 0 -0.22133812308 0.00098738470115 0 -0.22135531902 0.00094211864052 0 
-0.22133998573 0.0010758694261 0 -0.22136048973 0.0011091722408 0 -0.22129003704 0.0012104255147 0 
-0.2213511169 0.0012341194088 0 -0.22143131495 0.0011656709248 0 -0.22122941911 0.0011809392599 0 
-0.21926006675 0.0014721100451 0 -0.21123726666 0.0014335225569 0 -0.18429471552 0.00106991746 0 
-0.18618500233 -0.00068654457573 0 -0.2134642452 -0.0011135715758 0 -0.22153519094 -0.0013759608846 0 
-0.22362813354 -0.0012546906946 0 -0.22410567105 -0.0011293797288 0 -0.22427728772 -0.00097633653786 0 
-0.22440123558 -0.00082376674982 0 -0.22452197969 -0.00063999718986 0 -0.2246530503 -0.00042007685988 0 
-0.22478158772 -0.00010256580572 0 -0.22472947836 0.00022986803378 0 -0.22463594377 0.00052273948677 0 
-0.2244977057 0.00080931710545 0 -0.22426769137 0.0010481667705 0 -0.22396847606 0.0011752815917 0 
-0.22370678186 0.0012004529126 0 -0.22355280817 0.0011974798981 0 -0.22334517539 0.0011620065197 0 
-0.22322058678 0.001074722386 0 -0.22316892445 0.00099552469328 0 -0.22322382033 0.00097414897755 0 
-0.22321496904 0.0010134970071 0 -0.22317118943 0.0010352936806 0 -0.22315594554 0.0010740141151 0 
-0.22304798663 0.0010729589267 0 -0.22297687829 0.0010670850752 0 -0.22261230648 0.0010695561068 0 
-0.22073157132 0.0011373506859 0 -0.21273475885 0.00090988201555 0 -0.18577577174 0.00050502503291 0 
-0.18700368702 -0.00046793246293 0 -0.2137247175 -0.00083046767395 0 -0.22146344185 -0.0010705069872 0 
-0.22336682677 -0.0010233971989 0 -0.22379897535 -0.00094653019914 0 -0.2239343524 -0.00082065910101 0 
-0.22402106225 -0.00068550702417 0 -0.22409667075 -0.00051629455993 0 -0.2241627872 -0.000322558888 0 
-0.22420030832 -7.5304924394e-05 0 -0.22415994108 0.00018223845109 0 -0.22407954931 0.00042290176498 0 
-0.22395312786 0.00064611044945 0 -0.22377449274 0.00083370652283 0 -0.22357043624 0.00095320004039 0 
-0.22338105738 0.0010077253683 0 -0.22322720289 0.0010288325138 0 -0.22308503091 0.0010236204835 0 
-0.22298948467 0.00098607956897 0 -0.22293612361 0.00094987696502 0 -0.22292079031 0.00093669904163 0 
-0.22289638221 0.00095655582845 0 -0.22286683321 0.00096797407605 0 -0.22284160554 0.00099082430825 0 
-0.22279931605 0.00098881160375 0 -0.22274136543 0.00098764919676 0 -0.22239416838 0.00096434401348 0 
-0.22057849169 0.00095758365933 0 -0.21289560199 0.00073013431393 0 -0.18625080585 0.00037032624823 0 
-0.18752704561 -0.00033709910349 0 -0.21404735744 -0.00064986303914 0 -0.2215616405 -0.00085255567683 0 
-0.22335125506 -0.0008375790203 0 -0.22373563051 -0.00078791426495 0 -0.22384375334 -0.00068460346665 0 
-0.22390775383 -0.00056825525826 0 -0.22395956516 -0.00041924079414 0 -0.22399799526 -0.00025274508516 0 
-0.2240125984 -5.4391926824e-05 0 -0.22397950292 0.00014878933143 0 -0.22391246259 0.00034581270302 0 
-0.2238112241 0.00052521150792 0 -0.22367748618 0.00067806203151 0 -0.22352589667 0.00078615720849 0 
-0.2233786732 0.00085317523917 0 -0.22325107455 0.00088901468553 0 -0.22313548625 0.00090314319823 0 
-0.22304904461 0.00089530553669 0 -0.22299003601 0.00088619772578 0 -0.22295644879 0.00088247307576 0 
-0.22292557359 0.00089460849995 0 -0.2228962779 0.00090029841522 0 -0.22287280858 0.00091298157349 0 
-0.22284263372 0.00090633775108 0 -0.22278776765 0.00090343185002 0 -0.22245956957 0.00086878711591 0 
-0.22071669996 0.00083176250337 0 -0.21322290599 0.00062146241544 0 -0.18675407767 0.0003023504978 0 
-0.18795862794 -0.00027608478558 0 -0.21429893374 -0.00054429128068 0 -0.22163175046 -0.00070646003587 0 
-0.22332426906 -0.00070006313035 0 -0.22366033494 -0.00066254340345 0 -0.22373859584 -0.0005755792954 0 
-0.22377838194 -0.00047599201207 0 -0.22380802035 -0.00034691762994 0 -0.22382552922 -0.00020576448878 0 
-0.22382389009 -4.2835719796e-05 0 -0.22379224002 0.00012181141938 0 -0.22373475134 0.00028448857483 0 
-0.22365215421 0.00043201009976 0 -0.2235480547 0.00056084262906 0 -0.22343198955 0.00065857928712 0 
-0.22331640124 0.00072880409425 0 -0.22321094573 0.00077317800606 0 -0.22311639786 0.00080047547817 0 
-0.22304067016 0.0008102383581 0 -0.2229834497 0.00081679905998 0 -0.22294311225 0.00082044792362 0 
-0.22291024029 0.00083158380585 0 -0.22288328409 0.00083504023496 0 -0.22286349535 0.00084319867892 0 
-0.22284480929 0.00083405623445 0 -0.22280037403 0.00082897365792 0 -0.22249788046 0.00079067936167 0 
-0.22082187235 0.00074574991595 0 -0.21348273754 0.00055773224449 0 -0.1871740669 0.00026888930006 0 
-0.18832850456 -0.00024139611924 0 -0.21450859308 -0.00047734219697 0 -0.22169177234 -0.00060662120814 0 
-0.22330565751 -0.00059921346838 0 -0.22360023856 -0.00056639919057 0 -0.22365224361 -0.00049057451542 0 
-0.22367104888 -0.00040463195182 0 -0.2236828357 -0.00029281832394 0 -0.22368557751 -0.00017298925377 0 
-0.22367423773 -3.6703222577e-05 0 -0.22364293039 9.9391538242e-05 0 -0.22359271348 0.00023559071997 0 
-0.22352448106 0.00035935748019 0 -0.22344148159 0.00047025596723 0 -0.22334994376 0.00055858242558 0 
-0.22325751185 0.0006279850495 0 -0.22317071259 0.00067650550045 0 -0.22309215367 0.00071173562901 0 
-0.22302629054 0.00073201826308 0 -0.22297362983 0.00074826704804 0 -0.22293353081 0.00075759494212 0 
-0.22290210426 0.0007700517308 0 -0.22287853062 0.00077339372365 0 -0.22286358476 0.00078007235425 0 
-0.22285363078 0.00077033444541 0 -0.22282002866 0.0007649527397 0 -0.22254192829 0.00072781927884 0 
-0.22092589736 0.00068431126419 0 -0.21371898055 0.00051657215226 0 -0.18756279349 0.00024952623062 0 
-0.1886612922 -0.00022058541072 0 -0.21468560398 -0.0004338012368 0 -0.22173778713 -0.00053794990527 0 
-0.22328548133 -0.00052614044398 0 -0.223545596 -0.00049443013268 0 -0.22357560694 -0.0004260231799 0 
-0.22357687354 -0.00035071719321 0 -0.22357428074 -0.00025298577384 0 -0.22356590629 -0.0001504123793 0 
-0.22354787588 -3.4479591704e-05 0 -0.22351646423 8.0069461546e-05 0 -0.22347162664 0.00019590304873 0 
-0.22341403365 0.00030158454319 0 -0.22334620357 0.00039859645767 0 -0.2232722491 0.00047861534404 0 
-0.22319716215 0.00054537918186 0 -0.22312542796 0.00059528579004 0 -0.22305978835 0.00063491094625 0 
-0.22300314903 0.00066140206764 0 -0.22295644879 0.00068373599788 0 -0.22291976213 0.0006973304553 0 
-0.22289179265 0.00071189843584 0 -0.22287255526 0.00071634777123 0 -0.22286295891 0.00072343100328 0 
-0.22286070883 0.00071467686212 0 -0.22283744812 0.00071073678555 0 -0.22258141637 0.00067725748522 0 
-0.22101965547 0.00063887023134 0 -0.21393312514 0.00048833206529 0 -0.18792796135 0.00023736631556 0 
-0.18897001445 -0.00020751629199 0 -0.21483950317 -0.0004048984556 0 -0.22177216411 -0.00049039692385 0 
-0.22326257825 -0.00047358192387 0 -0.22349436581 -0.00044146808796 0 -0.22350659966 -0.00037801120197 0 
-0.22349372506 -0.0003108434903 0 -0.22347974777 -0.00022426014766 0 -0.22346290946 -0.00013536505867 0 
-0.22344006598 -3.5113178456e-05 0 -0.22340841591 6.2948507548e-05 0 -0.22336755693 0.0001630452316 0 
-0.22331787646 0.00025472749257 0 -0.22326114774 0.00034072808921 0 -0.22320015728 0.00041351403343 0 
-0.22313825786 0.00047693151282 0 -0.22307863832 0.00052658596542 0 -0.22302363813 0.00056832417613 0 
-0.22297543287 0.00059838051675 0 -0.22293509543 0.00062458729371 0 -0.22290322185 0.00064137793379 0 
-0.22287976742 0.0006581961643 0 -0.2228653729 0.00066438381327 0 -0.22286123037 0.00067296222551 0 
-0.22286584973 0.00066624011379 0 -0.22285191715 0.00066491309553 0 -0.22261551023 0.00063620571746 0 
-0.22110369802 0.0006041166489 0 -0.21413087845 0.00046792134526 0 -0.18827737868 0.00022922111384 0 
-0.18926303089 -0.00019924923254 0 -0.21497696638 -0.00038561486872 0 -0.22179713845 -0.00045743290684 0 
-0.22323657572 -0.00043608629494 0 -0.22344496846 -0.0004030977143 0 -0.22344307601 -0.00034301247797 0 
-0.22341905534 -0.00028205109993 0 -0.22339616716 -0.00020417096675 0 -0.22337283194 -0.00012601765047 0 
-0.22334638238 -3.791018753e-05 0 -0.22331449389 4.7410176194e-05 0 -0.22327660024 0.00013526494149 0 
-0.22323283553 0.0002159717842 0 -0.22318437696 0.00029311983963 0 -0.22313316166 0.00035967683652 0 
-0.22308146954 0.00041960302042 0 -0.22303159535 0.00046811130596 0 -0.22298549116 0.00051056675147 0 
-0.22294484079 0.00054256879957 0 -0.22291079164 0.00057125667809 0 -0.22288419306 0.00059045647504 0 
-0.22286565602 0.00060941721313 0 -0.22285625339 0.00061761576217 0 -0.22285740077 0.00062827114016 0 
-0.22286815941 0.00062417238951 0 -0.22286246717 0.00062608893495 0 -0.22264361382 0.00060248334194 0 
-0.22117859125 0.00057678541634 0 -0.21431554854 0.00045258234604 0 -0.18861524761 0.00022354345128 0 
-0.18954578042 -0.00019414555572 0 -0.21510271728 -0.00037286311272 0 -0.22181488574 -0.00043470671517 0 
-0.22320783138 -0.00040962497587 0 -0.2233966589 -0.00037576866453 0 -0.22338362038 -0.0003180623753 0 
-0.22335094213 -0.00026186657487 0 -0.22332116961 -0.00019075296586 0 -0.22329285741 -0.00012101305038 0 
-0.22326368093 -4.2353814933e-05 0 -0.22323158383 3.3041040297e-05 0 -0.22319594026 0.00011130610801 0 
-0.22315664589 0.00018332438776 0 -0.22311450541 0.00025329642813 0 -0.2230707705 0.00031453525298 0 
-0.2230271101 0.00037111365236 0 -0.22298517823 0.00041805332876 0 -0.22294653952 0.00046041747555 0 
-0.22291257977 0.00049338577082 0 -0.22288443148 0.00052367342869 0 -0.22286309302 0.00054471474141 0 
-0.22284948826 0.00056562758982 0 -0.22284495831 0.00057589804055 0 -0.22285106778 0.00058888486819 0 
-0.22286731005 0.00058766320581 0 -0.22286884487 0.00059306324692 0 -0.22266586125 0.00057446717983 0 
-0.22124525905 0.00055481307209 0 -0.21448963881 0.00044073013123 0 -0.18894445896 0.00021950907831 0 
-0.18982206285 -0.00019121704099 0 -0.21522018313 -0.00036465932499 0 -0.22182719409 -0.00041926075937 0 
-0.22317689657 -0.0003912478569 0 -0.22334906459 -0.00035672215745 0 -0.22332724929 -0.00030077231349 0 
-0.22328791022 -0.00024828597088 0 -0.22325286269 -0.00018244494277 0 -0.22322076559 -0.00011930686742 0 
-0.22318954766 -4.8035260988e-05 0 -0.22315733135 1.9575261831e-05 0 -0.2231234014 9.0277382697e-05 0 
-0.22308759391 0.00015536657884 0 -0.22305031121 0.00021949302754 0 -0.22301246226 0.00027622428024 0 
-0.22297519445 0.00032973891939 0 -0.22293977439 0.00037497567246 0 -0.22290743887 0.00041681705625 0 
-0.22287936509 0.0004501749645 0 -0.22285662591 0.00048150567454 0 -0.22284026444 0.00050398282474 0 
-0.22283136845 0.00052664277609 0 -0.22283141315 0.00053892738651 0 -0.22284208238 0.00055429711938 0 
-0.22286316752 0.00055598188192 0 -0.22287110984 0.00056485639652 0 -0.22268262506 0.0005509670591 0 
-0.22130465508 0.00053685548482 0 -0.21465496719 0.00043140290654 0 -0.1892670542 0.00021664224914 0 
-0.19009448588 -0.00018982624169 0 -0.21533177793 -0.00035967843723 0 -0.22183547914 -0.0004090431612 0 
-0.22314429283 -0.00037879680167 0 -0.22330203652 -0.00034385157051 0 -0.22327327728 -0.00028926428058 0 
-0.22322885692 -0.00023971709015 0 -0.22318980098 -0.00017801119247 0 -0.22315485775 -0.00012007907935 0 
-0.2231221348 -5.461715773e-05 0 -0.22308987379 6.850264981e-06 0 -0.22305734456 7.1549926361e-05 0 
-0.22302426398 0.00013108187704 0 -0.22299084067 0.00019043256179 0 -0.22295767069 0.00024336732167 0 
-0.22292560339 0.00029416027246 0 -0.22289556265 0.00033772786264 0 -0.22286857665 0.00037885009078 0 
-0.22284562886 0.00041227394831 0 -0.22282774746 0.00044429983245 0 -0.22281596065 0.00046792399371 0 
-0.22281144559 0.0004921380314 0 -0.22281570733 0.00050631695194 0 -0.22283048928 0.00052400160348 0 
-0.22285586596 0.00052848586347 0 -0.22286944091 0.00054068141617 0 -0.22269436717 0.00053110532463 0 
-0.2213576287 0.00052200589562 0 -0.2148129046 0.00042398576625 0 -0.18958453834 0.00021464955353 0 
-0.19036494195 -0.00018954342522 0 -0.21543926001 -0.00035700880107 0 -0.22184079885 -0.00040260548121 0 
-0.2231105268 -0.00037069001701 0 -0.2232555002 -0.00033556349808 0 -0.22322122753 -0.00028208401636 0 
-0.22317297757 -0.00023491197499 0 -0.22313091159 -0.00017647894856 0 -0.2230938524 -0.00012268136197 0 
-0.22306004167 -6.1816768721e-05 0 -0.22302784026 -5.2280033742e-06 0 -0.22299647331 5.4680382163e-05 0 
-0.22296559811 0.00010973534518 0 -0.22293527424 0.00016517769836 0 -0.22290590405 0.00021493250097 0 
-0.22287808359 0.00026335724397 0 -0.222852543 0.00030538099236 0 -0.22283011675 0.00034572934965 0 
-0.22281163931 0.00037905297359 0 -0.22279807925 0.00041156078805 0 -0.22279042006 0.00043612607988 0 
-0.22278985381 0.00046172225848 0 -0.22279794514 0.00047764799092 0 -0.22281640768 0.00049751467304 0 
-0.22284553945 0.00050461658975 0 -0.2228641361 0.00051990587963 0 -0.22270160913 0.00051422405522 0 
-0.22140493989 0.00050962984096 0 -0.21496455371 0.00041806552326 0 -0.18989810348 0.00021333925542 0 
-0.19063481688 -0.00019006984076 0 -0.21554389596 -0.00035600914271 0 -0.2218439579 -0.00039891074994 0 
-0.22307597101 -0.00036576428101 0 -0.22320947051 -0.00033065848402 0 -0.22317075729 -0.0002781158546 0 
-0.22311961651 -0.00023290180252 0 -0.22307534516 -0.00017708704399 0 -0.22303675115 -0.00012660110951 0 
-0.22300219536 -6.9399204222e-05 0 -0.22297011316 -1.6709032934e-05 0 -0.22293974459 3.9354348701e-05 0 
-0.22291071713 9.0789639216e-05 0 -0.22288294137 0.00014303041098 0 -0.22285670042 0.0001901347714 0 
-0.22283241153 0.00023653059907 0 -0.22281064093 0.00027717929333 0 -0.22279210389 0.00031678072992 0 
-0.22277751565 0.00034993403824 0 -0.22276775539 0.00038279683213 0 -0.22276379168 0.0004081557272 0 
-0.22276678681 0.00043498442392 0 -0.22277827561 0.00045250207768 0 -0.2228000313 0.00047438757611 0 
-0.22283247113 0.00048389131553 0 -0.22285555303 0.00050201686099 0 -0.22270478308 0.00049981928896 0 
-0.22144724429 0.00049926684005 0 -0.21511079371 0.00041335145943 0 -0.19020864367 0.00021257948538 0 
-0.19090507925 -0.00019119340868 0 -0.21564657986 -0.00035622069845 0 -0.22184556723 -0.00039720805944 0 
-0.22304092348 -0.00036316129263 0 -0.22316393256 -0.00032823570655 0 -0.22312162817 -0.00027650926495 0 
-0.22306832671 -0.00023293978302 0 -0.22302243114 -0.00017924352142 0 -0.22298276424 -0.00013143492106 0 
-0.22294773161 -7.7171753219e-05 0 -0.22291585803 -2.7616035368e-05 0 -0.22288639843 2.5345920221e-05 0 
-0.22285892069 7.3846254963e-05 0 -0.22283326089 0.00012346306175 0 -0.22280962765 0.00016836808936 0 
-0.22278830409 0.00021304670372 0 -0.22276975214 0.00025250361068 0 -0.22275455296 0.00029142838321 0 
-0.22274333239 0.00032439822098 0 -0.22273692489 0.00035754364217 0 -0.22273622453 0.00038358938764 0 
-0.22274237871 0.00041152193444 0 -0.22275689244 0.00043048051884 0 -0.22278152406 0.00045421259711 0 
-0.22281686962 0.00046589309932 0 -0.22284397483 0.00048659337335 0 -0.22270435095 0.00048749623238 0 
-0.22148509324 0.00049057113938 0 -0.21525232494 0.00040963021456 0 -0.1905169636 0.00021227555408 0 
-0.19117647409 -0.00019276143576 0 -0.21574798226 -0.00035731124808 0 -0.22184607387 -0.00039694912266 0 
-0.22300559282 -0.00036224565702 0 -0.22311891615 -0.00032761952025 0 -0.22307364643 -0.00027661854983 0 
-0.22301875055 -0.00023445361876 0 -0.22297169268 -0.00018249088316 0 -0.22293129563 -0.00013686767488 0 
-0.22289599478 -8.4979154053e-05 0 -0.22286441922 -3.7958656321e-05 0 -0.22283576429 1.2489525943e-05 0 
-0.22280961275 5.8604444348e-05 0 -0.22278578579 0.00010607041622 0 -0.22276435792 0.00014915784413 0 
-0.22274555266 0.00019239762332 0 -0.22272972763 0.00023084333225 0 -0.22271738946 0.000269181357 0 
-0.22270910442 0.00030198646709 0 -0.22270561755 0.00033537609852 0 -0.22270779312 0.00036203014315 0 
-0.22271674871 0.00039095626562 0 -0.22273392975 0.00041121445247 0 -0.22276110947 0.00043662410462 0 
-0.22279900312 0.00045026198495 0 -0.22282974422 0.00047328611254 0 -0.22270068526 0.00047693890519 0 
-0.22151897848 0.00048327466357 0 -0.21538974345 0.0004067394475 0 -0.1908236742 0.00021235672466 0 
-0.19144953787 -0.00019466289086 0 -0.2158485651 -0.00035903818207 0 -0.22184577584 -0.00039773102617 0 
-0.22297017276 -0.00036254592123 0 -0.22307442129 -0.00032830360578 0 -0.22302667797 -0.00027795528877 0 
-0.2229706049 -0.00023700699967 0 -0.22292275727 -0.00018647793331 0 -0.22288188338 -0.00014265558275 0 
-0.22284649312 -9.2699112429e-05 0 -0.22281524539 -4.7742822062e-05 0 -0.22278735042 6.6238573027e-07 0 
-0.22276237607 4.4832406275e-05 0 -0.22274009883 9.0535919298e-05 0 -0.22272056341 0.0001321270247 0 
-0.22270390391 0.00017417164054 0 -0.22269043326 0.00021177470626 0 -0.2226805836 0.00024962125462 0 
-0.22267483175 0.00028229656164 0 -0.22267392278 0.00031591227162 0 -0.22267861664 0.00034311570926 0 
-0.22269001603 0.00037294070353 0 -0.22270956635 0.00039436947554 0 -0.22273896635 0.00042129753274 0 
-0.22277909517 0.00043668705621 0 -0.22281312943 0.00046180203208 0 -0.22269412875 0.00046788968029 0 
-0.22154931724 0.00047716443078 0 -0.21552352607 0.00040455174167 0 -0.19112934172 0.00021276845655 0 
-0.19172464311 -0.00019681653066 0 -0.2159486711 -0.00036122303572 0 -0.22184489667 -0.00039925627061 0 
-0.2229347527 -0.00036371164606 0 -0.22303044796 -0.00032990876934 0 -0.22298060358 -0.00028015114367 0 
-0.22292368114 -0.00024026894243 0 -0.22287529707 -0.00019093704759 0 -0.22283416986 -0.0001486120309 0 
-0.22279880941 -0.00010023813229 0 -0.2227679193 -5.697161032e-05 0 -0.22274072468 -1.0233206922e-05 0 
-0.22271680832 3.2347823435e-05 0 -0.22269588709 7.6607793744e-05 0 -0.22267799079 0.00011697197624 0 
-0.22266319394 0.00015803158749 0 -0.22265174985 0.00019494404842 0 -0.22264404595 0.00023239136499 0 
-0.22264051437 0.00026497829822 0 -0.22264184058 0.0002988136257 0 -0.22264873981 0.00032652096706 0 
-0.22266229987 0.00035716313869 0 -0.22268390656 0.0003796464589 0 -0.2227152586 0.00040794673259 0 
-0.22275735438 0.00042489933548 0 -0.22279436886 0.00045189328375 0 -0.22268500924 0.0004601352266 0 
-0.22157645226 0.00047206721501 0 -0.21565411985 0.00040296459338 0 -0.19143439829 0.00021346754511 0 
-0.19200208783 -0.00019916264864 0 -0.21604852378 -0.00036373425974 0 -0.22184361517 -0.00040130480193 0 
-0.22289942205 -0.0003654823231 0 -0.22298696637 -0.00033215165604 0 -0.22293533385 -0.00028292942443 0 
-0.22287780046 -0.00024398989626 0 -0.22282908857 -0.00019566602714 0 -0.22278784215 -0.00015459630231 0 
-0.22275260091 -0.00010752685921 0 -0.22272211313 -6.5650499891e-05 0 -0.22269558907 -2.0276724172e-05 0 
-0.22267262638 2.1003865186e-05 0 -0.22265289724 6.4082356403e-05 0 -0.22263641655 0.0001034447705 0 
-0.22262324393 0.00014369856217 0 -0.22261355817 0.00018005438324 0 -0.22260773182 0.00021718727658 0 
-0.22260612249 0.00024972803658 0 -0.22260940075 0.00028378251591 0 -0.22261823714 0.00031195764313 0 
-0.22263368964 0.00034334609518 0 -0.22265709937 0.00036678047036 0 -0.22269016504 0.00039632062544 0 
-0.22273397446 0.00041466622497 0 -0.22277373075 0.000443348923 0 -0.22267358005 0.0004534968466 0 
-0.22160072625 0.00046783988364 0 -0.2157818675 0.00040189395077 0 -0.19173927605 0.00021441906574 0 
-0.19228206575 -0.00020165738533 0 -0.21614827216 -0.00036647453089 0 -0.22184200585 -0.00040371346404 0 
-0.22286422551 -0.00036766432459 0 -0.22294397652 -0.00033482088475 0 -0.22289076447 -0.00028608326102 0 
-0.22283282876 -0.00024798300001 0 -0.22278392315 -0.00020051379397 0 -0.22274269164 -0.00016050419072 0 
-0.2227076292 -0.00011451610771 0 -0.22267755866 -7.3788454756e-05 0 -0.22265166044 -2.9535280191e-05 0 
-0.22262954712 1.0679352272e-05 0 -0.22261089087 5.2791921917e-05 0 -0.22259566188 9.1340436484e-05 0 
-0.22258388996 0.0001309398067 0 -0.22257575393 0.00016685498122 0 -0.2225715518 0.00020374878659 0 
-0.22257162631 0.00023628302733 0 -0.22257661819 0.00027055881219 0 -0.22258715332 0.00029917198117 0 
-0.22260427475 0.00033124472247 0 -0.2226292491 0.00035553827183 0 -0.22266381979 0.0003861997684 0 
-0.22270913422 0.00040578635526 0 -0.22275137901 0.00043598841876 0 -0.2226600796 0.00044782334589 0 
-0.22162237763 0.00046436261619 0 -0.21590706706 0.0004012696736 0 -0.19204430282 0.00021559430752 0 
-0.19256474078 -0.00020426853735 0 -0.21624800563 -0.00036937187542 0 -0.2218401283 -0.00040636159247 0 
-0.22282919288 -0.00037011411041 0 -0.22290143371 -0.00033775958582 0 -0.22284685075 -0.00028945886879 0 
-0.22278863192 -0.00025210957392 0 -0.2227396518 -0.00020536893862 0 -0.22269850969 -0.00016626040451 0 
-0.22266368568 -0.00012117330334 0 -0.22263403237 -8.1398247858e-05 0 -0.2226087302 -3.8069076254e-05 0 
-0.22258740664 1.2738123587e-06 0 -0.22256968915 4.2596064304e-05 0 -0.22255556285 8.048741438e-05 0 
-0.22254504263 0.00011955933587 0 -0.2225382477 0.0001551330206 0 -0.22253547609 0.00019185300334 0 
-0.22253702581 0.0002244162315 0 -0.22254350781 0.00025891597033 0 -0.22255553305 0.00028794191894 0 
-0.2225740999 0.00032064429251 0 -0.22260046005 0.00034571567085 0 -0.22263634205 0.00037739280378 0 
-0.22268299758 0.00039808542351 0 -0.22272752225 0.00042965676403 0 -0.2226447314 0.00044298602734 0 
-0.22164167464 0.00046153407311 0 -0.21602998674 0.00040103282663 0 -0.19234979153 0.0002169694053 0 
-0.19285021722 -0.00020697258878 0 -0.2163477838 -0.00037237326615 0 -0.22183805704 -0.00040915995487 0 
-0.22279433906 -0.00037272571353 0 -0.22285935283 -0.0003408518096 0 -0.22280351818 -0.00029294288834 0 
-0.22274510562 -0.00025626795832 0 -0.22269615531 -0.00021015082893 0 -0.22265516222 -0.00017181228031 0 
-0.22262059152 -0.00012747904111 0 -0.22259135544 -8.8496417447e-05 0 -0.22256661952 -4.5930853958e-05 0 
-0.22254599631 -7.3003816397e-06 0 -0.2225291431 3.3375683415e-05 0 -0.22251600027 7.0740359661e-05 0 
-0.22250656784 0.00010939083586 0 -0.222500965 0.00014470689348 0 -0.22249944508 0.00018130854005 0 
-0.2225022912 0.00021393137285 0 -0.22251008451 0.00024865716114 0 -0.22252340615 0.00027807371225 0 
-0.22254325449 0.0003113571729 0 -0.22257082164 0.00033713437733 0 -0.22260785103 0.00036973322858 0 
-0.22265568376 0.00039141235175 0 -0.22270230949 0.00042422051774 0 -0.22262769938 0.00043887473294 0 
-0.22165878117 0.00045926796156 0 -0.21615083516 0.00040113323485 0 -0.19265602529 0.00021852439386 0 
-0.19313856959 -0.0002097524557 0 -0.21644763649 -0.00037543964572 0 -0.22183576226 -0.00041204309673 0 
-0.22275963426 -0.00037542139762 0 -0.22281765938 -0.00034401274752 0 -0.22276069224 -0.00029645272298 0 
-0.22270219028 -0.00026038466603 0 -0.22265331447 -0.00021480255236 0 -0.22261250019 -0.00017712480621 0 
-0.22257822752 -0.00013342448801 0 -0.22254939377 -9.5102550404e-05 0 -0.22252517939 -5.3169140301e-05 0 
-0.22250521183 -1.5119885575e-05 0 -0.22248911858 2.5028430173e-05 0 -0.22247685492 6.1974948039e-05 0 
-0.22246840596 0.00010029207624 0 -0.22246384621 0.00013542086526 0 -0.22246342897 0.00017195059627 0 
-0.22246739268 0.00020465879061 0 -0.22247636318 0.0002396114287 0 -0.22249081731 0.0002693987044 0 
-0.22251178324 0.00030321985832 0 -0.22254040837 0.00032963906415 0 -0.22257843614 0.00036307619303 0 
-0.22262731194 0.00038563640555 0 -0.22267587483 0.00041956448695 0 -0.22260914743 0.00043539484614 0 
-0.22167389095 0.0004574903578 0 -0.21626980603 0.00040152808651 0 -0.19296319783 0.00022024240752 0 
-0.19342985749 -0.00021259595815 0 -0.21654756367 -0.00037854255061 0 -0.22183327377 -0.00041496314225 0 
-0.22272510827 -0.00037814461393 0 -0.22277635336 -0.0003471809905 0 -0.22271835804 -0.00029992914642 0 
-0.22265981138 -0.00026440795045 0 -0.22261102498 -0.00021928538627 0 -0.22257043421 -0.00018217660545 0 
-0.22253644466 -0.000139008931 0 -0.22250801325 -0.00010123862012 0 -0.2224842906 -5.9829129896e-05 0 
-0.22246493399 -2.2252599592e-05 0 -0.22244952619 1.746527596e-05 0 -0.2224380523 5.4083880968e-05 0 
-0.2224304527 9.2140660854e-05 0 -0.22242681682 0.00012714076729 0 -0.22242738307 0.00016363691248 0 
-0.22243236005 0.00019645153952 0 -0.22244232893 0.00023163041624 0 -0.22245778143 0.0002617702412 0 
-0.22247973084 0.00029608991463 0 -0.22250929475 0.0003230945731 0 -0.22254821658 0.00035729588126 0 
-0.22259798646 0.0003806441382 0 -0.22264835238 0.00041558916564 0 -0.22258922458 0.000432464818 0 
-0.22168715298 0.00045613775728 0 -0.21638704836 0.00040218053618 0 -0.19327156246 0.00022210922907 0 
-0.19372411072 -0.00021549453959 0 -0.21664753556 -0.00038166134618 0 -0.22183056176 -0.00041788560338 0 
-0.22269071639 -0.00038085487904 0 -0.22273539007 -0.00035031279549 0 -0.22267642617 -0.0003033305693 0 
-0.22261787951 -0.00026830236311 0 -0.22256924212 -0.00022357450507 0 -0.22252887487 -0.00018695663312 0 
-0.22249516845 -0.00014423797256 0 -0.22246712446 -0.00010692837532 0 -0.22244384885 -6.5953187004e-05 0 
-0.22242504358 -2.8759668567e-05 0 -0.22241027653 1.0608399862e-05 0 -0.22239950299 4.6973767894e-05 0 
-0.22239267826 8.4830593551e-05 0 -0.22238986194 0.00011975050438 0 -0.22239127755 0.0001562442776 0 
-0.22239713371 0.00018918223213 0 -0.22240801156 0.00022458526655 0 -0.22242434323 0.00025506076054 0 
-0.22244715691 0.00028984353412 0 -0.22247754037 0.00031738344114 0 -0.22251723707 0.0003522830375 0 
-0.22256782651 0.00037633726606 0 -0.22261984646 0.00041220843559 0 -0.22256805003 0.00043001433369 0 
-0.22169870138 0.00045515541569 0 -0.21650272608 0.00040305888979 0 -0.19358128309 0.00022411283862 0 
-0.19402137399 -0.00021844243747 0 -0.21674753726 -0.00038478136412 0 -0.22182761133 -0.00042078594561 0 
-0.22265644372 -0.00038352370029 0 -0.2226947397 -0.00035337780719 0 -0.22263488173 -0.00030662878999 0 
-0.22257636487 -0.00027204491198 0 -0.2225278765 -0.00022765556059 0 -0.22248773277 -0.00019146171689 0 
-0.22245430946 -0.00014912178449 0 -0.22242663801 -0.00011219664157 0 -0.22240379453 -7.1581249358e-05 0 
-0.2223854959 -3.4696655348e-05 0 -0.22237129509 4.3893892325e-06 0 -0.2223611623 4.0562765207e-05 0 
-0.22235500813 7.8269564256e-05 0 -0.22235292196 0.00011314920994 0 -0.22235511243 0.00014966567687 0 
-0.22236174345 0.00018274021568 0 -0.22237341106 0.00021836395899 0 -0.22239051759 0.00024915940594 0 
-0.22241410613 0.00028437297442 0 -0.22244518995 0.00031240342651 0 -0.222485587 0.00034794263775 0 
-0.2225368768 0.0003726304858 0 -0.22259044647 0.00040934764547 0 -0.22254572809 0.00042798247887 0 
-0.22170864046 0.0004544959229 0 -0.21661691368 0.00040413576062 0 -0.19389253855 0.00022624303529 0 
-0.19432164729 -0.0002214358974 0 -0.21684752405 -0.00038789233076 0 -0.22182439268 -0.00042364714318 0 
-0.22262227535 -0.00038613163633 0 -0.22265435755 -0.00035635568202 0 -0.22259368002 -0.0003098056477 0 
-0.22253519297 -0.00027562194737 0 -0.2224868685 -0.00023152207723 0 -0.22244696319 -0.00019569446158 0 
-0.22241382301 -0.00015367390006 0 -0.22238647938 -0.00011706876103 0 -0.22236403823 -7.6751035522e-05 0 
-0.22234620154 -4.0113369323e-05 0 -0.22233252227 -1.253307687e-06 0 -0.22232295573 3.4778859117e-05 0 
-0.2223174274 7.23767007e-05 0 -0.22231598198 0.00010724887397 0 -0.22231885791 0.00014380789071 0 
-0.22232617438 0.00017702914192 0 -0.22233854234 0.00021286899573 0 -0.22235634923 0.0002439696691 0 
-0.22238059342 0.00027958449209 0 -0.22241231799 0.0003080657043 0 -0.22245331109 0.00034419217263 0 
-0.22250524163 0.00036944978638 0 -0.22256022692 0.00040694209747 0 -0.22252234817 0.00042631657561 0 
-0.22171708941 0.0004541183298 0 -0.21672974527 0.00040538737085 0 -0.19420547783 0.00022849124798 0 
-0.19462496042 -0.00022447280935 0 -0.21694745123 -0.0003909872903 0 -0.221820876 -0.00042645772919 0 
-0.2225881815 -0.00038866599789 0 -0.22261424363 -0.00035923358519 0 -0.22255276144 -0.00031285051955 0 
-0.22249434888 -0.00027902677539 0 -0.22244617343 -0.00023517340014 0 -0.22240650654 -0.00019966169202 0 
-0.22237361968 -0.00015791004989 0 -0.22234661877 -0.00012157011224 0 -0.22232453525 -8.1498081272e-05 0 
-0.22230713069 -4.5055283408e-05 0 -0.22229391336 -6.3747679633e-06 0 -0.22228485346 2.9558346796e-05 0 
-0.22227987647 6.7080916779e-05 0 -0.2222790271 0.00010197246593 0 -0.22228248417 0.0001385895157 0 
-0.22229042649 0.00017196500266 0 -0.22230342031 0.00020801539358 0 -0.22232182324 0.00023940746905 0 
-0.22234667838 0.00027539639268 0 -0.22237895429 0.00030429294566 0 -0.22242048383 0.00034095978481 0 
-0.22247296572 0.00036673081922 0 -0.22252929211 0.00040493559209 0 -0.22249801457 0.0004249709018 0 
-0.22172410786 0.00045398707152 0 -0.21684128046 0.00040679311496 0 -0.19452022016 0.00023085022985 0 
-0.1949313283 -0.00022755219834 0 -0.21704728901 -0.00039406176074 0 -0.2218170464 -0.00042921042768 0 
-0.22255413234 -0.00039111907245 0 -0.22257435322 -0.00036200426985 0 -0.22251212597 -0.00031575834146 0 
-0.22245377302 -0.00028225773713 0 -0.22240576148 -0.00023861309455 0 -0.22236631811 -0.000203373158 0 
-0.22233366966 -0.00016184744891 0 -0.22230696678 -0.00012572576816 0 -0.22228522599 -8.5855797806e-05 0 
-0.22226820886 -4.9563997891e-05 0 -0.22225542367 -1.1024462765e-05 0 -0.2222468257 2.4844632208e-05 0 
-0.22224234045 6.231948646e-05 0 -0.22224201262 9.7252326668e-05 0 -0.22224602103 0.00013393923291 0 
-0.22225449979 0.00016747433983 0 -0.22226804495 0.00020372893778 0 -0.22228698432 0.00023539944959 0 
-0.222312361 0.00027173748822 0 -0.22234512866 0.0003010177752 0 -0.22238713503 0.00033818295924 0 
-0.22244012356 0.00036441764678 0 -0.22249768674 0.00040327923489 0 -0.2224727869 0.00042390575982 0 
-0.2217297852 0.00045407115249 0 -0.21695157886 0.0004083350359 0 -0.19483691454 0.00023331392731 0 
-0.19524073601 -0.00023067400616 0 -0.21714696288 -0.00039711303543 0 -0.22181285918 -0.00043190107681 0 
-0.22252011299 -0.0003934869892 0 -0.22253464162 -0.00036466450547 0 -0.22247169912 -0.00031852809479 0 
-0.22241343558 -0.00028531698626 0 -0.22236557305 -0.00024184770882 0 -0.22232633829 -0.00020684064657 0 
-0.22229394317 -0.00016550399596 0 -0.22226750851 -0.00012956016872 0 -0.22224609554 -8.985556633e-05 0 
-0.22222942114 -5.3677598771e-05 0 -0.22221702337 -1.5246956536e-05 0 -0.22220884264 2.0587240215e-05 0 
-0.22220480442 5.8036879636e-05 0 -0.22220493853 9.3028844276e-05 0 -0.22220942378 0.00012979444 0 
-0.22221839428 0.00016349280486 0 -0.22223243117 0.00019994469767 0 -0.22225183249 0.00023188155319 0 
-0.2222777009 0.00026854561293 0 -0.22231088579 0.0002981814323 0 -0.22235330939 0.00033580718446 0 
-0.22240674496 0.00036246154923 0 -0.22246547043 0.00040193050518 0 -0.22244672477 0.00042308666161 0 
-0.22173419595 0.00045434370986 0 -0.21706071496 0.0004099975049 0 -0.19515566528 0.00023587727628 0 
-0.19555321336 -0.00023383881489 0 -0.21724642813 -0.00040013974649 0 -0.22180828452 -0.00043452769751 0 
-0.22248609364 -0.00039576849667 0 -0.22249510884 -0.00036721411743 0 -0.22243149579 -0.00032116172952 0 
-0.22237329185 -0.00028820923762 0 -0.22232559323 -0.00024488585768 0 -0.22228656709 -0.00021007715259 0 
-0.22225436568 -0.00016889789549 0 -0.22222821414 -0.0001330969244 0 -0.2222070694 -9.3526708952e-05 0 
-0.22219073772 -5.7430963352e-05 0 -0.22217868268 -1.9082477593e-05 0 -0.22217088938 1.6741014406e-05 0 
-0.22216723859 5.4183776228e-05 0 -0.22216777503 8.9249377197e-05 0 -0.22217270732 0.00012609997066 0 
-0.22218209505 0.00015996390721 0 -0.22219657898 0.00019660577527 0 -0.22221641243 0.00022879771132 0 
-0.22224268317 0.00026576645905 0 -0.22227627039 0.000295732636 0 -0.22231906652 0.00033378487569 0 
-0.22237288952 0.00036082003498 0 -0.22243270278 0.00040085235378 0 -0.22241988778 0.00042248351383 0 
-0.22173736989 0.00045478122775 0 -0.21716871858 0.00041176687228 0 -0.19547656178 0.00023853610037 0 
-0.19586876035 -0.00023704774503 0 -0.21734564006 -0.00040314154467 0 -0.22180329263 -0.00043709002784 0 
-0.22245205939 -0.00039796432247 0 -0.22245572507 -0.0003696550848 0 -0.22239147127 -0.00032366332016 0 
-0.22233334184 -0.00029094098136 0 -0.22228577733 -0.00024773748009 0 -0.22224693 -0.0002130963403 0 
-0.22221495211 -0.00017204723554 0 -0.22218903899 -0.00013635860523 0 -0.22216814756 -9.6896626928e-05 0 
-0.22215211391 -6.0856025812e-05 0 -0.2221403718 -2.2567552151e-05 0 -0.22213292122 1.3265642338e-05 0 
-0.22212964296 5.0716262194e-05 0 -0.22213055193 8.5867337475e-05 0 -0.22213585675 0.00012280723604 0 
-0.22214564681 0.00015683796664 0 -0.22216050327 0.00019366221386 0 -0.22218070924 0.00022609878215 0 
-0.22220736742 0.00026335241273 0 -0.22224128246 0.00029362656642 0 -0.22228442132 0.00033207441447 0 
-0.22233858705 0.00035945611307 0 -0.22239941359 0.00040001235902 0 -0.22239235044 0.00042207015213 0 
-0.22173936665 0.00045536321704 0 -0.21727563441 0.00041363111814 0 -0.19579970837 0.00024128697987 0 
-0.19618739188 -0.00024030228087 0 -0.21744452417 -0.00040611863369 0 -0.22179783881 -0.00043958885362 0 
-0.22241796553 -0.00040007659118 0 -0.22241644561 -0.0003719907545 0 -0.22235158086 -0.00032603819272 0 
-0.22229352593 -0.00029351990088 0 -0.22224609554 -0.00025041328627 0 -0.22220744193 -0.00021591212135 0 
-0.22217562795 -0.00017496968212 0 -0.22214993834 -0.00013936668984 0 -0.22212930024 -9.9990800663e-05 0 
-0.22211353481 -6.3982035499e-05 0 -0.22210207582 -2.5735445888e-05 0 -0.22209493816 1.0125138942e-05 0 
-0.22209197283 4.7595138312e-05 0 -0.22209322453 8.2841354015e-05 0 -0.22209888697 0.00011987322068 0 
-0.22210900486 0.00015407112369 0 -0.22212421894 0.00019107006665 0 -0.22214476764 0.00022374160471 0 
-0.22217175364 0.00026126170997 0 -0.22220596671 0.00029182390426 0 -0.2222494036 0.0003306393919 0 
-0.22230388224 0.00035833733273 0 -0.22236566246 0.00039938223199 0 -0.22236412764 0.00042182370089 0 
-0.22174024582 0.00045607169159 0 -0.21738147736 0.00041557979421 0 -0.19612519443 0.00024412714993 0 
-0.19650912285 -0.0002436041832 0 -0.21754305065 -0.00040907174116 0 -0.22179192305 -0.00044202586287 0 
-0.22238382697 -0.00040210835868 0 -0.22237728536 -0.00037422552123 0 -0.22231182456 -0.00032829277916 0 
-0.22225385904 -0.00029595437809 0 -0.22220653296 -0.00025292430655 0 -0.22216804326 -0.00021853830549 0 
-0.22213640809 -0.00017768224643 0 -0.2221109271 -0.00014214139082 0 -0.22209051251 -0.00010283282609 0 
-0.2220749855 -6.6835811595e-05 0 -0.22206379473 -2.8615984775e-05 0 -0.2220569253 7.2868483585e-06 0 
-0.22205425799 4.4785425416e-05 0 -0.22205580771 8.0134625023e-05 0 -0.22206176817 0.00011725985678 0 
-0.22207221389 0.00015162471391 0 -0.2220877409 0.00018879061099 0 -0.22210857272 0.00022168825672 0 
-0.22213587165 0.00025945770903 0 -0.22217033803 0.00029029021971 0 -0.22221404314 0.00032944791019 0 
-0.22226880491 0.00035743537592 0 -0.22233146429 0.00039893717621 0 -0.22233526409 0.00042172416579 0 
-0.2217400223 0.00045689090621 0 -0.21748627722 0.00041760364547 0 -0.19645309448 0.0002470544423 0 
-0.19683395326 -0.00024695540196 0 -0.21764115989 -0.00041200194391 0 -0.22178550065 -0.00044440315105 0 
-0.222349599 -0.00040406329208 0 -0.22233819962 -0.00037636439083 0 -0.22227218747 -0.00033043386065 0 
-0.22221428156 -0.00029825305683 0 -0.22216707468 -0.00025528171682 0 -0.22212874889 -0.0002209883969 0 
-0.22209726274 -0.00018020125572 0 -0.22207197547 -0.0001447017421 0 -0.22205173969 -0.00010544456018 0 
-0.2220364511 -6.9441884989e-05 0 -0.22202548385 -3.1236235372e-05 0 -0.22201888263 4.7213816288e-06 0 
-0.22201646864 4.2255836888e-05 0 -0.22201828659 7.7714357758e-05 0 -0.22202453017 0.00011493333295 0 
-0.22203524411 0.00014946445299 0 -0.22205105424 0.00018678962078 0 -0.22207215428 0.0002199052833 0 
-0.22209972143 0.00025790813379 0 -0.22213442624 0.00028899530298 0 -0.22217836976 0.00032847188413 0 
-0.22223336995 0.00035672535887 0 -0.2222968787 0.00039865542203 0 -0.22230581939 0.00042175405542 0 
-0.2217387259 0.00045780697837 0 -0.21759001911 0.00041969452286 0 -0.19678351283 0.00025006718352 0 
-0.19716189802 -0.0002503581054 0 -0.2177387774 -0.00041491040611 0 -0.2217785269 -0.00044672325021 0 
-0.22231528163 -0.0004059454659 0 -0.22229917347 -0.00037841266021 0 -0.22223262489 -0.00033246856765 0 
-0.22217479348 -0.00030042472645 0 -0.22212769091 -0.00025749646011 0 -0.22208949924 -0.00022327540501 0 
-0.22205816209 -0.00018254213501 0 -0.22203305364 -0.00014706545335 0 -0.22201299667 -0.00010784616461 0 
-0.2219979018 -7.182268746e-05 0 -0.22198715806 -3.3620737668e-05 0 -0.22198078036 2.4022660909e-06 0 
-0.22197860479 3.9978342102e-05 0 -0.22198067605 7.5551288319e-05 0 -0.22198715806 0.00011286360677 0 
-0.22199812531 0.00014756000019 0 -0.22201418877 0.00018503685715 0 -0.22203552723 0.00021836317319 0 
-0.2220633328 0.00025658449158 0 -0.22209824622 0.00028791246586 0 -0.22214241326 0.00032768663368 0 
-0.22219762206 0.00035618548281 0 -0.22226190567 0.00039851787733 0 -0.22227580845 0.00042189800297 0 
-0.22173640132 0.00045880774269 0 -0.21769274771 0.00042184515041 0 -0.19711647928 0.00025316415122 0 
-0.19749298692 -0.00025381450541 0 -0.21783587337 -0.00041779840831 0 -0.22177101672 -0.00044898875058 0 
-0.22228084505 -0.00040775904199 0 -0.22226019204 -0.00038037580089 0 -0.22219315171 -0.00033440405969 0 
-0.22213536501 -0.00030247800169 0 -0.22208836675 -0.00025957910111 0 -0.22205030918 -0.00022541172802 0 
-0.22201910615 -0.00018471943622 0 -0.2219941467 -0.00014924905554 0 -0.22197425365 -0.00011005620036 0 
-0.22195935249 -7.3998708103e-05 0 -0.22194880247 -3.5791763366e-05 0 -0.22194261849 3.056335629e-07 0 
-0.22194066644 3.7927806261e-05 0 -0.22194294631 7.361927419e-05 0 -0.22194966674 0.00011102391727 0 
-0.22196084261 0.00014588437625 0 -0.22197714448 0.00018350551545 0 -0.22199869156 0.0002170358639 0 
-0.22202670574 0.0002554616658 0 -0.22206181288 0.00028701830888 0 -0.22210617363 0.00032707038918 0 
-0.22216157615 0.00035579656833 0 -0.22222658992 0.00039850763278 0 -0.22224526107 0.00042214253335 0 
-0.22173306346 0.00045988237252 0 -0.21779443324 0.00042404918349 0 -0.19745209813 0.00025634447229 0 
-0.19782723486 -0.00025732690119 0 -0.21793238819 -0.00042066726019 0 -0.22176291049 -0.00045120230061 0 
-0.22224628925 -0.00040950835682 0 -0.2222212553 -0.00038225916796 0 -0.22215372324 -0.00033624735079 0 
-0.22209601104 -0.00030442120624 0 -0.22204907238 -0.00026153988438 0 -0.22201114893 -0.00022740910936 0 
-0.22198006511 -0.00018674673629 0 -0.22195523977 -0.00015126784274 0 -0.22193551064 -0.00011209175136 0 
-0.22192077339 -7.5988653407e-05 0 -0.22191038728 -3.7769492337e-05 0 -0.22190439701 -1.5900468497e-06 0 
-0.22190263867 3.6081666622e-05 0 -0.22190511227 7.1894908615e-05 0 -0.22191204131 0.00010939040658 0 
-0.22192341089 0.00014441361418 0 -0.22193992138 0.00018217175966 0 -0.22196166217 0.00021590021788 0 
-0.22198987007 0.00025451739202 0 -0.22202514112 0.0002862920519 0 -0.22206968069 0.00032660388388 0 
-0.22212524712 0.00035554167698 0 -0.22219094634 0.00039860984543 0 -0.22221422195 0.00042247577221 0 
-0.22172872722 0.00046102132183 0 -0.21789509058 0.00042630085954 0 -0.197790429 0.00025960771018 0 
-0.19816464186 -0.00026089773746 0 -0.21802826226 -0.00042351824231 0 -0.22175420821 -0.00045336657786 0 
-0.22221158445 -0.00041119754314 0 -0.22218231857 -0.00038406802923 0 -0.22211432457 -0.00033800528035 0 
-0.22205668688 -0.00030626234366 0 -0.22200982273 -0.00026338841417 0 -0.22197201848 -0.00022927852115 0 
-0.22194102407 -0.00018863673904 0 -0.22191634774 -0.0001531359303 0 -0.22189673781 -0.00011396844639 0 
-0.22188214958 -7.7809563663e-05 0 -0.22187192738 -3.9572216338e-05 0 -0.22186611593 -3.304207894e-06 0 
-0.2218645215 3.4419641452e-05 0 -0.22186717391 7.0357251388e-05 0 -0.22187428176 0.00010794177069 0 
-0.22188584507 0.00014312632266 0 -0.22190253437 0.00018101447495 0 -0.22192443907 0.0002149357606 0 
-0.22195282578 0.00025373193785 0 -0.22198824584 0.0002857154177 0 -0.22203293443 0.00032627012115 0 
-0.22208866477 0.00035540590761 0 -0.22215500474 0.00039881133125 0 -0.2221826762 0.00042288727127 0 
-0.22172342241 0.00046221606317 0 -0.21799468994 0.00042859502719 0 -0.19813151658 0.00026295363205 0 
-0.1985052377 -0.00026452934253 0 -0.21812343597 -0.00042635254795 0 -0.22174486518 -0.00045548408525 0 
-0.22217673063 -0.00041283073369 0 -0.22214339674 -0.00038580747787 0 -0.2220749706 -0.00033968430944 0 
-0.22201737761 -0.00030800895183 0 -0.22197058797 -0.00026513379999 0 -0.22193288803 -0.0002310302516 0 
-0.22190199792 -0.00019040117331 0 -0.22187744081 -0.0001548663422 0 -0.22185795009 -0.00011570064089 0 
-0.22184349597 -7.9476965766e-05 0 -0.22183342278 -4.1216520913e-05 0 -0.22182774544 -4.8543938647e-06 0 
-0.22182631493 3.2923504477e-05 0 -0.22182913125 6.898749416e-05 0 -0.22183640301 0.00010665896116 0 
-0.22184813023 0.00014200345322 0 -0.22186498344 0.00018001480203 0 -0.22188703716 0.00021412424394 0 
-0.22191558778 0.00025308775366 0 -0.22195114195 0.00028527216637 0 -0.22199597955 0.0003260539379 0 
-0.2220518291 0.00035537604708 0 -0.22211878002 0.0003991003905 0 -0.2221506834 0.00042336777551 0 
-0.22171716392 0.00046345902956 0 -0.21809323132 0.00043092711712 0 -0.19847543538 0.00026638238342 0 
-0.19884905219 -0.00026822427753 0 -0.21821787953 -0.00042917128303 0 -0.2217348963 -0.0004575572093 0 
-0.22214172781 -0.00041441182839 0 -0.2221044749 -0.00038748222869 0 -0.22203563154 -0.00034129066626 0 
-0.22197809815 -0.000309668103 0 -0.22193136811 -0.00026678454014 0 -0.22189375758 -0.00023267381766 0 
-0.22186294198 -0.00019205090939 0 -0.22183850408 -0.00015647099644 0 -0.22181913257 -0.0001173014025 0 
-0.22180479765 -8.1004982349e-05 0 -0.22179484367 -4.2717412725e-05 0 -0.22178931534 -6.256449069e-06 0 
-0.22178801894 3.1576852052e-05 0 -0.22179098427 6.776877126e-05 0 -0.22179840505 0.0001055249304 0 
-0.22181026638 0.00014102796558 0 -0.2218272686 0.00017915591889 0 -0.22184947133 0.00021344947163 0 
-0.22187817097 0.00025256923982 0 -0.22191382945 0.00028494786238 0 -0.22195880115 0.00032594194636 0 
-0.22201476991 0.00035544042476 0 -0.22208227217 0.0003994666331 0 -0.22211825848 0.00042390913586 0 
-0.22170993686 0.00046474343981 0 -0.21819069982 0.0004332929384 0 -0.198822245 0.00026989428443 0 
-0.19919610023 -0.00027198495809 0 -0.21831151843 -0.00043197540799 0 -0.22172425687 -0.0004595881619 0 
-0.22210653126 -0.00041594452341 0 -0.22206552327 -0.00038909673458 0 -0.22199629247 -0.00034283008426 0 
-0.22193881869 -0.00031124637462 0 -0.22189213336 -0.00026834852179 0 -0.22185462713 -0.0002342180087 0 
-0.22182388604 -0.00019359592989 0 -0.22179953754 -0.00015796083608 0 -0.22178025544 -0.0001187826856 0 
-0.22176603973 -8.2406462752e-05 0 -0.22175620496 -4.4088494178e-05 0 -0.22175079584 -7.5246839515e-06 0 
-0.22174963355 3.0364921258e-05 0 -0.22175273299 6.6685926868e-05 0 -0.22176028788 0.00010452439892 0 
-0.22177226841 0.00014018463844 0 -0.22178941965 0.00017842280795 0 -0.22181172669 0.00021289696451 0 
-0.22184057534 0.00025216248468 0 -0.22187633812 0.00028472970007 0 -0.22192142904 0.00032592209755 0 
-0.22197750211 0.00035558867967 0 -0.22204552591 0.00039990074583 0 -0.22208538651 0.00042450410547 0 
-0.22170178592 0.0004660631821 0 -0.21828708053 0.00043568870751 0 -0.19917199016 0.00027348991716 0 
-0.19954642653 -0.00027581394534 0 -0.21840429306 -0.00043476582505 0 -0.22171293199 -0.00046157898032 0 
-0.22207117081 -0.00041743231122 0 -0.22202655673 -0.00039065515739 0 -0.22195695341 -0.00034430800588 0 
-0.22189952433 -0.0003127498203 0 -0.2218528986 -0.00026983304997 0 -0.22181546688 -0.00023567088647 0 
-0.22178478539 -0.0001950453734 0 -0.2217605412 -0.00015934585826 0 -0.22174134851 -0.00012015536049 0 
-0.22172723711 -8.3693055785e-05 0 -0.22171750665 -4.5342054364e-05 0 -0.22171220183 -8.6720247054e-06 0 
-0.22171115875 2.9274422559e-05 0 -0.2217143625 6.5725318564e-05 0 -0.2217220366 0.00010364365153 0 
-0.22173415124 0.00013945977844 0 -0.22175142169 0.0001778020378 0 -0.22177384794 0.00021245380049 0 
-0.22180280089 0.00025185500272 0 -0.22183865309 0.00028460624162 0 -0.22188386321 0.00032598371035 0 
-0.22194002569 0.0003558115568 0 -0.22200854123 0.00040039443411 0 -0.22205212712 0.00042514622328 0 
-0.22169271111 0.00046741272672 0 -0.21838231385 0.00043811096111 0 -0.19952473044 0.00027717006742 0 
-0.19990004599 -0.00027971377131 0 -0.21849618852 -0.00043754323269 0 -0.22170090675 -0.00046353146899 0 
-0.22203561664 -0.00041887839325 0 -0.22198756039 -0.0003921611933 0 -0.22191759944 -0.00034572943696 0 
-0.22186022997 -0.00031418399885 0 -0.22181363404 -0.00027124484768 0 -0.22177627683 -0.00023703984334 0 
-0.22174566984 -0.00019640763639 0 -0.22172150016 -0.00016063515795 0 -0.22170238197 -0.00012142928608 0 
-0.22168835998 -8.4875347966e-05 0 -0.22167873383 -4.6489218221e-05 0 -0.22167353332 -9.7101501524e-06 0 
-0.22167257965 2.8293381547e-05 0 -0.22167590261 6.4874679083e-05 0 -0.22168368101 0.00010287037003 0 
-0.22169589996 0.00013884114742 0 -0.22171327472 0.00017728151579 0 -0.22173580527 0.00021210838167 0 
-0.22176487744 0.00025163567625 0 -0.22180080414 0.00028456727159 0 -0.22184611857 0.00032611712231 0 
-0.22190235555 0.00035610084888 0 -0.22197131813 0.00040094021824 0 -0.2220184654 0.00042582978494 0 
-0.22168272734 0.00046878709691 0 -0.21847641468 0.00044055649778 0 -0.19988054037 0.00028093566652 0 
-0.20025697351 -0.00028368693893 0 -0.21858710051 -0.00044030827121 0 -0.22168818116 -0.00046544722863 0 
-0.22199988365 -0.00042028576718 0 -0.22194851935 -0.00039361833478 0 -0.22187823057 -0.0003470989468 0 
-0.2218209058 -0.00031555397436 0 -0.22177435458 -0.00027259005583 0 -0.22173705697 -0.0002383315732 0 
-0.22170650959 -0.00019769030041 0 -0.22168239951 -0.00016183697153 0 -0.22166337073 -0.00012261341908 0 
-0.22164942324 -8.5962899902e-05 0 -0.2216398716 -4.7540026571e-05 0 -0.2216347754 -1.0649609067e-05 0 
-0.22163392603 2.7411011615e-05 0 -0.2216373235 6.4122927142e-05 0 -0.22164522111 0.00010219348769 0 
-0.22165752947 0.00013831768592 0 -0.22167500854 0.0001768504444 0 -0.2216976136 0.00021185033256 0 
-0.22172679007 0.00025149443536 0 -0.22176279128 0.00028460362228 0 -0.22180819511 0.00032631366048 0 
-0.2218644917 0.00035644916352 0 -0.22193388641 0.00040153131704 0 -0.22198443115 0.00042654963909 0 
-0.22167181969 0.00047018172336 0 -0.21856933832 0.00044302234892 0 -0.20023943484 0.00028478784952 0 
-0.20061726868 -0.00028773609665 0 -0.21867701411 -0.00044306131895 0 -0.22167472541 -0.00046732765622 0 
-0.22196394205 -0.00042165719788 0 -0.2219094187 -0.00039502957952 0 -0.2218388319 -0.00034842078458 0 
-0.22178155184 -0.00031686431612 0 -0.22173503041 -0.00027387426235 0 -0.22169780731 -0.00023955214419 0 
-0.22166728973 -0.00019890027761 0 -0.22164326906 -0.00016295879323 0 -0.22162428498 -0.00012371584307 0 
-0.2216104269 -8.6964384536e-05 0 -0.22160094976 -4.850354162e-05 0 -0.22159592807 -1.1499930224e-05 0 
-0.22159516811 2.6617584808e-05 0 -0.22159865499 6.346009468e-05 0 -0.22160662711 0.00010160301463 0 
-0.22161902487 0.000137879455 0 -0.22163659334 0.00017649901565 0 -0.22165928781 0.00021167025261 0 
-0.22168855369 0.00025142219965 0 -0.2217246294 0.00028470708639 0 -0.22177010775 0.00032656546682 0 
-0.22182646394 0.00035684992326 0 -0.22189626098 0.00040216158959 0 -0.22195003927 0.00042730124551 0 
-0.22166000307 0.00047159241512 0 -0.21866104007 0.00044550577877 0 -0.20060150325 0.00028872792609 0 
-0.20098094642 -0.00029186380561 0 -0.21876585484 -0.00044580269605 0 -0.22166052461 -0.00046917385771 0 
-0.22192780674 -0.00042299513007 0 -0.22187027335 -0.00039639766328 0 -0.22179940343 -0.00034969870467 0 
-0.22174216807 -0.00031811906956 0 -0.22169567645 -0.0002751025022 0 -0.22165851295 -0.00024070704239 0 
-0.22162804008 -0.00020004379621 0 -0.22160406411 -0.00016400737513 0 -0.22158513963 -0.00012474383402 0 
-0.22157135606 -8.7887623522e-05 0 -0.22156195343 -4.9387937906e-05 0 -0.22155700624 -1.2269721083e-05 0 
-0.22155630589 2.5904335416e-05 0 -0.22155988216 6.2877144956e-05 0 -0.22156794369 0.0001010899432 0 
-0.22158041596 0.00013751746155 0 -0.22159805894 0.00017621844017 0 -0.22162082791 0.00021155971626 0 
-0.2216501683 0.00025141082006 0 -0.22168630362 0.00028487021336 0 -0.22173187137 0.00032686546911 0 
-0.22178825736 0.00035729716183 0 -0.22185842693 0.00040282544796 0 -0.22191528976 0.00042808038415 0 
-0.22164729238 0.00047301527229 0 -0.21875150502 0.0004480041971 0 -0.20096677542 0.00029275729321 0 
-0.20134803653 -0.00029607271426 0 -0.21885356307 -0.00044853257714 0 -0.22164559364 -0.00047098682262 0 
-0.2218914479 -0.00042430183385 0 -0.2218310684 -0.00039772488526 0 -0.22175993025 -0.00035093614133 0 
-0.2217027545 -0.00031932187267 0 -0.22165626287 -0.00027627934469 0 -0.22161915898 -0.00024180112814 0 
-0.22158871591 -0.0002011264296 0 -0.22156481445 -0.0001649887563 0 -0.22154594958 -0.00012570396939 0 
-0.22153221071 -8.8739645435e-05 0 -0.22152286768 -5.0200556871e-05 0 -0.2215179801 -1.2966754184e-05 0 
-0.22151736915 2.5263354473e-05 0 -0.22152100503 6.2365921622e-05 0 -0.22152914107 0.00010064613889 0 
-0.22154168785 0.00013722355652 0 -0.22155940533 0.00017600068531 0 -0.22158223391 0.000211511011 0 
-0.2216116637 0.00025145281688 0 -0.22164782882 0.0002850862511 0 -0.22169347107 0.00032720708987 0 
-0.22174990177 0.00035778543679 0 -0.22182041407 0.00040351774078 0 -0.22188019753 0.00042888338794 0 
-0.22163368762 0.00047444668598 0 -0.21884068847 0.00045051513007 0 -0.20133531094 0.00029687758069 0 
-0.2017185837 -0.00030036544194 0 -0.21894010901 -0.00045125096221 0 -0.22162988782 -0.00047276724945 0 
-0.22185489535 -0.00042557928828 0 -0.22179180384 -0.00039901328273 0 -0.22172041237 -0.00035213615047 0 
-0.22166328132 -0.00032047583954 0 -0.2216168195 -0.00027740880614 0 -0.22157976031 -0.00024283872335 0 
-0.22154934704 -0.00020215315453 0 -0.22152549028 -0.00016590833548 0 -0.22150667012 -0.00012660206994 0 
-0.22149299085 -8.9526794909e-05 0 -0.22148370743 -5.094800872e-05 0 -0.22147887945 -1.3598043552e-05 0 
-0.22147832811 2.4687504265e-05 0 -0.2214820385 6.1919032305e-05 0 -0.22149021924 0.00010026422387 0 
-0.22150284052 0.00013699031842 0 -0.22152063251 0.00017583848967 0 -0.22154352069 0.00021151715191 0 
-0.22157301009 0.00025154135074 0 -0.22160921991 0.00028534908779 0 -0.22165493667 0.00032758436282 0 
-0.22171138227 0.00035830985871 0 -0.22178220749 0.0004042336368 0 -0.22184477746 0.00042970682262 0 
-0.22161918879 0.00047588328016 0 -0.21892853081 0.00045303619117 0 -0.20170715451 0.00030109041836 0 
-0.20209261775 -0.00030474466621 0 -0.21902540326 -0.00045395764755 0 -0.22161342204 -0.00047451557475 0 
-0.22181813419 -0.00042682923959 0 -0.22175247967 -0.0004002644273 0 -0.22168083489 -0.00035330138053 0 
-0.22162376344 -0.00032158361864 0 -0.22157731652 -0.00027849440812 0 -0.22154030204 -0.00024382356787 0 
-0.22150993347 -0.00020312835113 0 -0.22148610651 -0.00016677090025 0 -0.22146733105 -0.00012744334526 0 
-0.22145371139 -9.0254725365e-05 0 -0.22144447267 -5.1636205171e-05 0 -0.2214397043 -1.4169920178e-05 0 
-0.22143919766 2.4170340112e-05 0 -0.22144296765 6.1529732193e-05 0 -0.221451208 9.993747517e-05 0 
-0.22146388888 0.00013681096607 0 -0.22148174047 0.0001757251739 0 -0.22150467336 0.00021157167794 0 
-0.22153423727 0.00025167013519 0 -0.22157047689 0.00028565298999 0 -0.22161625326 0.00032799167093 0 
-0.22167272866 0.00035886588739 0 -0.221743837 0.00040496865404 0 -0.22180902958 0.00043054754497 0 
-0.22160381079 0.00047732176608 0 -0.21901501715 0.00045556513942 0 -0.20208236575 0.00030539769796 0 
-0.20247018337 -0.00030921315192 0 -0.21910940111 -0.00045665237121 0 -0.22159618139 -0.00047623203136 0 
-0.22178116441 -0.00042805317207 0 -0.2217130661 -0.00040147962864 0 -0.2216412127 -0.00035443413071 0 
-0.22158418596 -0.00032264745096 0 -0.22153775394 -0.00027953914832 0 -0.22150078416 -0.00024475890677 0 
-0.22147043049 -0.0002040558029 0 -0.22144666314 -0.00016758065613 0 -0.22142791748 -0.00012823236466 0 
-0.22141434252 -9.092847904e-05 0 -0.22140514851 -5.2270421293e-05 0 -0.22140043974 -1.4688091142e-05 0 
-0.2213999778 2.3706041247e-05 0 -0.2214037925 6.1191909481e-05 0 -0.22141210735 9.9659780972e-05 0 
-0.22142481804 0.00013667927124 0 -0.22144272923 0.00017565459711 0 -0.22146572173 0.00021166866645 0 
-0.22149533033 0.00025183329126 0 -0.22153161466 0.000285992719 0 -0.22157743573 0.0003284237755 0 
-0.22163392603 0.00035944930278 0 -0.2217053026 0.00040571851423 0 -0.22177298367 0.00043140267371 0 
-0.22158753872 0.00047875905875 0 -0.21910007298 0.0004580997047 0 -0.20246098936 0.00030980128213 0 
-0.20285132527 -0.00031377354753 0 -0.21919204295 -0.00045933466754 0 -0.22157815099 -0.00047791664838 0 
-0.22174398601 -0.0004292523663 0 -0.22167359293 -0.00040265975986 0 -0.22160153091 -0.00035553629277 0 
-0.22154456377 -0.00032366908272 0 -0.22149813175 -0.00028054564609 0 -0.22146120667 -0.00024564744672 0 
-0.22143088281 -0.00020493876946 0 -0.22140714526 -0.00016834124108 0 -0.2213884443 -0.0001289731008 0 
-0.22137489915 -9.1552516096e-05 0 -0.22136574984 -5.2855353715e-05 0 -0.22136108577 -1.5157695088e-05 0 
-0.22136066854 2.3289339879e-05 0 -0.22136454284 6.0899943492e-05 0 -0.22137288749 9.9425509688e-05 0 
-0.22138565779 0.00013658945682 0 -0.22140361369 0.0001756210695 0 -0.22142663598 0.00021180252952 0 
-0.22145630419 0.00025202531833 0 -0.22149261832 0.00028636332718 0 -0.2215384841 0.00032887569978 0 
-0.2215949744 0.00036005611764 0 -0.22166661918 0.00040647917194 0 -0.22173662484 0.00043226947309 0 
-0.22157040238 0.00048019213136 0 -0.2191836834 0.00046063770424 0 -0.20284307003 0.00031430326635 0 
-0.20323607326 -0.00031842870521 0 -0.21927326918 -0.00046200386714 0 -0.22155933082 -0.00047956913477 0 
-0.2217065841 -0.0004304277827 0 -0.22163403034 -0.00040380528662 0 -0.22156178951 -0.000356609351 0 
-0.22150486708 -0.00032464976539 0 -0.22145844996 -0.00028151588049 0 -0.22142156959 -0.00024649131228 0 
-0.22139126062 -0.00020577991381 0 -0.22136756778 -0.00016905569646 0 -0.22134889662 -0.00012966897339 0 
-0.22133538127 -9.2130751e-05 0 -0.22132627666 -5.3395146097e-05 0 -0.2213216424 -1.558335498e-05 0 
-0.22132128477 2.2915462978e-05 0 -0.22132518888 6.0648693761e-05 0 -0.22133357823 9.9229473562e-05 0 
-0.22134637833 0.00013653612405 0 -0.22136437893 0.00017561922141 0 -0.22138744593 0.00021196799935 0 
-0.22141715884 0.00025224100682 0 -0.22145348787 0.0002867600997 0 -0.22149941325 0.00032934264163 0 
-0.22155590355 0.00036068257759 0 -0.22162777185 0.00040724655264 0 -0.22169996798 0.00043314532377 0 
-0.22155237198 0.00048161798622 0 -0.21926575899 0.00046317692613 0 -0.20322865248 0.00031890571699 0 
-0.20362445712 -0.00032318136073 0 -0.21935300529 -0.00046465915511 0 -0.22153970599 -0.00048118890845 0 
-0.22166897357 -0.00043158011977 0 -0.22159439325 -0.00040491632535 0 -0.22152198851 -0.00035765441135 0 
-0.22146511078 -0.00032559028477 0 -0.22141870856 -0.00028245142312 0 -0.22138185799 -0.00024729219149 0 
-0.22135157883 -0.0002065813751 0 -0.22132790089 -0.00016972656886 0 -0.22130927444 -0.00013032282004 0 
-0.22129580379 -9.2666552518e-05 0 -0.22128672898 -5.3893425502e-05 0 -0.22128212452 -1.596922084e-05 0 
-0.22128179669 2.258008135e-05 0 -0.2212857455 6.0433398176e-05 0 -0.22129416466 9.9066841358e-05 0 
-0.22130702436 0.00013651416521 0 -0.22132505476 0.00017564395966 0 -0.22134815156 0.00021215999732 0 
-0.22137789428 0.00025247529265 0 -0.22141425312 0.00028717846726 0 -0.2214602232 0.00032981988625 0 
-0.2215166986 0.00036132495734 0 -0.22158877552 0.00040801672731 0 -0.2216630429 0.0004340277228 0 
-0.22153346241 0.00048303362564 0 -0.21934628487 0.00046571512939 0 -0.2036178112 0.00032361093326 0 
-0.20401653647 -0.00032803436625 0 -0.21943120658 -0.00046729957103 0 -0.2215192765 -0.00048277518363 0 
-0.22163113952 -0.00043270978495 0 -0.22155468166 -0.00040599249769 0 -0.221482113 -0.00035867208499 0 
-0.22142529488 -0.0003264908446 0 -0.22137889266 -0.0002833532053 0 -0.22134208679 -0.00024805110297 0 
-0.22131182253 -0.00020734465215 0 -0.22128818929 -0.00017035580822 0 -0.22126957774 -0.00013093693997 0 
-0.22125613689 -9.3162780104e-05 0 -0.22124709189 -5.4353338783e-05 0 -0.22124253213 -1.6319007045e-05 0 
-0.22124223411 2.2279255063e-05 0 -0.22124621272 6.0249622038e-05 0 -0.22125467658 9.8933051049e-05 0 
-0.22126755118 0.0001365186763 0 -0.22128562629 0.00017569039483 0 -0.22130875289 0.00021237359033 0 
-0.22133852541 0.00025272322819 0 -0.22137489915 0.00028761386056 0 -0.22142089903 0.00033030271879 0 
-0.22147735953 0.0003619796189 0 -0.22154963017 0.0004087856214 0 -0.2216258198 0.00043491413817 0 
-0.22151368856 0.00048443596461 0 -0.21942518651 0.00046825007303 0 -0.20401057601 0.00032842121436 0 
-0.20441234112 -0.00033299057395 0 -0.21950778365 -0.00046992386342 0 -0.22149805725 -0.00048432673793 0 
-0.22159311175 -0.00043381686555 0 -0.22151488066 -0.00040703295963 0 -0.22144216299 -0.00035966254654 0 
-0.22138540447 -0.00032735115383 0 -0.22133901715 -0.0002842216345 0 -0.22130224109 -0.0002487685415 0 
-0.22127200663 -0.00020807066176 0 -0.22124838829 -0.00017094479699 0 -0.22122980654 -0.00013151303574 0 
-0.2212163955 -9.3621791166e-05 0 -0.2212073952 -5.4777552577e-05 0 -0.22120286524 -1.6636020518e-05 0 
-0.22120259702 2.2009382519e-05 0 -0.22120660543 6.0093199863e-05 0 -0.2212150842 9.8823766166e-05 0 
-0.2212280035 0.00013654489885 0 -0.22124609351 0.00017575371021 0 -0.22126923501 0.00021260380163 0 
-0.22129905224 0.00025297977845 0 -0.22133542597 0.0002880616812 0 -0.22138147056 0.00033078633714 0 
-0.22143790126 0.00036264274968 0 -0.2215103358 0.00040954913129 0 -0.22158832848 0.00043580200872 0 
-0.22149303555 0.00048582183081 0 -0.21950238943 0.00047077937052 0 -0.2044070065 0.00033333888859 0 
-0.20481191576 -0.00033805283601 0 -0.21958269179 -0.00047253063531 0 -0.22147600353 -0.00048584208707 0 
-0.22155484557 -0.00043490107055 0 -0.22147497535 -0.00040803631418 0 -0.22140215337 -0.00036062535946 0 
-0.22134545445 -0.00032817025203 0 -0.22129906714 -0.00028505647788 0 -0.22126233578 -0.00024944424513 0 
-0.22123211622 -0.00020875963673 0 -0.22120852768 -0.00017149429186 0 -0.22118997574 -0.00013205222785 0 
-0.2211765945 -9.404541197e-05 0 -0.221167624 -5.5168282415e-05 0 -0.22116310894 -1.6923197109e-05 0 
-0.22116287053 2.1767164071e-05 0 -0.22116690874 5.9960177168e-05 0 -0.2211754173 9.8734766652e-05 0 
-0.22118835151 0.00013658811804 0 -0.22120647132 0.00017582906003 0 -0.22122964263 0.00021284562536 0 
-0.22125947475 0.00025323985028 0 -0.22129584849 0.00028851718525 0 -0.22134190798 0.00033126576454 0 
-0.22139832377 0.00036331050796 0 -0.22147092223 0.00041030286229 0 -0.22155056894 0.00043668868602 0 
-0.22147151828 0.0004871879064 0 -0.21957786381 0.00047330057714 0 -0.20480714738 0.00033836648799 0 
-0.20521531999 -0.00034322409192 0 -0.21965584159 -0.00047511814046 0 -0.22145314515 -0.00048731922288 0 
-0.22151638567 -0.00043596167234 0 -0.22143499553 -0.00040900055319 0 -0.22136205435 -0.00036155956332 0 
-0.22130541503 -0.00032894642209 0 -0.22125904262 -0.00028585665859 0 -0.22122235596 -0.00025007736986 0 
-0.22119215131 -0.00020941109688 0 -0.22116859257 -0.00017200440925 0 -0.22115008533 -0.00013255502563 0 
-0.22113671899 -9.4434937637e-05 0 -0.22112777829 -5.552728544e-05 0 -0.22112329304 -1.7183116142e-05 0 
-0.22112308443 2.1549547455e-05 0 -0.22112713754 5.9846741351e-05 0 -0.22113566101 9.8661897937e-05 0 
-0.22114862502 0.00013664353173 0 -0.22116674483 0.00017591149663 0 -0.22118993104 0.00021309377917 0 
-0.22121979296 0.00025349814678 0 -0.2212561667 0.00028897533775 0 -0.22130225599 0.00033173567499 0 
-0.22135862708 0.0003639786446 0 -0.22143135965 0.00041104209959 0 -0.22151255608 0.00043757128878 0 
-0.22144912183 0.00048853061162 0 -0.21965153515 0.00047581101535 0 -0.20521105826 0.00034350648639 0 
-0.20562258363 -0.00034850722295 0 -0.21972717345 -0.00047768445802 0 -0.2214294672 -0.00048875575885 0 
-0.22147771716 -0.00043699744856 0 -0.22139492631 -0.00040992296999 0 -0.22132188082 -0.00036246338277 0 
-0.22126531601 -0.00032967721927 0 -0.2212189436 -0.00028662040131 0 -0.22118230164 -0.00025066619855 0 
-0.22115212679 -0.00021002373251 0 -0.22112859786 -0.00017247450887 0 -0.22111012042 -0.00013302121079 0 
-0.22109678388 -9.4791103038e-05 0 -0.22108787298 -5.5855856772e-05 0 -0.22108340263 -1.7418018615e-05 0 
-0.22108322382 2.135368959e-05 0 -0.22108729184 5.974915257e-05 0 -0.2210958302 9.8600969068e-05 0 
-0.22110880911 0.00013670619228 0 -0.22112694383 0.00017599586863 0 -0.22115014493 0.00021334264602 0 
-0.22118000686 0.00025374887628 0 -0.22121636569 0.00028943063808 0 -0.22126246989 0.00033219033503 0 
-0.22131881118 0.00036464261939 0 -0.22139166296 0.00041176169179 0 -0.22147427499 0.0004384467029 0 
-0.22142586112 0.00048984604655 0 -0.21972331405 0.00047830792028 0 -0.20561876893 0.00034876144491 0 
-0.20603375137 -0.00035390511039 0 -0.21979659796 -0.00048022725969 0 -0.22140495479 -0.00049014872639 0 
-0.22143882513 -0.00043800665298 0 -0.22135475278 -0.00041080001392 0 -0.22128161788 -0.00036333428579 0 
-0.22122512758 -0.00033035920933 0 -0.22117878497 -0.00028734488296 0 -0.22114217281 -0.00025120799546 0 
-0.22111204267 -0.00021059527353 0 -0.22108854353 -0.00017290316464 0 -0.221070081 -0.00013344986655 0 
-0.22105677426 -9.5114017313e-05 0 -0.22104789317 -5.6154814956e-05 0 -0.22104345262 -1.7629814465e-05 0 
-0.22104328871 2.11769202e-05 0 -0.22104738653 5.9663696447e-05 0 -0.22105593979 9.8547658126e-05 0 
-0.2210689187 0.00013677086099 0 -0.22108706832 0.0001760765881 0 -0.22111025453 0.00021358611411 0 
-0.22114011645 0.00025398581056 0 -0.22117647529 0.00028987694532 0 -0.22122259438 0.00033262331272 0 
-0.22127887607 0.00036529728095 0 -0.22135183215 0.00041245593457 0 -0.22143575549 0.0004393113777 0 
-0.22140173614 0.00049112993293 0 -0.21979317069 0.00048078820691 0 -0.2060303539 0.00035413398291 0 
-0.20644886792 -0.0003594206355 0 -0.21986405551 -0.0004827438388 0 -0.22137962282 -0.00049149448751 0 
-0.22139972448 -0.00043898681179 0 -0.22131447494 -0.00041162720299 0 -0.22124128044 -0.00036416866351 0 
-0.22118486464 -0.00033098791027 0 -0.22113855183 -0.00028802617453 0 -0.22110198438 -0.0002516991226 0 
-0.22107188404 -0.00021112243121 0 -0.22104841471 -0.00017328799004 0 -0.22102999687 -0.00013383920304 0 
-0.22101671994 -9.5403134765e-05 0 -0.22100786865 -5.6424469221e-05 0 -0.2210034579 -1.782009349e-05 0 
-0.22100330889 2.1016683604e-05 0 -0.22100740671 5.9586585849e-05 0 -0.22101597488 9.8497395811e-05 0 
-0.22102896869 0.00013683186262 0 -0.2210471034 0.0001761475869 0 -0.22107028961 0.0002138173586 0 
-0.22110015154 0.0002542019356 0 -0.22113649547 0.00029030736187 0 -0.22118259966 0.00033302747761 0 
-0.22123883665 0.00036593672121 0 -0.22131186724 0.00041311833775 0 -0.22139698267 0.00044016132597 0 
-0.22137676179 0.00049237743951 0 -0.21986098588 0.00048324847012 0 -0.20644584298 0.00035962666152 0 
-0.20686799288 -0.00036505662138 0 -0.21992945671 -0.00048523111036 0 -0.22135345638 -0.00049278861843 0 
-0.22136040032 -0.00043993463623 0 -0.22127410769 -0.00041239886195 0 -0.22120086849 -0.0003649618302 0 
-0.2211445272 -0.00033155744313 0 -0.22109824419 -0.00028865897912 0 -0.22106172144 -0.0002521345159 0 
-0.2210316658 -0.0002116006217 0 -0.22100824118 -0.00017362552171 0 -0.22098986804 -0.0001341864554 0 
-0.22097660601 -9.5657138445e-05 0 -0.22096779943 -5.6664586737e-05 0 -0.22096340358 -1.7990123524e-05 0 
-0.22096326947 2.0870509616e-05 0 -0.22096738219 5.9513888118e-05 0 -0.22097593546 9.8445256299e-05 0 
-0.22098894417 0.00013688296895 0 -0.22100706398 0.00017620202561 0 -0.22103025019 0.00021402863786 0 
-0.22106008232 0.00025438930606 0 -0.22109639645 0.00029071394238 0 -0.22114250064 0.00033339453512 0 
-0.22119867802 0.00036655410076 0 -0.22127178311 0.00041374145076 0 -0.22135795653 0.00044099180377 0 
-0.22135090828 0.00049358303659 0 -0.2199267149 0.0004856850137 0 -0.20686528087 0.00036524210009 0 
-0.20729114115 -0.00037081586197 0 -0.21999269724 -0.00048768534907 0 -0.22132645547 -0.00049402576406 0 
-0.22132086754 -0.00044084584806 0 -0.22123362124 -0.00041310794768 0 -0.22116035223 -0.00036570758675 0 
-0.22110410035 -0.00033206050284 0 -0.22105786204 -0.00028923642822 0 -0.2210213989 -0.00025250765611 0 
-0.22099138796 -0.00021202376229 0 -0.22096800804 -0.00017391101574 0 -0.22094967961 -0.00013448778191 0 
-0.22093646228 -9.5873852842e-05 0 -0.2209276706 -5.6874334405e-05 0 -0.22092330456 -1.8140834072e-05 0 
-0.22092318535 2.0735953512e-05 0 -0.22092731297 5.9441423218e-05 0 -0.22093586624 9.8385782621e-05 0 
-0.22094886005 0.00013691710774 0 -0.22096695006 0.00017623216263 0 -0.22099013627 0.00021421103156 0 
-0.22101993859 0.00025453875423 0 -0.22105622292 0.00029108734452 0 -0.22110229731 0.0003337149974 0 
-0.22115840018 0.00036714138696 0 -0.22123154998 0.00041431665886 0 -0.22131869197 0.00044179728138 0 
-0.2213241905 0.00049474043772 0 -0.21999026835 0.0004880935594 0 -0.20728874207 0.00037098280154 0 
-0.20771838725 -0.00037670103484 0 -0.22005371749 -0.00049010227667 0 -0.2212986201 -0.00049519952154 0 
-0.22128111124 -0.00044171500485 0 -0.22119303048 -0.00041374575812 0 -0.22111974657 -0.00036639807513 0 
-0.22106359899 -0.00033248780528 0 -0.22101740539 -0.00028974967427 0 -0.22098100185 -0.00025281027774 0 
-0.22095106542 -0.00021238406771 0 -0.2209277302 -0.00017413822934 0 -0.22090946138 -0.00013473800209 0 
-0.22089627385 -9.6050098364e-05 0 -0.22088752687 -5.7052187913e-05 0 -0.22088317573 -1.8272810848e-05 0 
-0.22088307142 2.0610552383e-05 0 -0.22088719904 5.9364665503e-05 0 -0.22089573741 9.8312848422e-05 0 
-0.22090871632 0.00013692629 0 -0.22092679143 0.00017622900486 0 -0.22094994783 0.0002143541351 0 
-0.22097970545 0.0002546395699 0 -0.22101594508 0.00029141656705 0 -0.22106198967 0.00033397765947 0 
-0.22111800313 0.00036768894643 0 -0.22119118273 0.00041483377572 0 -0.22127917409 0.00044257112313 0 
-0.22129659355 0.00049584230874 0 -0.22005155683 0.00049046933418 0 -0.20771625638 0.00037685126881 0 
-0.20814976096 -0.00038271464291 0 -0.22011239827 -0.00049247679999 0 -0.22126995027 -0.00049630197464 0 
-0.22124114633 -0.00044253506348 0 -0.2211523205 -0.00041430161218 0 -0.22107903659 -0.00036702322541 0 
-0.22102299333 -0.00033282794175 0 -0.22097688913 -0.0002901875996 0 -0.2209405601 -0.0002530318452 0 
-0.22091069818 -0.0002126715699 0 -0.22088740766 -0.00017429911532 0 -0.22086921334 -0.00013493039296 0 
-0.22085607052 -9.6181523986e-05 0 -0.22084735334 -5.7195869886e-05 0 -0.220843032 -1.8386263037e-05 0 
-0.2208429426 2.0491768737e-05 0 -0.22084707022 5.9278605477e-05 0 -0.22085559368 9.8219439678e-05 0 
-0.22086855769 0.00013690118794 0 -0.2208865732 0.00017618203128 0 -0.2209096998 0.00021444569575 0 
-0.22093939781 0.0002546790929 0 -0.22097557783 0.00029168848414 0 -0.22102157772 0.00033416924998 0 
-0.22107748687 0.00036818525405 0 -0.22115068138 0.00041528078145 0 -0.22123941779 0.00044330529636 0 
-0.22126814723 0.00049688009312 0 -0.22011047602 0.00049280683743 0 -0.20814785361 0.0003828498302 0 
-0.2085852921 -0.00038885898539 0 -0.22016865015 -0.00049480301095 0 -0.22124041617 -0.00049732369371 0 
-0.22120094299 -0.0004432972637 0 -0.22111147642 -0.00041476232582 0 -0.22103822231 -0.00036757052294 0 
-0.22098231316 -0.00033306665136 0 -0.22093628347 -0.00029053620528 0 -0.22090004385 -0.00025315926177 0 
-0.22087027133 -0.00021287382697 0 -0.22084707022 -0.00017438347277 0 -0.2208289355 -0.0001350564271 0 
-0.22081583738 -9.6262410807e-05 0 -0.22080717981 -5.7302208006e-05 0 -0.22080288827 -1.8480999643e-05 0 
-0.22080279887 2.0376925022e-05 0 -0.22080692649 5.9177611547e-05 0 -0.22081542015 9.8097429145e-05 0 
-0.22082835436 0.00013683097495 0 -0.22084632516 0.00017607881455 0 -0.22086939216 0.0002144711616 0 
-0.22089901567 0.00025464224746 0 -0.22093513608 0.00029188729241 0 -0.22098104656 0.00033427396556 0 
-0.22103685141 0.00036861631088 0 -0.22111003101 0.00041564335697 0 -0.22119940817 0.00044399008038 0 
-0.22123882174 0.00049784348812 0 -0.22016695142 0.00049509957898 0 -0.20858360827 0.0003889806394 0 
-0.20902502537 -0.00039513618685 0 -0.22022238374 -0.0004970736918 0 -0.2212100327 -0.00049825321184 0 
-0.22116050124 -0.00044399054605 0 -0.22107051313 -0.0004151117173 0 -0.22099730372 -0.00036802410614 0 
-0.22094154358 -0.00033318638452 0 -0.2208956182 -0.00029077802901 0 -0.22085948288 -0.00025317625841 0 
-0.22082982957 -0.00021297535568 0 -0.22080670297 -0.00017437851056 0 -0.22078867257 -0.00013510540884 0 
-0.22077563405 -9.6285388281e-05 0 -0.22076702118 -5.7366993133e-05 0 -0.22076275945 -1.8556376745e-05 0 
-0.22076267004 2.0263132683e-05 0 -0.22076679766 5.9055262682e-05 0 -0.22077526152 9.7937278042e-05 0 
-0.22078815103 0.00013670281623 0 -0.22080604732 0.00017590456991 0 -0.22082903981 0.00021441311401 0 
-0.22085857391 0.00025451101828 0 -0.22089460492 0.00029199398705 0 -0.22094041109 0.00033427283051 0 
-0.22099609673 0.00036896506208 0 -0.22106921673 0.00041590424371 0 -0.22115914524 0.00044461351354 0 
-0.22120863199 0.00049872038653 0 -0.22022087872 0.00049734022468 0 -0.20902353525 0.00039524561726 0 
-0.20946900547 -0.00040154784801 0 -0.22027346492 -0.00049928040244 0 -0.22117878497 -0.00049907626817 0 
-0.22111980617 -0.00044460096979 0 -0.22102938592 -0.00041532993782 0 -0.22095626593 -0.00036836432992 0 
-0.22090066969 -0.00033316560439 0 -0.22085489333 -0.00029089144664 0 -0.22081887722 -0.00025306272437 0 
-0.22078935802 -0.00021295696206 0 -0.22076632082 -0.00017426832346 0 -0.22074840963 -0.00013506403775 0 
-0.22073544562 -9.6241157735e-05 0 -0.22072689235 -5.7384811953e-05 0 -0.22072266042 -1.8611252017e-05 0 
-0.22072258592 2.0147224859e-05 0 -0.22072669864 5.8904137404e-05 0 -0.22073511779 9.7727715911e-05 0 
-0.22074794769 0.00013650153414 0 -0.22076575458 0.00017564157315 0 -0.22078865767 0.00021425068553 0 
-0.22081807256 0.00025426369393 0 -0.22085398436 0.00029198543052 0 -0.22089967132 0.00033414296922 0 
-0.22095519304 0.00036921066931 0 -0.22102825344 0.00041604263242 0 -0.22111861408 0.0004451610148 0 
-0.22117754817 0.00049949612003 0 -0.22027213871 0.00049951981055 0 -0.20946769416 0.00040164627717 0 
-0.2099172473 -0.00040809519123 0 -0.22032177448 -0.00050141295651 0 -0.22114665806 -0.00049977580784 0 
-0.22107885778 -0.00044511118904 0 -0.22098810971 -0.00041539256927 0 -0.22091510892 -0.00036856660154 0 
-0.2208596915 -0.00033297768096 0 -0.22081409395 -0.00029084971175 0 -0.22077822685 -0.00025279380498 0 
-0.22074887156 -0.000212795072 0 -0.22072596848 -0.00017403326638 0 -0.22070817649 -0.00013491595746 0 
-0.22069530189 -9.6118128567e-05 0 -0.22068683803 -5.7348832343e-05 0 -0.2206826359 -1.864391561e-05 0 
-0.2206825763 2.0025658159e-05 0 -0.22068665922 5.8715591877e-05 0 -0.22069501877 9.7455391369e-05 0 
-0.22070777416 0.0001362090552 0 -0.22072546184 0.0001752685057 0 -0.22074826062 0.00021395874501 0 
-0.2207775116 0.00025387399364 0 -0.22081328928 0.00029183356673 0 -0.22085881233 0.00033385655843 0 
-0.22091417015 0.00036932757939 0 -0.22098711133 0.00041603323189 0 -0.2210777998 0.00044561445247 0 
-0.22114555538 0.00050015293527 0 -0.22032061219 0.0005016279174 0 -0.20991609991 0.00040818372509 0 
-0.21036979556 -0.00041477879859 0 -0.22036719322 -0.000503459014 0 -0.22111362219 -0.00050033058506 0 
-0.22103762627 -0.00044549940503 0 -0.22094665468 -0.00041526957648 0 -0.2208738178 -0.00036860036198 0 
-0.220818609 -0.00033258998883 0 -0.22077322006 -0.00029061973328 0 -0.22073754668 -0.00025233902852 0 
-0.22070840001 -0.00021246079996 0 -0.22068564594 -0.00017364916857 0 -0.22066800296 -0.00013464114454 0 
-0.22065524757 -9.5901959867e-05 0 -0.22064685822 -5.7250545069e-05 0 -0.22064270079 -1.8652004655e-05 0 
-0.22064264119 1.9894418074e-05 0 -0.2206467092 5.8479479776e-05 0 -0.22065497935 9.7104355518e-05 0 
-0.22066766024 0.00013580379891 0 -0.2206851989 0.00017475977074 0 -0.22070786357 0.0002135070099 0 
-0.22073692083 0.00025331010693 0 -0.22077253461 0.00029150416958 0 -0.22081784904 0.0003333799541 0 
-0.22087298334 0.00036928424379 0 -0.22094577551 0.00041584519204 0 -0.22103670239 0.00044595141662 0 
-0.22111266851 0.00050066917902 0 -0.22036616504 0.00050365185598 0 -0.21036878228 0.00041485836846 0 
-0.21082665026 -0.00042159832083 0 -0.22040957212 -0.00050540349912 0 -0.22107967734 -0.00050071446458 0 
-0.22099608183 -0.00044573823106 0 -0.22090499103 -0.00041492382297 0 -0.22083236277 -0.00036842751433 0 
-0.22077742219 -0.00033196230652 0 -0.22073230147 -0.00029016082408 0 -0.22069683671 -0.00025166099658 0 
-0.22066794336 -0.00021191887208 0 -0.220645383 -0.00017308647512 0 -0.22062793374 -0.00013421519543 0 
-0.22061529756 -9.5575109299e-05 0 -0.22060701251 -5.707949822e-05 0 -0.22060289979 -1.8632425054e-05 0 
-0.22060285509 1.9748913473e-05 0 -0.2206068784 5.8183868532e-05 0 -0.22061507404 9.6655603556e-05 0 
-0.22062762082 0.00013525996474 0 -0.22064499557 0.00017408443091 0 -0.22066748142 0.00021285892581 0 
-0.22069630027 0.00025253350032 0 -0.22073169053 0.00029095541686 0 -0.22077675164 0.00033267194522 0 
-0.22083163261 0.00036904175067 0 -0.22090421617 0.000415440707 0 -0.22099527717 0.00044614399667 0 
-0.22107882798 0.00050101825036 0 -0.22040867805 0.00050557649229 0 -0.21082575619 0.00042166985804 0 
-0.2112878263 -0.00042855241918 0 -0.22044876218 -0.00050722813467 0 -0.22104476392 -0.00050089490833 0 
-0.22095420957 -0.00044579329551 0 -0.22086310387 -0.00041430952842 0 -0.22079074383 -0.00036800056114 0 
-0.22073611617 -0.00033104527392 0 -0.22069132328 -0.00028942289646 0 -0.22065614164 -0.00025071392884 0 
-0.22062754631 -0.00021112633112 0 -0.22060520947 -0.00017230919912 0 -0.22058798373 -0.0001336086134 0 
-0.22057549655 -9.5116207376e-05 0 -0.22056734562 -5.6822940678e-05 0 -0.2205632925 -1.8581236873e-05 0 
-0.2205632478 1.958384928e-05 0 -0.22056722641 5.7814660977e-05 0 -0.22057530284 9.6086478152e-05 0 
-0.22058771551 0.00013454677537 0 -0.22060486674 0.00017320530606 0 -0.22062712908 0.00021197040041 0 
-0.2206556648 0.00025149725843 0 -0.22069078684 0.00029013626045 0 -0.22073553503 0.00033168229857 0 
-0.22079011798 0.000368551875 0 -0.22086243331 0.00041477335617 0 -0.22095350921 0.00044615729712 0 
-0.22104403377 0.00050116737839 0 -0.22044798732 0.00050738314167 0 -0.21128705144 0.00042861665133 0 
-0.21175332367 -0.00043563818326 0 -0.22048459947 -0.00050891027786 0 -0.22100886703 -0.00050083152018 0 
-0.22091196477 -0.00044562126277 0 -0.22082094848 -0.00041336985305 0 -0.22074894607 -0.00036726036342 0 
-0.22069469094 -0.00032977812225 0 -0.22065030038 -0.00028834448312 0 -0.22061544657 -0.00024944182951 0 
-0.22058720887 -0.00021003109578 0 -0.22056517005 -0.00017127365572 0 -0.22054819763 -0.00013278581901 0 
-0.22053591907 -9.4499475381e-05 0 -0.22052790225 -5.6465461967e-05 0 -0.22052392364 -1.8493537937e-05 0 
-0.22052389383 1.9393100956e-05 0 -0.22052779794 5.7355249737e-05 0 -0.22053575516 9.5370000054e-05 0 
-0.22054797411 0.00013362753089 0 -0.22056487203 0.00017207759083 0 -0.22058685124 0.00021078831924 0 
-0.22061502934 0.0002501445415 0 -0.22064983845 0.00028898435994 0 -0.2206941694 0.00033034943044 0 
-0.22074839473 0.00036775477929 0 -0.22082036734 0.00041378571768 0 -0.22091135383 0.00044594751671 0 
-0.22100822628 0.00050107564311 0 -0.22048392892 0.00050904910313 0 -0.21175265312 0.00043569583795 0 
-0.21222312748 -0.00044285075273 0 -0.22051687539 -0.0005104218144 0 -0.22097192705 -0.00050047331024 0 
-0.22086928785 -0.00044516724302 0 -0.22077850997 -0.00041203416185 0 -0.2207069546 -0.00036613302655 0 
-0.2206531316 -0.00032808602555 0 -0.22060923278 -0.00028685011785 0 -0.2205747962 -0.00024777653744 0 
-0.22054700553 -0.00020857022901 0 -0.22052529454 -0.0001699271379 0 -0.22050864995 -0.0001317042188 0 
-0.22049660981 -9.3693975941e-05 0 -0.2204887569 -5.5988599343e-05 0 -0.22048486769 -1.8363347408e-05 0 
-0.22048483789 1.9169578081e-05 0 -0.22048866749 5.6786066125e-05 0 -0.2204964608 9.4474162324e-05 0 
-0.22050845623 0.00013245856098 0 -0.22052504122 0.00017064760323 0 -0.22054669261 0.00020924881392 0 
-0.22057443857 0.00024840622791 0 -0.22060883045 0.00028742349241 0 -0.22065268457 0.00032859787461 0 
-0.22070646286 0.00036657592864 0 -0.22077798843 0.00041240657447 0 -0.22086875141 0.00044545932906 0 
-0.2209713757 0.00050069176359 0 -0.22051629424 0.00051054591313 0 -0.21222254634 0.00044290247024 0 
-0.21269719303 -0.00045018264791 0 -0.22054541111 -0.00051172729582 0 -0.22093386948 -0.0004997557844 0 
-0.22082613409 -0.00044436138705 0 -0.22073569894 -0.00041021421202 0 -0.22066470981 -0.00036452608765 0 
-0.22061142325 -0.00032587687019 0 -0.22056815028 -0.00028484745417 0 -0.22053420544 -0.0002456351358 0 
-0.22050693631 -0.00020666800265 0 -0.22048567235 -0.00016820637393 0 -0.22046941519 -0.00013031308481 0 
-0.22045764327 -9.2662943644e-05 0 -0.22044999897 -5.537042307e-05 0 -0.22044621408 -1.8183476641e-05 0 
-0.22044618428 1.8905084289e-05 0 -0.22044992447 5.6084183598e-05 0 -0.22045752406 9.3361224572e-05 0 
-0.22046923637 0.00013098822092 0 -0.22048544884 0.00016885115474 0 -0.22050668299 0.00020727529773 0 
-0.22053389251 0.00024619861506 0 -0.22056780756 0.00028536049649 0 -0.22061105072 0.00032633481896 0 
-0.22066429257 0.0003649223072 0 -0.2207352668 0.00041054733447 0 -0.22082567215 0.00044462256483 0 
-0.22093339264 0.0004999510129 0 -0.22054490447 0.00051183818141 0 -0.21269670129 0.00045022898121 0 
-0.2131754607 -0.00045762278023 0 -0.22056992352 -0.00051278207684 0 -0.22089461982 -0.00049859634601 0 
-0.22078241408 -0.00044311431702 0 -0.22069250047 -0.00040779955452 0 -0.22062221169 -0.00036232365528 0 
-0.22056958079 -0.00032303712214 0 -0.22052705288 -0.00028222356923 0 -0.22049373388 -0.00024291708542 0 
-0.22046710551 -0.00020423375827 0 -0.22044634819 -0.00016603589756 0 -0.22043053806 -0.0001285525359 0 
-0.22041912377 -9.1362999228e-05 0 -0.22041170299 -5.458513624e-05 0 -0.2204080373 -1.7945409127e-05 0 
-0.2204080224 1.8590193577e-05 0 -0.22041164339 5.5222906667e-05 0 -0.22041900456 9.1986934422e-05 0 
-0.22043038905 0.00012915577099 0 -0.22044615448 0.00016661199334 0 -0.22046688199 0.00020477634098 0 
-0.22049346566 0.00024342049437 0 -0.22052675486 0.00028268189635 0 -0.22056926787 0.00032344617648 0 
-0.22062185407 0.00036267752876 0 -0.22069212794 0.00040809696657 0 -0.22078201175 0.00044334746781 0 
-0.22089421749 0.00049877056153 0 -0.22056949139 0.00051288091345 0 -0.21317502856 0.00045766425319 0 
-0.21365782619 -0.00046515499707 0 -0.2205901593 -0.0005135286483 0 -0.22085405886 -0.00049688859144 0 
-0.22073803842 -0.00044131075265 0 -0.22064881027 -0.00040465095663 0 -0.22057941556 -0.00035938018118 0 
-0.22052760422 -0.00031942685018 0 -0.22048597038 -0.00027884088922 0 -0.22045341134 -0.00023950105242 0 
-0.22042754292 -0.00020115960797 0 -0.22040742636 -0.00016332643281 0 -0.22039215267 -0.00012635240273 0 
-0.22038114071 -8.9743596618e-05 0 -0.22037401795 -5.3602740081e-05 0 -0.22037048638 -1.7639215002e-05 0 
-0.22037047148 1.821414844e-05 0 -0.22037395835 5.4171414376e-05 0 -0.2203810513 9.0299923613e-05 0 
-0.22039203346 0.00012689028517 0 -0.22040726244 0.00016384008632 0 -0.22042734921 0.00020164335729 0 
-0.22045318782 0.00023994984804 0 -0.22048571706 0.0002792494779 0 -0.2205273211 0.00031979146297 0 
-0.22057911754 0.00035969557939 0 -0.22064849734 0.00040491597611 0 -0.22073769569 0.00044151843758 0 
-0.22085371614 0.00049704371486 0 -0.22058978677 0.00051361654187 0 -0.21365745366 0.00046519207535 0 
-0.21414414048 -0.00047275584075 0 -0.22060577571 -0.00051389209693 0 -0.22081205249 -0.0004944934044 0 
-0.2206928879 -0.00043880069279 0 -0.22060456872 -0.00040059248568 0 -0.2205362916 -0.00035551242763 0 
-0.22048546374 -0.00031487361412 0 -0.22044494748 -0.00027453229995 0 -0.22041332722 -0.00023524131393 0 
-0.22038838267 -0.00019731817883 0 -0.22036899626 -0.0001599733514 0 -0.22035437822 -0.00012363150017 0 
-0.2203438431 -8.7746506324e-05 0 -0.22033704817 -5.2388826589e-05 0 -0.22033369541 -1.7253503756e-05 0 
-0.22033368051 1.7764801669e-05 0 -0.22033700347 5.2894556575e-05 0 -0.2203437686 8.8241242338e-05 0 
-0.22035427392 0.00012410982163 0 -0.22036886215 0.00016043010692 0 -0.22038821876 0.000197748348 0 
-0.2204131335 0.00023564035655 0 -0.22044473886 0.00027489557397 0 -0.22048524022 0.00031519774348 0 
-0.22053603828 0.00035579281393 0 -0.2206043005 0.00040082799387 0 -0.22069260478 0.00043898524018 0 
-0.22081175447 0.00049463118194 0 -0.22060546279 0.0005139700952 0 -0.21414384246 0.0004727889318 0 
-0.21463422477 -0.00048039105604 0 -0.22061640024 -0.00051377364434 0 -0.22076839209 -0.00049122690689 0 
-0.22064682841 -0.00043538719183 0 -0.22055965662 -0.00039540030411 0 -0.22049281001 -0.00035048928112 0 
-0.22044320405 -0.00030916489777 0 -0.22040404379 -0.00026909570443 0 -0.22037355602 -0.00022996398911 0 
-0.22034969926 -0.00019256054657 0 -0.22033122182 -0.00015585555229 0 -0.22031734884 -0.00012029706704 0 
-0.22030739486 -8.5305786342e-05 0 -0.22030098736 -5.0904607633e-05 0 -0.22029781342 -1.6775462427e-05 0 
-0.22029781342 1.7228650904e-05 0 -0.22030094266 5.1352861192e-05 0 -0.22030733526 8.574428648e-05 0 
-0.22031725943 0.00012072101526 0 -0.22033111751 0.00015626038658 0 -0.22034956515 0.00019294179219 0 
-0.22037340701 0.00023031762976 0 -0.22040386498 0.000269417651 0 -0.22044301033 0.00030945209437 0 
-0.22049260139 0.00035073771141 0 -0.2205594331 0.00039560889127 0 -0.22064658999 0.00043555060984 0 
-0.22076815367 0.00049134885194 0 -0.22061614692 0.00051384262042 0 -0.21463397145 0.00048042045091 0 
-0.21512778103 -0.00048800994409 0 -0.22062157094 -0.00051304016961 0 -0.22072286904 -0.00048684247304 0 
-0.22059968114 -0.00043080837349 0 -0.22051399946 -0.00038878811756 0 -0.22044892609 -0.0003440187138 0 
-0.22040085495 -0.00030203934875 0 -0.22036331892 -0.00026228840579 0 -0.22033423185 -0.00022346364858 0 
-0.22031165659 -0.00018671478028 0 -0.22029425204 -0.00015083509788 0 -0.22028125823 -0.00011624511535 0 
-0.2202719599 -8.2348225988e-05 0 -0.22026599944 -4.9107289669e-05 0 -0.22026306391 -1.6191008399e-05 0 
-0.22026304901 1.6590989617e-05 0 -0.22026596963 4.9502916227e-05 0 -0.2202719152 8.2735241449e-05 0 
-0.22028118372 0.00011661927419 0 -0.22029416263 0.00015119237651 0 -0.22031153738 0.00018705123512 0 
-0.22033409774 0.0002237757144 0 -0.22036318481 0.00026257248828 0 -0.22040069103 0.0003022927267 0 
-0.22044874728 0.00034423789475 0 -0.22051380575 0.00038897208287 0 -0.22059948742 0.00043095252477 0 
-0.22072267532 0.00048694995348 0 -0.22062136233 0.0005131008802 0 -0.21512757242 0.00048803605023 0 
-0.21562440693 -0.00049553415738 0 -0.22062070668 -0.00051150727086 0 -0.22067517042 -0.00048100337153 0 
-0.22055125237 -0.00042471141205 0 -0.22046744823 -0.00038038767525 0 -0.22040462494 -0.00033573192195 0 
-0.22035846114 -0.00029317667941 0 -0.22032290697 -0.00025382169406 0 -0.22029548883 -0.00021550063684 0 
-0.22027443349 -0.00017958579701 0 -0.22025829554 -0.00014475810167 0 -0.220246315 -0.00011136173998 0 
-0.22023777664 -7.87947356e-05 0 -0.22023232281 -4.6950997785e-05 0 -0.2202296406 -1.5485136828e-05 0 
-0.2202296257 1.5836234525e-05 0 -0.22023229301 4.7298271966e-05 0 -0.22023773193 7.9134442785e-05 0 
-0.2202462554 0.00011169016216 0 -0.22025822103 0.00014507168089 0 -0.22027434409 0.00017988111358 0 
-0.22029538453 0.00021577451844 0 -0.22032278776 0.00025407102657 0 -0.22035832703 0.00029339900357 0 
-0.22040449083 0.00033592424006 0 -0.22046729922 0.00038054902689 0 -0.22055110335 0.00042483783909 0 
-0.22067500651 0.00048109758063 0 -0.22062052786 0.00051156041445 0 -0.21562424302 0.00049555720761 0 
-0.21612353623 -0.00050283165183 0 -0.22061310709 -0.00050890835701 0 -0.2206248939 -0.00047324117622 0 
-0.22050131857 -0.00041661565774 0 -0.22041992843 -0.00036972452654 0 -0.22035993636 -0.00032516472857 0 
-0.22031612694 -0.00028218701482 0 -0.22028295696 -0.00024335662602 0 -0.22025755048 -0.00020580009732 0 
-0.22023826838 -0.00017095713702 0 -0.22022357583 -0.00013745755132 0 -0.22021275759 -0.00010552611639 0 
-0.22020509839 -7.4562849477e-05 0 -0.22020021081 -4.4388416427e-05 0 -0.22019781172 -1.4642494534e-05 0 
-0.22019779682 1.4948502212e-05 0 -0.22020018101 4.4691092626e-05 0 -0.22020505369 7.4858922744e-05 0 
-0.22021271288 0.00010581235256 0 -0.22022351623 0.00013773085084 0 -0.22023819387 0.00017121450219 0 
-0.22025746107 0.00020603877783 0 -0.22028286755 0.00024357390066 0 -0.22031602263 0.00028238072991 0 
-0.22035983205 0.00032533233752 0 -0.22041980922 0.00036986506893 0 -0.22050119936 0.00041672575753 0 
-0.22062475979 0.00047332316171 0 -0.22061297297 0.00050895457389 0 -0.21612340212 0.0005028519081 0 
-0.21662442386 -0.00050967774587 0 -0.220597893 -0.00050485233078 0 -0.22057154775 -0.00046290102182 0 
-0.22044959664 -0.00040586202522 0 -0.22037133574 -0.00035618568654 0 -0.22031490505 -0.000311734766 0 
-0.22027404606 -0.00026859869831 0 -0.2202437222 -0.00023050139134 0 -0.22022069991 -0.00019405396597 0 
-0.22020344436 -0.00016059586778 0 -0.22019043565 -0.0001287592022 0 -0.22018091381 -9.8615775642e-05 0 
-0.22017420828 -6.9570989581e-05 0 -0.22016994655 -4.1373430577e-05 0 -0.22016786039 -1.3648278582e-05 0 
-0.22016786039 1.3912503164e-05 0 -0.22016993165 4.1634779336e-05 0 -0.22017417848 6.9826637628e-05 0 
-0.2201808691 9.886292537e-05 0 -0.22019037604 0.00012899517606 0 -0.22020338476 0.00016081807553 0 
-0.2202206254 0.00019426002109 0 -0.22024364769 0.00023068898008 0 -0.22027397156 0.00026876592892 0 
-0.22031483054 0.00031187944114 0 -0.22037123144 0.0003563069331 0 -0.22044950724 0.00040595704922 0 
-0.22057144344 0.00046297171502 0 -0.22059778869 0.00050489208661 0 -0.21662431955 0.00050969538279 0 
-0.21712589264 -0.00051572074881 0 -0.22057391703 -0.00049877760466 0 -0.2205144614 -0.00044906086987 0 
-0.22039583325 -0.00039152742829 0 -0.22032164037 -0.0003389675112 0 -0.22026970983 -0.00029471181915 0 
-0.22023250163 -0.00025184758124 0 -0.22020553052 -0.00021481529984 0 -0.22018529475 -0.00017992983339 0 
-0.22017034888 -0.00014826359984 0 -0.22015918791 -0.00011849212024 0 -0.22015109658 -9.0515262855e-05 0 
-0.22014543414 -6.3744853833e-05 0 -0.22014185786 -3.7864992919e-05 0 -0.22014011443 -1.2489530491e-05 0 
-0.22014011443 1.2714825061e-05 0 -0.22014184296 3.8087833673e-05 0 -0.22014541924 6.3962834247e-05 0 
-0.22015108168 9.0725989139e-05 0 -0.22015915811 0.00011869331502 0 -0.22017030418 0.00014845305122 0 
-0.22018525004 0.00018010550411 0 -0.22020547092 0.00021497522539 0 -0.22023244202 0.0002519901318 0 
-0.22026965022 0.00029483516118 0 -0.22032156587 0.0003390708298 0 -0.22039575875 0.00039160842425 0 
-0.22051438689 0.00044912108569 0 -0.22057384253 0.00049881142331 0 -0.21712581813 0.00051573594101 0 
-0.21762593091 -0.00052031705854 0 -0.22053962946 -0.00048978527775 0 -0.2204529196 -0.00043034771807 0 
-0.22033987939 -0.00037227690336 0 -0.22027105093 -0.00031701245462 0 -0.22022472322 -0.00027320353547 0 
-0.22019197047 -0.00023128565226 0 -0.22016888857 -0.0001958306384 0 -0.22015182674 -0.00016309358762 0 
-0.22013944387 -0.00013373672846 0 -0.22013030946 -0.00010650580225 0 -0.22012375295 -8.1129081082e-05 0 
-0.2201191932 -5.7026521972e-05 0 -0.22011631727 -3.3832464396e-05 0 -0.22011493146 -1.1156887922e-05 0 
-0.22011493146 1.1345682651e-05 0 -0.22011631727 3.4019205486e-05 0 -0.2201191783 5.720918125e-05 0 
-0.22012372315 8.1305668573e-05 0 -0.22013027966 0.00010667439346 0 -0.22013941407 0.00013389548985 0 
-0.22015179694 0.00016324079479 0 -0.22016885877 0.00019596463244 0 -0.22019192576 0.00023140505073 0 
-0.22022467852 0.00027330688317 0 -0.22027100623 0.0003170989803 0 -0.22033983469 0.0003723447735 0 
-0.22045286 0.0004303980968 0 -0.22053958476 0.00048981350847 0 -0.2176258862 0.00052032992244 0 
-0.21812129021 -0.00052167178364 0 -0.22049333155 -0.00047598805395 0 -0.22038635612 -0.00040460168384 0 
-0.22028188407 -0.00034623776446 0 -0.22022001445 -0.00028901890619 0 -0.22018051147 -0.00024620009935 0 
-0.22015312314 -0.00020622201555 0 -0.22013445199 -0.00017309380928 0 -0.22012092173 -0.00014324430958 0 
-0.22011128068 -0.00011683449702 0 -0.22010426223 -9.2692585895e-05 0 -0.22009928524 -7.0398171374e-05 0 
-0.22009584308 -4.9385660532e-05 0 -0.22009369731 -2.9262122553e-05 0 -0.22009265423 -9.6466856121e-06 0 
-0.22009265423 9.8010132206e-06 0 -0.22009368241 2.9414770324e-05 0 -0.22009582818 4.9534974096e-05 0 
-0.22009927034 7.0542519097e-05 0 -0.22010424733 9.2830392532e-05 0 -0.22011126578 0.00011696426373 0 
-0.22012089193 0.00014336462482 0 -0.22013442218 0.00017320332699 0 -0.22015309334 0.00020631960069 0 
-0.22018048167 0.00024628455867 0 -0.22021998465 0.00028908957029 0 -0.22028185427 0.00034629320726 0 
-0.22038632631 0.00040464277845 0 -0.22049330175 0.00047601110418 0 -0.2181212455 0.00052168255206 0 
-0.21860928833 -0.00051561795408 0 -0.22043319046 -0.00045380205847 0 -0.22031362355 -0.00036878278479 0 
-0.22022162378 -0.00031102698995 0 -0.22016894817 -0.0002534876694 0 -0.22013771534 -0.00021260215726 0 
-0.2201167047 -0.00017593451776 0 -0.22010293603 -0.00014619028661 0 -0.22009320557 -0.00012014557433 0 
-0.22008639574 -9.7447089502e-05 0 -0.22008152306 -7.7011012763e-05 0 -0.22007808089 -5.8316811192e-05 0 
-0.22007574141 -4.0830604121e-05 0 -0.2200742662 -2.4163320631e-05 0 -0.22007356584 -7.9629235188e-06 0 
-0.22007356584 8.0844429249e-06 0 -0.2200742662 2.4283517632e-05 0 -0.22007572651 4.0948172682e-05 0 
-0.22007808089 5.8430468926e-05 0 -0.22008150816 7.7119526395e-05 0 -0.22008639574 9.7549265774e-05 0 
-0.22009319067 0.00012024030002 0 -0.22010292113 0.00014627652126 0 -0.2201166898 0.00017601135187 0 
-0.22013770044 0.00021266865951 0 -0.22016891837 0.00025354328682 0 -0.22022159398 0.0003110706748 0 
-0.22031360865 0.00036881509004 0 -0.22043317556 0.00045382013195 0 -0.21860927343 0.00051562656881 0 
-0.2190875262 -0.00049827381736 0 -0.220355317 -0.00041983954725 0 -0.22023186088 -0.00031932390993 0 
-0.22015863657 -0.00026318902383 0 -0.22011895478 -0.00020825563115 0 -0.22009776533 -0.00017104261497 0 
-0.22008408606 -0.00013963325182 0 -0.22007550299 -0.00011477859516 0 -0.22006957233 -9.3679023848e-05 0 
-0.22006550431 -7.5579337135e-05 0 -0.22006261349 -5.9516263718e-05 0 -0.22006060183 -4.4951590098e-05 0 
-0.22005921602 -3.1419091101e-05 0 -0.22005836666 -1.8573884518e-05 0 -0.22005794942 -6.1188588916e-06 0 
-0.22005794942 6.2088797677e-06 0 -0.22005836666 1.8662925868e-05 0 -0.22005921602 3.1506184314e-05 0 
-0.22006058693 4.503578748e-05 0 -0.22006261349 5.959664486e-05 0 -0.22006550431 7.5655028922e-05 0 
-0.22006957233 9.3749193184e-05 0 -0.22007550299 0.00011484247807 0 -0.22008407116 0.00013969014981 0 
-0.22009775043 0.0001710918732 0 -0.22011895478 0.00020829679852 0 -0.22015863657 0.00026322138729 0 
-0.22023184597 0.00031934777508 0 -0.2203553021 0.00041985293501 0 -0.2190875262 0.00049828039482 0 
-0.21952697635 -0.00046801383724 0 -0.22025479376 -0.00037096932647 0 -0.22014509141 -0.00024992332328 0 
-0.22009906173 -0.00019630677707 0 -0.22007617354 -0.00014995313541 0 -0.22006544471 -0.00012019378482 0 
-0.22005876899 -9.6888914413e-05 0 -0.22005474567 -7.8914425103e-05 0 -0.22005198896 -6.4060586737e-05 0 
-0.22005011141 -5.1481052651e-05 0 -0.22004877031 -4.0435978008e-05 0 -0.22004784644 -3.048491817e-05 0 
-0.22004720569 -2.1282321541e-05 0 -0.22004680336 -1.2572197193e-05 0 -0.22004660964 -4.1406806304e-06 0 
-0.22004660964 4.2001761358e-06 0 -0.22004680336 1.2631046047e-05 0 -0.22004720569 2.133988346e-05 0 
-0.22004784644 3.0540562875e-05 0 -0.22004877031 4.0489103412e-05 0 -0.22005011141 5.153107486e-05 0 
-0.22005198896 6.4106963691e-05 0 -0.22005474567 7.8956647485e-05 0 -0.22005876899 9.6926516562e-05 0 
-0.22006544471 0.00012022634473 0 -0.22007617354 0.00014998033294 0 -0.22009906173 0.00019632818294 0 
-0.22014509141 0.00024993903935 0 -0.22025479376 0.00037097817403 0 -0.21952697635 0.00046801840654 0 
-0.21983642876 -0.00037244040868 0 -0.22014695406 -0.00027093189419 0 -0.22008168697 -0.00014621327864 0 
-0.22006131709 -0.00010482224752 0 -0.22005192935 -7.7742311987e-05 0 -0.22004796565 -6.1269922298e-05 0 
-0.22004550695 -4.9084475904e-05 0 -0.22004403174 -3.9808946894e-05 0 -0.22004298866 -3.2245454349e-05 0 
-0.2200422734 -2.5872215701e-05 0 -0.22004175186 -2.0301256882e-05 0 -0.22004136443 -1.5294292098e-05 0 
-0.22004111111 -1.0672466487e-05 0 -0.2200409472 -6.3027960095e-06 0 -0.22004087269 -2.0756292543e-06 0 
-0.22004087269 2.1051832846e-06 0 -0.2200409472 6.3320285335e-06 0 -0.22004111111 1.0701060091e-05 0 
-0.22004136443 1.5321933461e-05 0 -0.22004175186 2.0327644961e-05 0 -0.2200422734 2.5897063097e-05 0 
-0.22004298866 3.2268490031e-05 0 -0.22004403174 3.9829916204e-05 0 -0.22004550695 4.9103153287e-05 0 
-0.22004796565 6.1286096752e-05 0 -0.22005194426 7.7755816164e-05 0 -0.22006131709 0.00010483289225 0 
-0.22008168697 0.00014622104936 0 -0.22014695406 0.00027093631797 0 -0.21983642876 0.0003724427952 0 
-0.15539824963 0.012920712121 0 -0.16061784327 -0.0029354470316 0 -0.15912480652 0.0012282355456 0 
-0.16069431603 -0.00042607574142 0 -0.16169589758 6.0679161834e-05 0 -0.1622582227 0.00069164787419 0 
-0.15987992287 0.00093071139418 0 -0.16205228865 0.00081166357268 0 -0.16423845291 0.0011141346768 0 
-0.16259253025 0.0010201849509 0 -0.16087840497 0.00046645948896 0 -0.16048920155 5.0622726121e-05 0 
-0.15922142565 -0.00023257438443 0 -0.15771257877 -0.00064052152447 0 -0.15782737732 -0.0010870510014 0 
-0.15940786898 -0.0012145068031 0 -0.16003651917 -0.00097212946275 0 -0.15984219313 -0.00065664295107 0 
-0.15883712471 -0.00046049908269 0 -0.15753382444 -0.00056015927112 0 -0.15789060295 -0.0006815692177 0 
-0.15919724107 -0.00038704549661 0 -0.15940344334 -3.1694871723e-05 0 -0.15989719331 6.7376349762e-05 0 
-0.1604000926 0.00015259825159 0 -0.16065947711 0.00024308274442 0 -0.16059592366 0.00060475594364 0 
-0.15979357064 -0.00095586874522 0 -0.16104857624 0.0033348286524 0 -0.15368789434 -0.01204423327 0 
-0.16308560967 0.0010426110821 0 -0.16741634905 -0.0019296198152 0 -0.16586200893 5.4126732721e-05 0 
-0.16671514511 -0.0008909922326 0 -0.16755895317 -0.00042447025771 0 -0.16772685945 0.00060500612017 0 
-0.16653141379 0.00084848835832 0 -0.16829106212 0.00066361151403 0 -0.17024861276 0.0015847507166 0 
-0.16895240545 0.0020602920558 0 -0.16670927405 0.0013719113776 0 -0.1656794697 0.00062508921837 0 
-0.16446837783 3.487936192e-05 0 -0.16318380833 -0.00087555428036 0 -0.16355331242 -0.0018673563609 0 
-0.16524396837 -0.0021532466635 0 -0.16620001197 -0.0016308882041 0 -0.16620630026 -0.00090743019246 0 
-0.16536547244 -0.00045248941751 0 -0.1644102931 -0.00059630547184 0 -0.16455540061 -0.00086678174557 0 
-0.165372774 -0.00052744953427 0 -0.16575203836 -0.00011485558935 0 -0.16631130874 -8.3044469648e-05 0 
-0.16693784297 4.1421495553e-05 0 -0.16722336411 0.00046966661466 0 -0.16709175706 0.0010655603837 0 
-0.16647650301 0.00062324933242 0 -0.16725282371 0.0029723581392 0 -0.16123738885 0.00011928978347 0 
-0.16283383965 1.9943583993e-06 0 -0.16584345698 -0.00097181554884 0 -0.16492512822 -0.00024591217516 0 
-0.16558034718 -0.00096344295889 0 -0.16625407338 -0.00065586937126 0 -0.16639773548 0.00043558230391 0 
-0.16574692726 0.00085135590052 0 -0.16714394093 0.00096273305826 0 -0.16872276366 0.0022199961822 0 
-0.16771036386 0.003002628684 0 -0.16551634669 0.0023029213771 0 -0.16411931813 0.0012282488169 0 
-0.16277451813 0.00016049809346 0 -0.16162148118 -0.0012822990539 0 -0.16207832098 -0.0026741062757 0 
-0.16379027069 -0.0030343139078 0 -0.16489598155 -0.0022759381682 0 -0.16507561505 -0.0012622929644 0 
-0.16445372999 -0.0006940792664 0 -0.16370509565 -0.00080706214067 0 -0.16376635432 -0.00097084714798 0 
-0.16443161666 -0.00053512438899 0 -0.16494300961 -0.00014443213877 0 -0.16558778286 -0.00022935195011 0 
-0.16615319252 -0.00012899708236 0 -0.16635285318 0.00055959780002 0 -0.16621421278 0.001366601442 0 
-0.16560763121 0.0015037977137 0 -0.16569274664 0.0025869058445 0 -0.16128231585 0.0014234047849 0 
-0.15971627831 0.00080200395314 0 -0.16224755347 6.5773740062e-05 0 -0.16177634895 -7.1514848969e-05 0 
-0.16229125857 -0.00076335767517 0 -0.16273117065 -0.00072519597597 0 -0.1628433466 0.00027541868621 0 
-0.16257099807 0.00091482681455 0 -0.16361829638 0.001399549772 0 -0.16479919851 0.0027973263059 0 
-0.16404755414 0.0036485972814 0 -0.16200087965 0.0029923093971 0 -0.16038954258 0.0017814319581 0 
-0.15894339979 0.00032269043732 0 -0.15786606073 -0.0015996829607 0 -0.15830561519 -0.0032804633956 0 
-0.15994246304 -0.0036199977621 0 -0.16114725173 -0.0026347308885 0 -0.16155610979 -0.0014709598618 0 
-0.16120739281 -0.00095400260761 0 -0.16068513691 -0.0010769232176 0 -0.16066600382 -0.0010469127446 0 
-0.16121679544 -0.00044193360372 0 -0.16186788678 -9.4517075922e-05 0 -0.16260950267 -0.0003648592392 0 
-0.16306601465 -0.00037200472434 0 -0.16313785315 0.00047299920698 0 -0.16300962865 0.001405263436 0 
-0.16240037978 0.0018197096651 0 -0.16212558746 0.0019262630958 0 -0.15854127705 0.00074854725972 0 
-0.15694335103 0.0014205144253 0 -0.15997613966 0.0011300933547 0 -0.15957015753 0.00025935895974 0 
-0.15998058021 -0.00038774579298 0 -0.16013015807 -0.00065654027276 0 -0.16017429531 0.00023582138238 0 
-0.16013452411 0.0010471334681 0 -0.16085164249 0.0017685140483 0 -0.16165532172 0.0031545103993 0 
-0.16114231944 0.0038933127653 0 -0.15927477181 0.0032595209777 0 -0.15758855641 0.0021534750704 0 
-0.15611112118 0.00058013008675 0 -0.15505506098 -0.001647383091 0 -0.15536217391 -0.0035092143808 0 
-0.15684992075 -0.0037659266964 0 -0.15812647343 -0.0025774226524 0 -0.15880340338 -0.0014059689129 0 
-0.15873333812 -0.0010999679798 0 -0.15841892362 -0.0013339159777 0 -0.15830211341 -0.0011248966912 0 
-0.15878134966 -0.00029586930759 0 -0.15957798064 2.3479420634e-05 0 -0.16041938961 -0.00047686111066 0 
-0.16073009372 -0.00066218298161 0 -0.16065922379 0.00024487246992 0 -0.16059915721 0.0011679572053 0 
-0.16000281274 0.001719103544 0 -0.1598444134 0.00092278909869 0 -0.15611763299 1.3061720892e-05 0 
-0.15413071215 0.0007646883023 0 -0.15838637948 0.0023074431811 0 -0.15783077478 0.00057594757527 0 
-0.15819628537 0.00016824431077 0 -0.1580490917 -0.00037951537524 0 -0.1580016315 0.00040824059397 0 
-0.15807184577 0.0012436660472 0 -0.15849687159 0.0019556668121 0 -0.15896563232 0.0032025715336 0 
-0.15866200626 0.0037509510294 0 -0.15697354078 0.0031132590957 0 -0.15532749891 0.002300547203 0 
-0.15388968587 0.00094947917387 0 -0.15280622244 -0.0012893971289 0 -0.15288290381 -0.0032001638319 0 
-0.15418675542 -0.0034054135904 0 -0.15553253889 -0.0021331799217 0 -0.15647630394 -0.0011001663515 0 
-0.15662373602 -0.0010975608602 0 -0.15647366643 -0.001508789137 0 -0.15625280142 -0.0012033820385 0 
-0.1567055434 -0.00019839644665 0 -0.15763051808 9.8425698525e-05 0 -0.158559829 -0.00059456180315 0 
-0.15871061385 -0.00096703151939 0 -0.15850968659 -9.1690344561e-05 0 -0.15856207907 0.00064131140243 0 
-0.15796232224 0.0013095650356 0 -0.15818440914 -0.00055944587803 0 -0.15353390574 0.00027564508491 0 
-0.14924187958 -0.003559961915 0 -0.15458604693 0.0039347386919 0 -0.15413221717 0.00084578397218 0 
-0.15454103053 0.0010331562953 0 -0.15411110222 0.00029069467564 0 -0.15394970775 0.00090666912729 0 
-0.15407273173 0.0015502066817 0 -0.15428641438 0.0020019384101 0 -0.15450206399 0.0029901214875 0 
-0.15444138646 0.0034147177357 0 -0.15297423303 0.0028228156734 0 -0.15144591033 0.0023270715028 0 
-0.15013639629 0.001433839323 0 -0.14900708199 -0.000427624851 0 -0.14870722592 -0.0022137446795 0 
-0.14972615242 -0.0025599144865 0 -0.15111035109 -0.0015066436026 0 -0.15227627754 -0.00075936014764 0 
-0.15256302059 -0.0010123013053 0 -0.15249958634 -0.0015404650476 0 -0.15215264261 -0.0012865189929 0 
-0.15259338915 -0.00034645531559 0 -0.15363961458 -9.7759460914e-05 0 -0.15466992557 -0.00080143281957 0 
-0.15466667712 -0.001274144277 0 -0.1543558538 -0.00057978497352 0 -0.15452855825 -0.00026418431662 0 
-0.15391148627 0.00063102744753 0 -0.15429167449 -0.0028214016929 0 -0.14873695374 0.0040019089356 0 
-0.14673222601 -0.017777843401 0 -0.15079322457 0.0070946370251 0 -0.15128792822 0.0012471933151 0 
-0.15201105177 0.0024842529092 0 -0.15128554404 0.0016361197922 0 -0.15102443099 0.0019106479594 0 
-0.15122500062 0.0021784852725 0 -0.15129822493 0.0022455635481 0 -0.15129190683 0.0028657247312 0 
-0.15156948566 0.0034323553555 0 -0.15027806163 0.0030504374299 0 -0.14887733757 0.0025902185589 0 
-0.14784602821 0.0021144184284 0 -0.14679665864 0.00093886925606 0 -0.14592668414 -0.00063211773522 0 
-0.14649419487 -0.0015007667243 0 -0.14788728952 -0.0010970564326 0 -0.1492614001 -0.00068721413845 0 
-0.14966644347 -0.0010084595997 0 -0.14960901439 -0.0014873846667 0 -0.14903904498 -0.0014906681608 0 
-0.14956080914 -0.0010262822034 0 -0.15072382987 -0.00082855287474 0 -0.15188522637 -0.001246065367 0 
-0.15172573924 -0.0016922766808 0 -0.151327461 -0.0014444647823 0 -0.1516392082 -0.0017370474525 0 
-0.1508256644 -0.00033957476262 0 -0.1505471319 -0.0067949821241 0 -0.14625090361 0.017556790262 0 
-0.098767824471 -9.9959142972e-06 0 -0.1203834489 -3.617731636e-05 0 -0.13297019899 -5.4497497331e-05 0 
-0.14051699638 -6.1941849708e-05 0 -0.14552089572 -5.6369543017e-05 0 -0.14951753616 -4.5594842959e-05 0 
-0.15324799716 -3.1504849176e-05 0 -0.15680427849 -2.1998204829e-05 0 -0.15986207128 -1.5719406292e-05 0 
-0.16202713549 -1.5210149286e-05 0 -0.16316738725 -1.3328682144e-05 0 -0.16343681514 -1.1761316273e-05 0 
-0.16304984689 -6.6447205427e-06 0 -0.16215910017 -1.8061596165e-06 0 -0.16097134352 7.9903975347e-06 0 
-0.15983705223 1.9703718863e-05 0 -0.1591039896 3.6137331335e-05 0 -0.1588948369 5.0672791986e-05 0 
-0.15905374289 6.508763181e-05 0 -0.15928468108 7.4861483881e-05 0 -0.15930245817 8.4111699834e-05 0 
-0.15891675651 9.0061039373e-05 0 -0.1580426842 9.7137832199e-05 0 -0.15665927529 0.00010221992125 0 
-0.1546883285 0.00010755669791 0 -0.15183798969 0.000107867716 0 -0.14737161994 0.00010209634638 0 
-0.13984969258 8.3638056822e-05 0 -0.12686151266 5.3905583627e-05 0 -0.10437662154 1.6246080122e-05 0 
-0.098802678287 -1.0265327546e-05 0 -0.12041625381 -3.8413680159e-05 0 -0.13298909366 -5.9016914747e-05 0 
-0.14051774144 -6.671473966e-05 0 -0.14550788701 -5.9675614466e-05 0 -0.14949829876 -4.6877579734e-05 0 
-0.15322993696 -3.0957737181e-05 0 -0.15679234266 -2.0573274014e-05 0 -0.15985698998 -1.4444288354e-05 0 
-0.16202536225 -1.4844546058e-05 0 -0.16316477954 -1.3707529433e-05 0 -0.16343179345 -1.2556869478e-05 0 
-0.16304239631 -7.653818102e-06 0 -0.16214820743 -3.1660035802e-06 0 -0.16095533967 6.5826943683e-06 0 
-0.15981605649 1.8711652956e-05 0 -0.1590808928 3.6055713281e-05 0 -0.15887326002 5.1353166782e-05 0 
-0.15903578699 6.621069042e-05 0 -0.15927059948 7.5945768913e-05 0 -0.15929120779 8.5013140051e-05 0 
-0.15890698135 9.0721514425e-05 0 -0.15803338587 9.7908829048e-05 0 -0.15665096045 0.00010350312368 0 
-0.15468330681 0.00010994749755 0 -0.15184102952 0.00011162397277 0 -0.14738872647 0.00010689076589 0 
-0.13988487422 8.7980872195e-05 0 -0.12691098452 5.591662557e-05 0 -0.10442893952 1.6220750695e-05 0 
-0.098824456334 -1.0191244655e-05 0 -0.12043884397 -3.9072809159e-05 0 -0.13300229609 -6.0440219386e-05 0 
-0.14051778615 -6.8378161814e-05 0 -0.14549815655 -6.0982631112e-05 0 -0.14948441088 -4.7629229812e-05 0 
-0.15321727097 -3.1093273719e-05 0 -0.15678444505 -2.0393190425e-05 0 -0.15985430777 -1.4190981346e-05 0 
-0.16202509403 -1.4836309674e-05 0 -0.16316373646 -1.3888352441e-05 0 -0.16342894733 -1.2920770132e-05 0 
-0.16303798556 -8.0744539446e-06 0 -0.16214153171 -3.7037073071e-06 0 -0.16094502807 6.1073806137e-06 0 
-0.1598021239 1.837601485e-05 0 -0.1590654403 3.6065870518e-05 0 -0.15885902941 5.1613100368e-05 0 
-0.15902423859 6.6700544266e-05 0 -0.1592617929 7.6471202192e-05 0 -0.15928429365 8.5591462266e-05 0 
-0.15890085697 9.1279878689e-05 0 -0.15802721679 9.8610886198e-05 0 -0.15664498508 0.00010440514598 0 
-0.15467905998 0.00011123941658 0 -0.15184192359 0.00011325339437 0 -0.1473993957 0.00010869876132 0 
-0.13990846276 8.9417328127e-05 0 -0.1269440949 5.6512508309e-05 0 -0.10446109623 1.6020198018e-05 0 
-0.09884994477 -1.042972508e-05 0 -0.12046451867 -3.9874084905e-05 0 -0.13301718235 -6.1782026023e-05 0 
-0.14051786065 -6.9852045272e-05 0 -0.1454872489 -6.2143866671e-05 0 -0.14946882427 -4.836210428e-05 0 
-0.15320304036 -3.1332525396e-05 0 -0.15677557886 -2.0387982659e-05 0 -0.15985128284 -1.4096305677e-05 0 
-0.16202478111 -1.4915838619e-05 0 -0.16316260397 -1.408217031e-05 0 -0.16342581809 -1.3256607417e-05 0 
-0.16303311288 -8.4346847871e-06 0 -0.16213411093 -4.1518396756e-06 0 -0.16093355417 5.7364413806e-06 0 
-0.15978659689 1.8118560547e-05 0 -0.15904824436 3.6104716855e-05 0 -0.15884315968 5.1856302889e-05 0 
-0.15901133418 6.7163033236e-05 0 -0.15925194323 7.6987082139e-05 0 -0.15927653015 8.6199463112e-05 0 
-0.15889397264 9.1900161351e-05 0 -0.15802028775 9.9385644717e-05 0 -0.15663823485 0.00010534507601 0 
-0.15467426181 0.00011249839736 0 -0.15184292197 0.00011476322106 0 -0.14741137624 0.00011037134391 0 
-0.13993500173 9.0858287876e-05 0 -0.12698158622 5.7368153648e-05 0 -0.10449851304 1.6276342649e-05 0 
-0.098875053227 -1.0541367374e-05 0 -0.12049017847 -4.04214843e-05 0 -0.13303208351 -6.2703562435e-05 0 
-0.14051784575 -7.0896639954e-05 0 -0.14547619224 -6.2998988142e-05 0 -0.14945310354 -4.8983605666e-05 0 
-0.15318873525 -3.163121437e-05 0 -0.15676671267 -2.0538109311e-05 0 -0.15984834731 -1.414963117e-05 0 
-0.1620246172 -1.5073253962e-05 0 -0.1631616056 -1.4271598957e-05 0 -0.16342282295 -1.3532589946e-05 0 
-0.16302837431 -8.69089763e-06 0 -0.16212682426 -4.4642119974e-06 0 -0.16092218459 5.5097889344e-06 0 
-0.15977114439 1.7965803636e-05 0 -0.15903110802 3.6178978917e-05 0 -0.15882734954 5.2066221542e-05 0 
-0.15899853408 6.7559449235e-05 0 -0.15924218297 7.7436387073e-05 0 -0.15926885605 8.6763997388e-05 0 
-0.158887133 9.2491856776e-05 0 -0.15801331401 0.00010012023995 0 -0.15663136542 0.00010618158558 0 
-0.15466926992 0.00011354797607 0 -0.15184369683 0.00011593450472 0 -0.14742317796 0.00011162829469 0 
-0.13996140659 9.1915149824e-05 0 -0.12701886892 5.7996061514e-05 0 -0.10453525931 1.6415702703e-05 0 
-0.09890063107 -1.0635226317e-05 0 -0.12051630765 -4.0876882849e-05 0 -0.13304725289 -6.3439489168e-05 0 
-0.14051781595 -7.1735521487e-05 0 -0.14546492696 -6.3688523369e-05 0 -0.1494370997 -4.9524685892e-05 0 
-0.15317419171 -3.192906297e-05 0 -0.15675771236 -2.0740739274e-05 0 -0.15984539688 -1.4261700926e-05 0 
-0.16202448308 -1.5266105038e-05 0 -0.16316063702 -1.4457676116e-05 0 -0.16341981292 -1.37744928e-05 0 
-0.16302363575 -8.8858660092e-06 0 -0.16211949289 -4.7012631512e-06 0 -0.16091071069 5.3606008805e-06 0 
-0.15975551307 1.7869580915e-05 0 -0.15901374817 3.6278168409e-05 0 -0.1588113606 5.2266212151e-05 0 
-0.15898557007 6.7926535849e-05 0 -0.1592323035 7.7847660577e-05 0 -0.15926107764 8.7293345132e-05 0 
-0.15888018906 9.3044392997e-05 0 -0.15800622106 0.00010080139327 0 -0.15662436187 0.00010692631622 0 
-0.15466415882 0.00011445593555 0 -0.15184439719 0.00011691151303 0 -0.14743506908 0.00011267710943 0 
-0.13998816907 9.2801812571e-05 0 -0.12705671787 5.8551322581e-05 0 -0.10457260907 1.6554748072e-05 0 
-0.098926402628 -1.0688872862e-05 0 -0.12054272741 -4.12489062e-05 0 -0.13306258619 -6.403743464e-05 0 
-0.14051777124 -7.2428585554e-05 0 -0.14545355737 -6.4255546022e-05 0 -0.14942094684 -4.9996004236e-05 0 
-0.15315951407 -3.2205851312e-05 0 -0.15674863756 -2.095842683e-05 0 -0.15984243155 -1.4396288861e-05 0 
-0.16202437878 -1.5472607629e-05 0 -0.16315968335 -1.4635082152e-05 0 -0.16341681778 -1.3989189938e-05 0 
-0.16301886737 -9.0353987616e-06 0 -0.16211214662 -4.8857859838e-06 0 -0.16089917719 5.2643190429e-06 0 
-0.15973977745 1.7811342332e-05 0 -0.15899626911 3.6395402276e-05 0 -0.15879525244 5.245972352e-05 0 
-0.15897251666 6.8271816417e-05 0 -0.15922236443 7.8225319157e-05 0 -0.15925323963 8.7785010692e-05 0 
-0.15887318552 9.354926442e-05 0 -0.1579990387 0.00010142091196 0 -0.15661726892 0.00010758097778 0 
-0.15465892851 0.00011524288857 0 -0.15184503794 0.00011773592996 0 -0.14744700491 0.0001135683342 0 
-0.14001514018 9.3551032478e-05 0 -0.12709489465 5.9026806412e-05 0 -0.10461021215 1.6655782019e-05 0 
-0.098952367902 -1.0719090824e-05 0 -0.12056940794 -4.1569226596e-05 0 -0.13307806849 -6.4547493821e-05 0 
-0.14051771164 -7.3027120379e-05 0 -0.14544206858 -6.4737017965e-05 0 -0.14940467477 -5.0411144912e-05 0 
-0.15314471722 -3.2453273889e-05 0 -0.15673948824 -2.117006261e-05 0 -0.15983948112 -1.453130244e-05 0 
-0.16202430427 -1.5678648197e-05 0 -0.16315872967 -1.4800235476e-05 0 -0.16341379285 -1.4182197447e-05 0 
-0.163014099 -9.1520032584e-06 0 -0.16210475564 -5.0351895879e-06 0 -0.16088758409 5.2026912272e-06 0 
-0.15972393751 1.7776970708e-05 0 -0.15897867084 3.6524452298e-05 0 -0.15877903998 5.2647861594e-05 0 
-0.15895938873 6.8600267696e-05 0 -0.15921235085 7.8573983046e-05 0 -0.15924534202 8.8241089543e-05 0 
-0.15886610746 9.4006834843e-05 0 -0.15799179673 0.00010198166274 0 -0.15661008656 0.00010815697169 0 
-0.1546536386 0.00011593406089 0 -0.15184561908 0.00011844795517 0 -0.14745897055 0.00011435028864 0 
-0.14004230499 9.4206712674e-05 0 -0.12713338435 5.9449739638e-05 0 -0.1046480909 1.6733994926e-05 0 
-0.098978482187 -1.0730679605e-05 0 -0.12059631944 -4.1853199946e-05 0 -0.13309367001 -6.4997046138e-05 0 
-0.14051763713 -7.356050628e-05 0 -0.14543050528 -6.5155836637e-05 0 -0.14938828349 -5.078092363e-05 0 
-0.15312983096 -3.2670075598e-05 0 -0.15673030913 -2.1366564397e-05 0 -0.15983651578 -1.4655835912e-05 0 
-0.16202424467 -1.587666884e-05 0 -0.1631577611 -1.4951074263e-05 0 -0.16341073811 -1.4356978681e-05 0 
-0.16300930083 -9.2435502665e-06 0 -0.16209734976 -5.1603024076e-06 0 -0.16087593138 5.1645351959e-06 0 
-0.15970800817 1.7757525711e-05 0 -0.15896096826 3.6660625483e-05 0 -0.15876272321 5.2830055211e-05 0 
-0.1589461714 6.8914072472e-05 0 -0.15920227766 7.8896540799e-05 0 -0.1592373997 8.8664397481e-05 0 
-0.15885899961 9.442033479e-05 0 -0.15798449516 0.00010248959006 0 -0.1566028595 0.00010866579396 0 
-0.15464827418 0.00011654869013 0 -0.15184617043 0.00011907409498 0 -0.14747096598 0.00011505209113 0 
-0.14006963372 9.4793562312e-05 0 -0.12717215717 5.98328661e-05 0 -0.10468620062 1.6792446331e-05 0 
-0.099004738033 -1.072878149e-05 0 -0.12062345445 -4.2112456867e-05 0 -0.13310939074 -6.5404798079e-05 0 
-0.14051754773 -7.4048461101e-05 0 -0.14541885257 -6.5528060077e-05 0 -0.14937180281 -5.1114351663e-05 0 
-0.15311485529 -3.2857999031e-05 0 -0.15672107041 -2.1544683477e-05 0 -0.15983356535 -1.4764900698e-05 0 
-0.16202418506 -1.6063097064e-05 0 -0.16315679252 -1.5086954591e-05 0 -0.16340765357 -1.4516229385e-05 0 
-0.16300447285 -9.3154676506e-06 0 -0.16208991408 -5.2684204093e-06 0 -0.16086423397 5.1424353842e-06 0 
-0.15969198942 1.7746979211e-05 0 -0.15894316137 3.6800523958e-05 0 -0.15874633193 5.3005533118e-05 0 
-0.15893289447 6.9214598625e-05 0 -0.15919215977 7.9195546277e-05 0 -0.15922941267 8.9058376034e-05 0 
-0.15885184705 9.4794377219e-05 0 -0.15797714889 0.00010295182437 0 -0.15659557283 0.00010911840945 0 
-0.15464286506 0.00011710247782 0 -0.15184666216 0.00011963411089 0 -0.14748296142 0.00011569463823 0 
-0.14009711146 9.5329800388e-05 0 -0.12721119821 6.0187117924e-05 0 -0.1047245115 1.6835925635e-05 0 
-0.099031113088 -1.0716428733e-05 0 -0.12065078318 -4.2354477046e-05 0 -0.13312521577 -6.5782893216e-05 0 
-0.14051744342 -7.4504037912e-05 0 -0.14540714025 -6.5864849603e-05 0 -0.14935521781 -5.141870497e-05 0 
-0.15309982002 -3.3020020055e-05 0 -0.15671180189 -2.1704270694e-05 0 -0.15983061492 -1.4856911548e-05 0 
-0.16202414036 -1.6236828742e-05 0 -0.16315579414 -1.5208226614e-05 0 -0.16340452433 -1.4662220565e-05 0 
-0.16299961507 -9.3716416814e-06 0 -0.1620824486 -5.3644448599e-06 0 -0.16085249186 5.1315364544e-06 0 
-0.15967589617 1.7741249394e-05 0 -0.15892526507 3.6941815779e-05 0 -0.15872985125 5.3173705965e-05 0 
-0.15891955793 6.9502988481e-05 0 -0.15918199718 7.9473327787e-05 0 -0.15922139585 8.9426612249e-05 0 
-0.15884464979 9.5133880677e-05 0 -0.15796977282 0.00010337535059 0 -0.15658825636 0.00010952437879 0 
-0.15463739634 0.00011760788038 0 -0.1518471241 0.00012014256936 0 -0.14749498665 0.00011629268556 0 
-0.14012472332 9.5828101621e-05 0 -0.12725047767 6.0520011175e-05 0 -0.10476300865 1.6867423255e-05 0 
-0.099057592452 -1.0695743185e-05 0 -0.12067830563 -4.2584400944e-05 0 -0.13314116001 -6.6139546107e-05 0 
-0.14051732421 -7.4936215242e-05 0 -0.14539533854 -6.6174245148e-05 0 -0.14933855832 -5.1699826145e-05 0 
-0.15308469534 -3.3159401937e-05 0 -0.15670248866 -2.1846652089e-05 0 -0.15982766449 -1.4932095837e-05 0 
-0.16202411056 -1.6398178559e-05 0 -0.16315478086 -1.5315845303e-05 0 -0.16340138018 -1.4796978576e-05 0 
-0.16299474239 -9.4149800134e-06 0 -0.16207496822 -5.4517727222e-06 0 -0.16084070504 5.128599696e-06 0 
-0.15965972841 1.773756594e-05 0 -0.15890729427 3.7082987546e-05 0 -0.15871331096 5.3334304539e-05 0 
-0.15890616179 6.9780347985e-05 0 -0.15917178988 7.9732126324e-05 0 -0.15921334922 8.9772576757e-05 0 
-0.15883743763 9.5443552709e-05 0 -0.15796236694 0.0001037665279 0 -0.15658089519 0.00010989180737 0 
-0.15463188291 0.00011807476403 0 -0.15184752643 0.00012061044981 0 -0.14750699699 0.00011685705249 0 
-0.14015245438 9.629764827e-05 0 -0.12728998065 6.0837115598e-05 0 -0.10480168462 1.6889225662e-05 0 
-0.099084176123 -1.066812365e-05 0 -0.12070602179 -4.2805764679e-05 0 -0.13315719366 -6.6480410169e-05 0 
-0.1405171752 -7.5351308624e-05 0 -0.14538346231 -6.646210386e-05 0 -0.14932180941 -5.1962426369e-05 0 
-0.15306952596 -3.3279291529e-05 0 -0.15669316053 -2.1973786716e-05 0 -0.15982472897 -1.4991585886e-05 0 
-0.16202411056 -1.6548212443e-05 0 -0.16315376759 -1.5411080312e-05 0 -0.16339819133 -1.4922333321e-05 0 
-0.16298985481 -9.4476899903e-06 0 -0.16206747293 -5.5328791859e-06 0 -0.16082887352 5.1313886615e-06 0 
-0.15964348614 1.7734104404e-05 0 -0.15888923407 3.7223137042e-05 0 -0.15869671106 5.3487339756e-05 0 
-0.15889273584 7.0047841291e-05 0 -0.15916155279 7.9974037362e-05 0 -0.15920527279 9.0099507361e-05 0 
-0.15883021057 9.572764975e-05 0 -0.15795493126 0.00010413092241 0 -0.15657348931 0.00011022741091 0 
-0.15462632477 0.00011851097952 0 -0.15184788406 0.00012104607595 0 -0.14751902223 0.00011739574984 0 
-0.14018031955 9.6745148767e-05 0 -0.12732970715 6.1142505729e-05 0 -0.10484051704 1.6902959032e-05 0 
-0.099110849202 -1.0634518731e-05 0 -0.12073391676 -4.3021052988e-05 0 -0.13317331672 -6.6809443524e-05 0 
-0.14051698148 -7.5753850979e-05 0 -0.14537151158 -6.6732805863e-05 0 -0.149304986 -5.2210281865e-05 0 
-0.15305426717 -3.3382526453e-05 0 -0.1566837877 -2.2087804609e-05 0 -0.15982180834 -1.5036896002e-05 0 
-0.16202411056 -1.6688340111e-05 0 -0.16315273941 -1.5495314074e-05 0 -0.16339498758 -1.5039932805e-05 0 
-0.16298493743 -9.4715051091e-06 0 -0.16205994785 -5.6096068874e-06 0 -0.16081699729 5.1383540267e-06 0 
-0.15962716937 1.7729660613e-05 0 -0.15887109935 3.7361802242e-05 0 -0.15868003666 5.3633044445e-05 0 
-0.15887925029 7.0306625275e-05 0 -0.15915128589 8.0201018136e-05 0 -0.15919718146 9.0410350822e-05 0 
-0.1588229686 9.598993347e-05 0 -0.15794746578 0.00010447327077 0 -0.15656605363 0.00011053669732 0 
-0.15462070704 0.00011892274779 0 -0.15184818208 0.0001214558506 0 -0.14753103256 0.00011791483848 0 
-0.14020828903 9.7175608971e-05 0 -0.12736965716 6.1439241108e-05 0 -0.10487950593 1.6909802071e-05 0 
-0.099137611687 -1.059556871e-05 0 -0.12076199055 -4.3232055759e-05 0 -0.13318952918 -6.7129483796e-05 0 
-0.14051677287 -7.6147189247e-05 0 -0.14535948634 -6.6989654442e-05 0 -0.14928807318 -5.2446459449e-05 0 
-0.15303894877 -3.3471576899e-05 0 -0.15667439997 -2.2190772142e-05 0 -0.15981890261 -1.5069628716e-05 0 
-0.16202414036 -1.6820074961e-05 0 -0.16315169632 -1.5569914467e-05 0 -0.16339173913 -1.5151250409e-05 0 
-0.16297999024 -9.4878159871e-06 0 -0.16205240786 -5.6833559938e-06 0 -0.16080510616 5.1484171308e-06 0 
-0.1596108079 1.7723452402e-05 0 -0.15885289013 3.7498823076e-05 0 -0.15866330266 5.3771796956e-05 0 
-0.15886573493 7.0557871368e-05 0 -0.15914100409 8.041485853e-05 0 -0.15918906033 9.0707697382e-05 0 
-0.15881571174 9.6233619843e-05 0 -0.15793998539 0.00010479757475 0 -0.15655858815 0.00011082416313 0 
-0.15461502969 0.00011931501649 0 -0.1518484354 0.00012184472143 0 -0.147543028 0.00011841896048 0 
-0.14023636281 9.7592783277e-05 0 -0.12740981579 6.1729624576e-05 0 -0.10491864383 1.6910618797e-05 0 
-0.099164456129 -1.055170469e-05 0 -0.1207902506 -4.3440093577e-05 0 -0.13320584595 -6.7442611908e-05 0 
-0.14051653445 -7.6533855463e-05 0 -0.1453473717 -6.7235181632e-05 0 -0.14927107096 -5.2673429309e-05 0 
-0.15302357078 -3.3548541978e-05 0 -0.15666498244 -2.2284581064e-05 0 -0.15981602669 -1.5091323803e-05 0 
-0.16202419996 -1.6944890376e-05 0 -0.16315065324 -1.5636160242e-05 0 -0.16338846087 -1.5257588529e-05 0 
-0.16297504306 -9.4977467597e-06 0 -0.16204486787 -5.755210168e-06 0 -0.16079317033 5.1608276408e-06 0 
-0.15959437191 1.7714981368e-05 0 -0.15883460641 3.7634228647e-05 0 -0.15864652395 5.3904052038e-05 0 
-0.15885218978 7.0802685514e-05 0 -0.15913069248 8.0617159256e-05 0 -0.1591809392 9.0993838967e-05 0 
-0.15880843997 9.6461459179e-05 0 -0.15793247521 0.0001051071813 0 -0.15655107796 0.0001110934536 0 
-0.15460932255 0.00011969176558 0 -0.15184862912 0.00012221655925 0 -0.14755500853 0.00011891170288 0 
-0.14026455581 9.7999545687e-05 0 -0.12745018303 6.2015431467e-05 0 -0.10495792329 1.6906031306e-05 0 
-0.099191375077 -1.0503217709e-05 0 -0.12081868201 -4.3646159611e-05 0 -0.13322223723 -6.7750355811e-05 0 
-0.14051625133 -7.6915770478e-05 0 -0.14533518255 -6.747135194e-05 0 -0.14925397933 -5.2893214161e-05 0 
-0.15300811827 -3.3615186112e-05 0 -0.1566555202 -2.2370917577e-05 0 -0.15981315076 -1.5103380974e-05 0 
-0.16202427447 -1.7064148778e-05 0 -0.16314959526 -1.5695201e-05 0 -0.16338516772 -1.5360081306e-05 0 
-0.16297006607 -9.5022096502e-06 0 -0.16203731298 -5.8260197875e-06 0 -0.1607812047 5.1750653256e-06 0 
-0.15957787633 1.7703934645e-05 0 -0.15881626308 3.7768179027e-05 0 -0.15862968564 5.4030293541e-05 0 
-0.15883859992 7.1042108175e-05 0 -0.15912036598 8.0809339124e-05 0 -0.15917280316 9.1270761914e-05 0 
-0.1588011533 9.6675772511e-05 0 -0.15792495012 0.00010540488438 0 -0.15654353797 0.00011134751549 0 
-0.1546035409 0.00012005616736 0 -0.15184876323 0.00012257437629 0 -0.14756695926 0.00011939585966 0 
-0.14029283822 9.8398086266e-05 0 -0.1274907589 6.2298036937e-05 0 -0.10499734432 1.6896496163e-05 0 
-0.099218383431 -1.0450293303e-05 0 -0.1208472997 -4.3851014198e-05 0 -0.13323873281 -6.8053879659e-05 0 
-0.1405159384 -7.7294440416e-05 0 -0.14532291889 -6.7699686042e-05 0 -0.14923681319 -5.3107465646e-05 0 
-0.15299260616 -3.3672986319e-05 0 -0.15664604306 -2.2451240511e-05 0 -0.15981028974 -1.5107030777e-05 0 
-0.16202436388 -1.7179081624e-05 0 -0.16314852238 -1.5748044461e-05 0 -0.16338182986 -1.5459714632e-05 0 
-0.16296507418 -9.5019468063e-06 0 -0.16202974319 -5.8964592426e-06 0 -0.16076920927 5.1907732086e-06 0 
-0.15956132114 1.7690126697e-05 0 -0.15879784524 3.7900903408e-05 0 -0.15861278772 5.4150998039e-05 0 
-0.15882498026 7.1277099778e-05 0 -0.15911002457 8.0992620497e-05 0 -0.15916465223 9.1540176072e-05 0 
-0.15879385173 9.6878473414e-05 0 -0.15791739523 0.0001056929832 0 -0.15653596818 0.00011158875714 0 
-0.15459771454 0.00012041079754 0 -0.15184883773 0.00012292056635 0 -0.14757890999 0.00011987365724 0 
-0.14032122493 9.8790114862e-05 0 -0.12753152847 6.2578525103e-05 0 -0.105036892 1.688233715e-05 0 
-0.099245458841 -1.039304334e-05 0 -0.12087608874 -4.405526488e-05 0 -0.13325530291 -6.8354071118e-05 0 
-0.14051558077 -7.7671051258e-05 0 -0.14531056583 -6.7921384471e-05 0 -0.14921955764 -5.3317537095e-05 0 
-0.15297701955 -3.3723143133e-05 0 -0.15663653612 -2.2526810426e-05 0 -0.15980745852 -1.5103327314e-05 0 
-0.16202448308 -1.7290763935e-05 0 -0.16314744949 -1.5795554646e-05 0 -0.1633784771 -1.5557328879e-05 0 
-0.16296008229 -9.4975530374e-06 0 -0.1620221734 -5.9670701376e-06 0 -0.16075718403 5.2077148212e-06 0 
-0.15954470634 1.7673452021e-05 0 -0.1587793678 3.8032674638e-05 0 -0.15859586 5.4266627558e-05 0 
-0.1588113308 7.1508526162e-05 0 -0.15909966826 8.1168080214e-05 0 -0.15915650129 9.180354391e-05 0 
-0.15878655016 9.7071191703e-05 0 -0.15790984035 0.00010597341316 0 -0.15652836859 0.00011181911395 0 
-0.15459184349 0.00012075773702 0 -0.15184883773 0.00012325699208 0 -0.14759081602 0.00012034685642 0 
-0.14034971595 9.9176962976e-05 0 -0.12757250667 6.285776908e-05 0 -0.10507657379 1.6863776182e-05 0 
-0.099272608757 -1.0331525118e-05 0 -0.12090506405 -4.4259384595e-05 0 -0.1332719624 -6.8651614129e-05 0 
-0.14051517844 -7.8046563431e-05 0 -0.14529813826 -6.8137407652e-05 0 -0.14920221269 -5.3524545365e-05 0 
-0.15296137333 -3.3766660636e-05 0 -0.15662701428 -2.2598696887e-05 0 -0.1598046273 -1.5093162801e-05 0 
-0.1620246321 -1.740013613e-05 0 -0.16314637661 -1.5838464606e-05 0 -0.16337509453 -1.5653648006e-05 0 
-0.1629550606 -9.4895049187e-06 0 -0.16201458871 -6.0382890297e-06 0 -0.16074512899 5.2257382777e-06 0 
-0.15952803195 1.7653856048e-05 0 -0.15876081586 3.8163772842e-05 0 -0.15857885778 5.4377593187e-05 0 
-0.15879763663 7.1737158578e-05 0 -0.15908928216 8.1336620497e-05 0 -0.15914833546 9.2062116892e-05 0 
-0.1587792486 9.7255251603e-05 0 -0.15790225565 0.00010624777497 0 -0.1565207392 0.00011204015027 0 
-0.15458591282 0.00012109866657 0 -0.15184879303 0.00012358515232 0 -0.14760270715 0.00012081688328 0 
-0.14037829638 9.9559663795e-05 0 -0.12761369348 6.3136467361e-05 0 -0.10511638969 1.6840969693e-05 0 
-0.099299825728 -1.026575319e-05 0 -0.12093421072 -4.4463769882e-05 0 -0.13328871131 -6.8947025284e-05 0 
-0.14051474631 -7.8421740909e-05 0 -0.14528560638 -6.8348475907e-05 0 -0.14918479323 -5.3729414503e-05 0 
-0.1529456526 -3.3804335544e-05 0 -0.15661744773 -2.2667807571e-05 0 -0.15980184078 -1.5077274838e-05 0 
-0.16202479601 -1.7508002202e-05 0 -0.16314528883 -1.5877378246e-05 0 -0.16337168217 -1.5749279555e-05 0 
-0.16295003891 -9.4781789812e-06 0 -0.16200700402 -6.1104724409e-06 0 -0.16073305905 5.2447553571e-06 0 
-0.15951131284 1.7631315131e-05 0 -0.15874220431 3.8294478145e-05 0 -0.15856182575 5.448426964e-05 0 
-0.15878392756 7.1963688242e-05 0 -0.15907889605 8.1499019871e-05 0 -0.15914016962 9.2316971859e-05 0 
-0.15877193213 9.7431759059e-05 0 -0.15789464116 0.00010651740013 0 -0.1565130651 0.00011225313938 0 
-0.15457992256 0.00012143497588 0 -0.15184867382 0.00012390622578 0 -0.14761456847 0.0001212848656 0 
-0.14040696621 9.9939039501e-05 0 -0.127655074 6.3415187469e-05 0 -0.10515633225 1.6814004994e-05 0 
-0.099327109754 -1.0195707546e-05 0 -0.12096354365 -4.4668744522e-05 0 -0.13330553472 -6.9240712037e-05 0 
-0.14051426947 -7.8797231254e-05 0 -0.145273 -6.8555193138e-05 0 -0.14916726947 -5.39329194e-05 0 
-0.15292987227 -3.3836829971e-05 0 -0.15660785139 -2.2734915547e-05 0 -0.15979905427 -1.5056271877e-05 0 
-0.16202500463 -1.7615051547e-05 0 -0.16314420104 -1.5912795789e-05 0 -0.1633682549 -1.5844745576e-05 0 
-0.16294500232 -9.4638671726e-06 0 -0.16199941933 -6.1839132286e-06 0 -0.16072095931 5.2647224038e-06 0 
-0.15949453413 1.7605821995e-05 0 -0.15872351825 3.8425067032e-05 0 -0.15854474902 5.458697342e-05 0 
-0.15877018869 7.2188733611e-05 0 -0.15906849504 8.1655918621e-05 0 -0.15913198888 9.2569018307e-05 0 
-0.15876460075 9.7601609014e-05 0 -0.15788702667 0.00010678339459 0 -0.1565053761 0.00011245909991 0 
-0.15457388759 0.00012176780001 0 -0.15184849501 0.00012422114378 0 -0.14762639999 0.00012175175652 0 
-0.14043574035 0.00010031573038 0 -0.12769666314 6.3694402343e-05 0 -0.10519639403 1.6782925741e-05 0 
-0.099354468286 -1.0121342711e-05 0 -0.12099306285 -4.4874585001e-05 0 -0.13332244754 -6.953299453e-05 0 
-0.14051373303 -7.9173551057e-05 0 -0.14526031911 -6.8757995905e-05 0 -0.1491496712 -5.4135696701e-05 0 
-0.15291401744 -3.3864656871e-05 0 -0.15659824014 -2.2800668376e-05 0 -0.15979629755 -1.5030643226e-05 0 
-0.16202522814 -1.7721875338e-05 0 -0.16314309835 -1.5945117411e-05 0 -0.16336479783 -1.5940486264e-05 0 
-0.16293995082 -9.4467941381e-06 0 -0.16199183464 -6.2588542278e-06 0 -0.16070884466 5.285631687e-06 0 
-0.15947769582 1.757737482e-05 0 -0.15870478749 3.8555801439e-05 0 -0.15852761269 5.4685988289e-05 0 
-0.15875643492 7.2412811278e-05 0 -0.15905807912 8.1807855167e-05 0 -0.15912379324 9.2819042038e-05 0 
-0.15875726938 9.7765536339e-05 0 -0.15787938237 0.00010704669694 0 -0.1564976424 0.00011265884677 0 
-0.15456779301 0.00012209807755 0 -0.15184824169 0.00012453063391 0 -0.14763818681 0.00012221832003 0 
-0.1404646039 0.00010069022392 0 -0.1277384609 6.3974504883e-05 0 -0.10523658246 1.674773921e-05 0 
-0.099381886423 -1.0042587746e-05 0 -0.12102276087 -4.5081527787e-05 0 -0.13333944976 -6.9824105594e-05 0 
-0.14051316679 -7.9551144154e-05 0 -0.14524753392 -6.8957248004e-05 0 -0.14913196862 -5.4338292102e-05 0 
-0.152898103 -3.3888234611e-05 0 -0.15658859909 -2.2865617211e-05 0 -0.15979355574 -1.5000782696e-05 0 
-0.16202548146 -1.7828977434e-05 0 -0.16314199567 -1.5974670532e-05 0 -0.16336131096 -1.6036874513e-05 0 
-0.16293489933 -9.4271244961e-06 0 -0.16198423505 -6.3355018938e-06 0 -0.16069670022 5.3074991229e-06 0 
-0.15946079791 1.7545979063e-05 0 -0.15868596733 3.8686917833e-05 0 -0.15851043165 5.4781539802e-05 0 
-0.15874263644 7.2636401455e-05 0 -0.15904764831 8.1955266069e-05 0 -0.15911559761 9.3067705166e-05 0 
-0.15874993801 9.7924152215e-05 0 -0.15787172318 0.00010730809299 0 -0.15648987889 0.00011285303481 0 
-0.15456163883 0.00012242660159 0 -0.15184791386 0.00012483527826 0 -0.14764995873 0.00012268518913 0 
-0.14049355686 0.00010106292757 0 -0.12778045237 6.4255829784e-05 0 -0.1052768901 1.6708421754e-05 0 
-0.099409371614 -9.9593571576e-06 0 -0.12105264515 -4.5289780246e-05 0 -0.1333565414 -7.0114227128e-05 0 
-0.14051254094 -7.9930374341e-05 0 -0.14523467422 -6.9153211371e-05 0 -0.14911419153 -5.4541163991e-05 0 
-0.15288211405 -3.3907883335e-05 0 -0.15657892823 -2.2930233172e-05 0 -0.15979084373 -1.4966996787e-05 0 
-0.16202577949 -1.7936785298e-05 0 -0.16314089298 -1.6001702534e-05 0 -0.16335780919 -1.6134230464e-05 0 
-0.16292983294 -9.4049773907e-06 0 -0.16197665036 -6.414031759e-06 0 -0.16068452597 5.3303597269e-06 0 
-0.15944385529 1.7511627448e-05 0 -0.15866710246 3.8818649045e-05 0 -0.1584932059 5.4873820773e-05 0 
-0.15872882307 7.2859911597e-05 0 -0.1590372026 8.2098515122e-05 0 -0.15910740197 9.3315575214e-05 0 
-0.15874259174 9.8077929579e-05 0 -0.15786403418 0.00010756823031 0 -0.15648207068 0.00011304220243 0 
-0.15455543995 0.00012275400513 0 -0.15184752643 0.00012513552792 0 -0.14766168594 0.00012315290223 0 
-0.14052261412 0.00010143413965 0 -0.12782265246 6.453867536e-05 0 -0.10531731695 1.6664918803e-05 0 
-0.09943690896 -9.8715445347e-06 0 -0.12108271569 -4.5499520638e-05 0 -0.13337372243 -7.0403490099e-05 0 
-0.14051188529 -8.0311576312e-05 0 -0.14522172511 -6.9346075179e-05 0 -0.14909632504 -5.4744701629e-05 0 
-0.1528660655 -3.3923850424e-05 0 -0.15656922758 -2.2994914616e-05 0 -0.15978814662 -1.4929523786e-05 0 
-0.16202609241 -1.8045671823e-05 0 -0.1631397754 -1.6026413505e-05 0 -0.16335427761 -1.6232826965e-05 0 
-0.16292476654 -9.3804319476e-06 0 -0.16196905077 -6.4945966187e-06 0 -0.16067233682 5.354260793e-06 0 
-0.15942685306 1.7474316337e-05 0 -0.15864817798 3.8951195165e-05 0 -0.15847593546 5.4962980357e-05 0 
-0.15871497989 7.3083705502e-05 0 -0.15902674198 8.2237893366e-05 0 -0.15909920633 9.3563146947e-05 0 
-0.15873524547 9.8227254057e-05 0 -0.15785634518 0.00010782768368 0 -0.15647424757 0.00011322674982 0 
-0.15454916656 0.00012308084115 0 -0.1518470645 0.00012543173216 0 -0.14767336845 0.00012362191046 0 
-0.14055176079 0.00010180408572 0 -0.12786507607 6.4823288994e-05 0 -0.10535787046 1.6617159417e-05 0 
-0.099464513361 -9.7790334621e-06 0 -0.1211129725 -4.5710919949e-05 0 -0.13339097798 -7.069199637e-05 0 
-0.14051117003 -8.0695019278e-05 0 -0.14520868659 -6.9535984949e-05 0 -0.14907835424 -5.4949243349e-05 0 
-0.15284992754 -3.3936321415e-05 0 -0.15655949712 -2.3060005333e-05 0 -0.15978547931 -1.4888539226e-05 0 
-0.16202643514 -1.815595715e-05 0 -0.16313867271 -1.6048945326e-05 0 -0.16335071623 -1.6332905943e-05 0 
-0.16291967034 -9.3535345513e-06 0 -0.16196146607 -6.5773333517e-06 0 -0.16066013277 5.3792605286e-06 0 
-0.15940979123 1.7434027541e-05 0 -0.158629179 3.9084756281e-05 0 -0.15845862031 5.5049134971e-05 0 
-0.15870110691 7.3308096034e-05 0 -0.15901628137 8.237361908e-05 0 -0.15909099579 9.3810842372e-05 0 
-0.15872789919 9.8372423963e-05 0 -0.15784862638 0.00010808691877 0 -0.15646637976 0.00011340698984 0 
-0.15454284847 0.00012340758985 0 -0.15184654295 0.00012572415289 0 -0.14768502116 0.00012409259216 0 
-0.14058099687 0.00010217294766 0 -0.12790769339 6.5109896241e-05 0 -0.10539853573 1.6565049009e-05 0 
-0.099492177367 -9.6816911537e-06 0 -0.12114342302 -4.5924127335e-05 0 -0.13340832293 -7.0979789598e-05 0 
-0.14051039517 -8.1080950622e-05 0 -0.14519555867 -6.9723027991e-05 0 -0.14906030893 -5.5155083828e-05 0 
-0.15283374488 -3.3945430914e-05 0 -0.15654975176 -2.3125807274e-05 0 -0.1597828418 -1.4844171346e-05 0 
-0.16202680767 -1.8267921405e-05 0 -0.16313755512 -1.60694035e-05 0 -0.16334712505 -1.6434674762e-05 0 
-0.16291458905 -9.3243079391e-06 0 -0.16195386648 -6.6623665589e-06 0 -0.16064789891 5.4054216889e-06 0 
-0.1593926847 1.7390739231e-05 0 -0.15861012042 3.9219503378e-05 0 -0.15844126046 5.5132371926e-05 0 
-0.15868721902 7.3533366958e-05 0 -0.15900580585 8.2505866885e-05 0 -0.15908277035 9.4059025287e-05 0 
-0.15872053802 9.8513664852e-05 0 -0.15784089267 0.00010834634304 0 -0.15645848215 0.00011358317715 0 
-0.15453647077 0.0001237346296 0 -0.15184594691 0.00012601296476 0 -0.14769662917 0.00012456528202 0 
-0.14061032236 0.00010254083463 0 -0.12795051932 6.539869355e-05 0 -0.10543931276 1.6508480257e-05 0 
-0.099519900978 -9.5793748187e-06 0 -0.12117407471 -4.6139284677e-05 0 -0.13342575729 -7.1266906161e-05 0 
-0.14050957561 -8.146957407e-05 0 -0.14518232644 -6.9907255238e-05 0 -0.14904215932 -5.5362481362e-05 0 
-0.15281747282 -3.395126987e-05 0 -0.1565399766 -2.3192580556e-05 0 -0.1597802192 -1.4796505639e-05 0 
-0.1620272249 -1.8381815607e-05 0 -0.16313642263 -1.6087864424e-05 0 -0.16334351897 -1.6538320779e-05 0 
-0.16290949285 -9.2927521109e-06 0 -0.16194628179 -6.7498126555e-06 0 -0.16063565016 5.4328143051e-06 0 
-0.15937551856 1.7344415028e-05 0 -0.15859098732 3.9355603803e-05 0 -0.1584238559 5.5212745792e-05 0 
-0.15867330134 7.3759765655e-05 0 -0.15899531543 8.2634775026e-05 0 -0.15907454491 9.4308008556e-05 0 
-0.15871317685 9.8651158623e-05 0 -0.15783314407 0.00010860632028 0 -0.15645053983 0.00011375547183 0 
-0.15453003347 0.00012406230962 0 -0.15184526145 0.00012629829871 0 -0.14770820737 0.00012504027109 0 
-0.14063973725 0.00010290783393 0 -0.12799356878 6.5689870098e-05 0 -0.10548021644 1.6447331291e-05 0 
-0.099547676742 -9.4719307526e-06 0 -0.12120491266 -4.635653022e-05 0 -0.13344328105 -7.1553367889e-05 0 
-0.14050869644 -8.1861093349e-05 0 -0.1451690197 -7.0088681241e-05 0 -0.1490239352 -5.5571668781e-05 0 
-0.15280114114 -3.3953881939e-05 0 -0.15653015673 -2.3260558009e-05 0 -0.1597776264 -1.4745592125e-05 0 
-0.16202767193 -1.8497859855e-05 0 -0.16313529015 -1.6104368115e-05 0 -0.16333988309 -1.6644013158e-05 0 
-0.16290438175 -9.2588497864e-06 0 -0.1619386971 -6.8397825999e-06 0 -0.1606233865 5.4615088629e-06 0 
-0.15935830772 1.7295013095e-05 0 -0.15857180953 3.9493206714e-05 0 -0.15840640664 5.5290289311e-05 0 
-0.15865935385 7.3987517681e-05 0 -0.15898482502 8.2760416262e-05 0 -0.15906631947 9.4558083219e-05 0 
-0.15870580077 9.8785021692e-05 0 -0.15782536566 0.00010886714881 0 -0.15644258261 0.00011392401939 0 
-0.15452353656 0.00012439092097 0 -0.1518445164 0.00012658025662 0 -0.14771974087 0.00012551779218 0 
-0.14066925645 0.00010327400378 0 -0.12803682685 6.5983600507e-05 0 -0.10552122444 1.6381460227e-05 0 
-0.099575504661 -9.3591925179e-06 0 -0.12123595178 -4.6575994929e-05 0 -0.13346089423 -7.1839145676e-05 0 
-0.14050777256 -8.2255690359e-05 0 -0.14515562356 -7.0267306e-05 0 -0.14900560677 -5.5782857089e-05 0 
-0.15278473496 -3.3953299862e-05 0 -0.15652032197 -2.3329952455e-05 0 -0.15977504849 -1.4691454453e-05 0 
-0.16202813387 -1.8616257876e-05 0 -0.16313415766 -1.611893822e-05 0 -0.1633362174 -1.6751906514e-05 0 
-0.16289927065 -9.2225727713e-06 0 -0.16193111241 -6.9323846219e-06 0 -0.16061109304 5.4915785768e-06 0 
-0.15934102237 1.7242480681e-05 0 -0.15855255723 3.9632453991e-05 0 -0.15838891268 5.5365009757e-05 0 
-0.15864539146 7.4216812209e-05 0 -0.1589743197 8.2882848801e-05 0 -0.15905809402 9.4809482107e-05 0 
-0.1586984396 9.8915334092e-05 0 -0.15781758726 0.00010912909056 0 -0.15643458068 0.00011408887804 0 
-0.15451699495 0.00012472072558 0 -0.15184369683 0.00012685886759 0 -0.14773121476 0.0001259980927 0 
-0.14069886506 0.00010363935144 0 -0.12808030844 6.6280037572e-05 0 -0.10556235164 1.631071973e-05 0 
-0.099603392184 -9.240986401e-06 0 -0.12126719207 -4.6797802497e-05 0 -0.13347859681 -7.2124224971e-05 0 
-0.14050678909 -8.2653532445e-05 0 -0.145142138 -7.044308586e-05 0 -0.14898720384 -5.5996242736e-05 0 
-0.15276826918 -3.3949516364e-05 0 -0.1565104574 -2.3400956707e-05 0 -0.1597725004 -1.4634090803e-05 0 
-0.16202865541 -1.8737198843e-05 0 -0.16313302517 -1.6131576558e-05 0 -0.16333253682 -1.6862150005e-05 0 
-0.16289414465 -9.1838792287e-06 0 -0.16192352772 -7.0277269515e-06 0 -0.16059878469 5.5230975704e-06 0 
-0.15932370722 1.718675594e-05 0 -0.15853323042 3.9773476601e-05 0 -0.15837137401 5.5436899856e-05 0 
-0.15863139927 7.4447831139e-05 0 -0.15896379948 8.300209447e-05 0 -0.15904985368 9.5062438049e-05 0 
-0.15869106352 9.9042132206e-05 0 -0.15780977905 0.00010939240019 0 -0.15642656386 0.00011425009143 0 
-0.15451037884 0.00012505197083 0 -0.15184280276 0.00012713411706 0 -0.14774265885 0.0001264813618 0 
-0.14072856307 0.00010400387691 0 -0.12812401354 6.6579348641e-05 0 -0.10560359061 1.6234949726e-05 0 
-0.09963132441 -9.117128684e-06 0 -0.12129863352 -4.7022087529e-05 0 -0.13349637389 -7.2408562119e-05 0 
-0.14050576091 -8.305477968e-05 0 -0.14512854815 -7.0615977165e-05 0 -0.14896869659 -5.6212003983e-05 0 
-0.15275172889 -3.3942505979e-05 0 -0.15650056303 -2.3473750844e-05 0 -0.1597699821 -1.4573478438e-05 0 
-0.16202919185 -1.8860857381e-05 0 -0.16313189268 -1.6142272216e-05 0 -0.16332881153 -1.6974881873e-05 0 
-0.16288901865 -9.1427200459e-06 0 -0.16191594303 -7.1259182732e-06 0 -0.16058644652 5.5561381487e-06 0 
-0.15930631757 1.7127766114e-05 0 -0.15851385891 3.9916394599e-05 0 -0.15835379064 5.5505926866e-05 0 
-0.15861737728 7.4680734542e-05 0 -0.15895327926 8.3118145994e-05 0 -0.15904161334 9.5317132946e-05 0 
-0.15868368745 9.9165423308e-05 0 -0.15780194104 0.00010965726688 0 -0.15641848743 0.00011440766684 0 
-0.15450371802 0.00012538483134 0 -0.15184183419 0.00012740600505 0 -0.14775405824 0.00012696778867 0 
-0.14075835049 0.0001043675511 0 -0.12816792727 6.6881679231e-05 0 -0.10564494133 1.6153973775e-05 0 
-0.099659308791 -8.9874247351e-06 0 -0.12133027613 -4.7248973715e-05 0 -0.13351425529 -7.2692098911e-05 0 
-0.14050465822 -8.3459577581e-05 0 -0.14511486888 -7.0785899879e-05 0 -0.14895009995 -5.6430319091e-05 0 
-0.1527351141 -3.3932232327e-05 0 -0.15649063885 -2.3548504032e-05 0 -0.15976749361 -1.4509580069e-05 0 
-0.162029773 -1.8987402655e-05 0 -0.16313074529 -1.6150999727e-05 0 -0.16332507133 -1.7090240362e-05 0 
-0.16288389266 -9.0990415629e-06 0 -0.16190835834 -7.227070455e-06 0 -0.16057409346 5.5907739807e-06 0 
-0.15928888321 1.7065429347e-05 0 -0.1584944129 4.006132076e-05 0 -0.15833616257 5.5572043493e-05 0 
-0.15860334039 7.4915667938e-05 0 -0.15894274414 8.3230974269e-05 0 -0.159033373 9.5573748695e-05 0 
-0.15867629647 9.928518557e-05 0 -0.15779410303 0.00010992390162 0 -0.1564103961 0.00011456157517 0 
-0.15449698269 0.00012571952539 0 -0.15184079111 0.00012767445878 0 -0.14776539803 0.00012745753338 0 
-0.14078824222 0.00010473033763 0 -0.1282120645 6.7187174864e-05 0 -0.10568640381 1.6067609977e-05 0 
-0.099687345326 -8.8516717369e-06 0 -0.12136212736 -4.7478588385e-05 0 -0.13353222609 -7.297477714e-05 0 
-0.14050351083 -8.3868086222e-05 0 -0.14510111511 -7.0952773967e-05 0 -0.14893141389 -5.6651355408e-05 0 
-0.1527184248 -3.3918633562e-05 0 -0.15648069978 -2.3625385438e-05 0 -0.15976502001 -1.4442344764e-05 0 
-0.16203038394 -1.9117000193e-05 0 -0.1631295979 -1.6157728169e-05 0 -0.16332130134 -1.7208360077e-05 0 
-0.16287875175 -9.0527819339e-06 0 -0.16190078855 -7.331299912e-06 0 -0.1605617255 5.6270755522e-06 0 
-0.15927138925 1.6999651052e-05 0 -0.15847490728 4.0208367864e-05 0 -0.15831848979 5.5635187891e-05 0 
-0.15858927369 7.5152769568e-05 0 -0.15893219411 8.3340535639e-05 0 -0.15902511775 9.5832445368e-05 0 
-0.1586689204 9.9401375337e-05 0 -0.15778623521 0.00011019247177 0 -0.15640227497 0.00011471177277 0 
-0.15449020267 0.00012605621305 0 -0.15183967352 0.00012793939095 0 -0.14777669311 0.0001279507851 0 
-0.14081822336 0.00010509215645 0 -0.12825642526 6.7495988333e-05 0 -0.10572797805 1.5975661881e-05 0 
-0.099715419114 -8.7096568677e-06 0 -0.12139419466 -4.7711069783e-05 0 -0.13355028629 -7.3256516771e-05 0 
-0.14050228894 -8.4280451119e-05 0 -0.14508724213 -7.1116497566e-05 0 -0.14891263843 -5.6875283917e-05 0 
-0.15270167589 -3.3901647839e-05 0 -0.156470716 -2.3704553314e-05 0 -0.15976259112 -1.4371709767e-05 0 
-0.16203102469 -1.9249813704e-05 0 -0.16312843561 -1.6162415704e-05 0 -0.16331750154 -1.7329375623e-05 0 
-0.16287359595 -9.0038784037e-06 0 -0.16189321876 -7.438726243e-06 0 -0.16054934263 5.6651119849e-06 0 
-0.15925383568 1.6930331185e-05 0 -0.15845532715 4.0357630496e-05 0 -0.15830077231 5.5695276387e-05 0 
-0.15857519209 7.539215585e-05 0 -0.15892162919 8.3446750068e-05 0 -0.15901686251 9.6093368484e-05 0 
-0.15866152942 9.9513919849e-05 0 -0.1577783525 0.00011046313011 0 -0.15639410913 0.00011485817231 0 
-0.15448336303 0.00012639505439 0 -0.15183846653 0.0001282007288 0 -0.14778794348 0.00012844768935 0 
-0.1408482939 0.00010545294208 0 -0.12830102444 6.7808257882e-05 0 -0.1057696566 1.5877927581e-05 0 
-0.099743545055 -8.5611573013e-06 0 -0.12142646313 -4.7946548875e-05 0 -0.13356843591 -7.3537230492e-05 0 
-0.14050100744 -8.469682507e-05 0 -0.14507329464 -7.1276968811e-05 0 -0.14889375865 -5.7102264691e-05 0 
-0.15268483758 -3.3881187846e-05 0 -0.15646071732 -2.3786171369e-05 0 -0.15976017714 -1.4297603229e-05 0 
-0.16203171015 -1.9386005079e-05 0 -0.16312727332 -1.616501504e-05 0 -0.16331368685 -1.7453430701e-05 0 
-0.16286844015 -8.9522663984e-06 0 -0.16188566387 -7.5494776866e-06 0 -0.16053692997 5.7049505813e-06 0 
-0.15923623741 1.6857356968e-05 0 -0.15843568742 4.0509199607e-05 0 -0.15828301013 5.5752218032e-05 0 
-0.15856108069 7.5633943197e-05 0 -0.15891106427 8.3549530245e-05 0 -0.15900860727 9.6356656286e-05 0 
-0.15865412354 9.9622739071e-05 0 -0.15777045488 0.00011073602218 0 -0.15638591349 0.00011500067922 0 
-0.15447644889 0.00012673619494 0 -0.15183718503 0.0001284583268 0 -0.14779913425 0.00012894836254 0 
-0.14087845385 0.00010581259994 0 -0.12834584713 6.8124136305e-05 0 -0.10581143945 1.5774188796e-05 0 
-0.09977170825 -8.4059411165e-06 0 -0.12145895511 -4.8185174819e-05 0 -0.13358667493 -7.3816830991e-05 0 
-0.14049968123 -8.5117360868e-05 0 -0.14505924284 -7.1434071288e-05 0 -0.14887480438 -5.7332468714e-05 0 
-0.15266793966 -3.385716991e-05 0 -0.15645067394 -2.3870401492e-05 0 -0.15975780785 -1.4219947843e-05 0 
-0.1620324403 -1.9525741664e-05 0 -0.16312611103 -1.6165477064e-05 0 -0.16330982745 -1.7580661734e-05 0 
-0.16286328435 -8.8978795247e-06 0 -0.16187810898 -7.6636879385e-06 0 -0.1605245173 5.7466554608e-06 0 
-0.15921856463 1.6780606529e-05 0 -0.15841598809 4.0663169784e-05 0 -0.15826520324 5.5805907323e-05 0 
-0.15854693949 7.587824075e-05 0 -0.15890048444 8.3648767031e-05 0 -0.15900033712 9.662242519e-05 0 
-0.15864673257 9.9727709312e-05 0 -0.15776254237 0.00011101129348 0 -0.15637768805 0.00011513918435 0 
-0.15446949005 0.00012707979477 0 -0.15183582902 0.00012871205399 0 -0.14781028032 0.00012945299386 0 
-0.14090871811 0.00010617102089 0 -0.12839089334 6.8443769123e-05 0 -0.10585333407 1.5664219973e-05 0 
-0.099799916148 -8.2437663877e-06 0 -0.12149166316 -4.8427085858e-05 0 -0.13360501826 -7.4095223681e-05 0 
-0.14049828053 -8.5542204033e-05 0 -0.14504511654 -7.1587659477e-05 0 -0.14885574579 -5.7566070609e-05 0 
-0.15265098214 -3.3829495806e-05 0 -0.15644061565 -2.3957407393e-05 0 -0.15975545347 -1.4138658116e-05 0 
-0.16203320026 -1.9669190806e-05 0 -0.16312494874 -1.6163745386e-05 0 -0.16330593824 -1.7711221517e-05 0 
-0.16285812855 -8.8406513896e-06 0 -0.16187055409 -7.7814975157e-06 0 -0.16051207483 5.7902866502e-06 0 
-0.15920084715 1.6699943444e-05 0 -0.15839621425 4.0819621063e-05 0 -0.15824735165 5.5856224208e-05 0 
-0.15853278339 7.6125128544e-05 0 -0.15888990462 8.374434401e-05 0 -0.15899208188 9.689079161e-05 0 
-0.15863932669 9.9828714156e-05 0 -0.15775460005 0.00011128906772 0 -0.15636943281 0.00011527354945 0 
-0.1544624716 0.00012742595572 0 -0.15183439851 0.00012896176486 0 -0.14782136679 0.00012996168516 0 
-0.14093907177 0.00010652807396 0 -0.12843619287 6.8767316407e-05 0 -0.10589532554 1.5547781004e-05 0 
-0.099828161299 -8.074381185e-06 0 -0.12152459472 -4.8672438425e-05 0 -0.13362345099 -7.4372284871e-05 0 
-0.14049680531 -8.5971529188e-05 0 -0.14503087103 -7.1737616963e-05 0 -0.1488365978 -5.7803241361e-05 0 
-0.15263393521 -3.3798063669e-05 0 -0.15643051267 -2.4047361876e-05 0 -0.15975312889 -1.4053644918e-05 0 
-0.16203400493 -1.981652531e-05 0 -0.16312377155 -1.6159769075e-05 0 -0.16330203414 -1.7845261027e-05 0 
-0.16285295784 -8.7805174189e-06 0 -0.1618630141 -7.903057849e-06 0 -0.16049960256 5.8359028117e-06 0 
-0.15918307006 1.6615227651e-05 0 -0.1583763808 4.0978626203e-05 0 -0.15822945535 5.5903030443e-05 0 
-0.15851859748 7.6374708442e-05 0 -0.15887930989 8.383612294e-05 0 -0.15898379683 9.7161871963e-05 0 
-0.15863193572 9.9925608083e-05 0 -0.15774664283 0.00011156947585 0 -0.15636114776 0.00011540362175 0 
-0.15445539355 0.00012777485244 0 -0.15183287859 0.00012920727022 0 -0.14783239365 0.00013047459652 0 
-0.14096951485 0.00010688364273 0 -0.12848171592 6.9094923674e-05 0 -0.10593742132 1.5424626326e-05 0 
-0.099856451154 -7.8975235738e-06 0 -0.12155774981 -4.8921396228e-05 0 -0.13364197314 -7.4647912697e-05 0 
-0.14049528539 -8.6405496404e-05 0 -0.14501655102 -7.1883790952e-05 0 -0.1488173604 -5.8044166508e-05 0 
-0.15261682868 -3.376276436e-05 0 -0.15642039478 -2.4140441383e-05 0 -0.15975084901 -1.3964816389e-05 0 
-0.16203483939 -1.9967930712e-05 0 -0.16312259436 -1.6153488104e-05 0 -0.16329808533 -1.7982945792e-05 0 
-0.16284778714 -8.7174130385e-06 0 -0.16185547411 -8.0285290096e-06 0 -0.16048713028 5.8835557866e-06 0 
-0.15916524827 1.6526300897e-05 0 -0.15835648775 4.1140257963e-05 0 -0.15821151435 5.5946184148e-05 0 
-0.15850438178 7.6627067756e-05 0 -0.15886870027 8.3923943748e-05 0 -0.15897552669 9.7435768112e-05 0 
-0.15862452984 0.00010001822375 0 -0.15773867071 0.00011185261974 0 -0.15635281801 0.00011552923388 0 
-0.154448241 0.00012812658679 0 -0.15183128417 0.0001294483809 0 -0.1478433609 0.00013099184434 0 
-0.14100004733 0.00010723756714 0 -0.12852747738 6.9426758273e-05 0 -0.10597962141 1.5294494006e-05 0 
-0.099884770811 -7.7129179772e-06 0 -0.12159112841 -4.9174122978e-05 0 -0.13366058469 -7.4921976193e-05 0 
-0.14049367607 -8.6844280304e-05 0 -0.14500212669 -7.2026035923e-05 0 -0.14879801869 -5.8289031585e-05 0 
-0.15259963274 -3.3723488741e-05 0 -0.15641024709 -2.4236827812e-05 0 -0.15974858403 -1.3872076124e-05 0 
-0.16203571856 -2.0123592549e-05 0 -0.16312140226 -1.6144851543e-05 0 -0.16329412162 -1.812444134e-05 0 
-0.16284260154 -8.6512791313e-06 0 -0.16184793413 -8.1580810729e-06 0 -0.16047462821 5.9332946876e-06 0 
-0.15914735198 1.6432995835e-05 0 -0.1583365202 4.1304581828e-05 0 -0.15819352865 5.5985517974e-05 0 
-0.15849015117 7.6882264693e-05 0 -0.15885809064 8.4007639089e-05 0 -0.15896724164 9.7712560091e-05 0 
-0.15861712396 0.00010010637925 0 -0.15773068368 0.00011213862308 0 -0.15634447336 0.00011565019668 0 
-0.15444104373 0.00012848128972 0 -0.15182960033 0.00012968490773 0 -0.14785428345 0.00013151358871 0 
-0.14103068411 0.00010758969438 0 -0.12857349217 6.976298755e-05 0 -0.10602192581 1.5157109374e-05 0 
-0.09991312027 -7.5202810876e-06 0 -0.12162473798 -4.9430796935e-05 0 -0.13367930055 -7.5194358942e-05 0 
-0.14049200714 -8.7288062787e-05 0 -0.14498761296 -7.216418453e-05 0 -0.14877858758 -5.8538043959e-05 0 
-0.1525823772 -3.3680116758e-05 0 -0.15640006959 -2.4336713977e-05 0 -0.15974636376 -1.3775329535e-05 0 
-0.16203662753 -2.0283712729e-05 0 -0.16312021017 -1.613380482e-05 0 -0.16329011321 -1.8269933207e-05 0 
-0.16283741593 -8.5820556706e-06 0 -0.16184042394 -8.2918941189e-06 0 -0.16046211123 5.9851631704e-06 0 
-0.15912941098 1.6335134205e-05 0 -0.15831647813 4.1471659642e-05 0 -0.15817549825 5.6020860939e-05 0 
-0.15847589076 7.7140386566e-05 0 -0.15884746611 8.4087019786e-05 0 -0.1589589566 9.7992357041e-05 0 
-0.15860970318 0.00010018989269 0 -0.15772266686 0.00011242758774 0 -0.15633608401 0.00011576630641 0 
-0.15443378687 0.00012883907766 0 -0.151827842 0.00012991663243 0 -0.1478651315 0.00013203996059 0 
-0.14106141031 0.00010793985712 0 -0.12861974537 7.0103786129e-05 0 -0.10606432706 1.5012191398e-05 0 
-0.099941506982 -7.3193159551e-06 0 -0.12165858597 -4.9691603635e-05 0 -0.13369810581 -7.5464915426e-05 0 
-0.1404902786 -8.7737025751e-05 0 -0.14497299492 -7.2298091254e-05 0 -0.14875906706 -5.8791407355e-05 0 
-0.15256504714 -3.3632528357e-05 0 -0.1563898623 -2.4440303605e-05 0 -0.15974417329 -1.3674477486e-05 0 
-0.16203759611 -2.0448498617e-05 0 -0.16311901808 -1.6120295186e-05 0 -0.163286075 -1.841960875e-05 0 
-0.16283223033 -8.5096917246e-06 0 -0.16183289886 -8.4301618699e-06 0 -0.16044957936 6.0391985244e-06 0 
-0.15911141038 1.6232525013e-05 0 -0.15829637647 4.1641538701e-05 0 -0.15815742314 5.6052020227e-05 0 
-0.15846161544 7.7401484305e-05 0 -0.15883684158 8.4161896666e-05 0 -0.15895067155 9.8275224445e-05 0 
-0.15860229731 0.00010026854579 0 -0.15771463513 0.00011271962285 0 -0.15632766485 0.00011587735207 0 
-0.1544264555 0.00012920009613 0 -0.15182599425 0.00013014329306 0 -0.14787591994 0.0001325711055 0 
-0.14109224081 0.00010828785889 0 -0.1286662519 7.0449321356e-05 0 -0.10610682517 1.4859440853e-05 0 
-0.099969916046 -7.1097147156e-06 0 -0.12169266492 -4.9956743169e-05 0 -0.13371700048 -7.5733500125e-05 0 
-0.14048846066 -8.8191387476e-05 0 -0.14495828748 -7.2427574196e-05 0 -0.14873945713 -5.9049340052e-05 0 
-0.15254765749 -3.3580603485e-05 0 -0.1563796252 -2.4547811336e-05 0 -0.15974201262 -1.3569424482e-05 0 
-0.16203859448 -2.0618173949e-05 0 -0.16311781108 -1.6104277165e-05 0 -0.16328202188 -1.8573671696e-05 0 
-0.16282704473 -8.4341372713e-06 0 -0.16182538867 -8.5730889623e-06 0 -0.16043703258 6.095432127e-06 0 
-0.15909335017 1.6124960894e-05 0 -0.15827620029 4.1814266297e-05 0 -0.15813930333 5.6078799389e-05 0 
-0.15844731033 7.7665623394e-05 0 -0.15882620215 8.4232044173e-05 0 -0.15894237161 9.8561256891e-05 0 
-0.15859487653 0.00010034212028 0 -0.15770658851 0.000113014823 0 -0.15631921589 0.00011598309356 0 
-0.15441907942 0.00012956444698 0 -0.151824072 0.0001303646568 0 -0.14788664877 0.00013310713985 0 
-0.14112316072 0.00010863351781 0 -0.12871301174 7.0799775131e-05 0 -0.10614942014 1.4698545783e-05 0 
-0.099998354912 -6.8911563176e-06 0 -0.1217269823 -5.0226419262e-05 0 -0.13373601437 -7.5999974797e-05 0 
-0.14048658311 -8.8651344413e-05 0 -0.14494347572 -7.2552466008e-05 0 -0.1487197578 -5.931207852e-05 0 
-0.15253017843 -3.3524218452e-05 0 -0.1563693583 -2.4659464543e-05 0 -0.15973989666 -1.3460074115e-05 0 
-0.16203963757 -2.0792967916e-05 0 -0.16311660409 -1.6085705283e-05 0 -0.16327792406 -1.8732340322e-05 0 
-0.16282184422 -8.3553504737e-06 0 -0.16181789339 -8.7208964032e-06 0 -0.1604244709 6.15388808e-06 0 
-0.15907523036 1.6012223568e-05 0 -0.15825596452 4.1989886086e-05 0 -0.15812113881 5.6100976508e-05 0 
-0.15843299031 7.7932847489e-05 0 -0.15881554782 8.4297229478e-05 0 -0.15893408656 9.8850527138e-05 0 
-0.15858747065 0.00010041035421 0 -0.15769851208 0.00011331328278 0 -0.15631073713 0.0001160832835 0 
-0.15441162884 0.00012993224664 0 -0.15182206035 0.0001305804617 0 -0.1478973031 0.00013364823826 0 
-0.14115417004 0.00010897660832 0 -0.12876001 7.1155351179e-05 0 -0.10619210452 1.4529183318e-05 0 
-0.10002682358 -6.6633056122e-06 0 -0.12176154554 -5.0500853831e-05 0 -0.13375510275 -7.6264186646e-05 0 
-0.14048463106 -8.9117129392e-05 0 -0.14492857456 -7.2672592069e-05 0 -0.14869995415 -5.9579866502e-05 0 
-0.15251262486 -3.3463242289e-05 0 -0.1563590616 -2.4775501515e-05 0 -0.15973779559 -1.3346331798e-05 0 
-0.16204072535 -2.0973131541e-05 0 -0.1631153971 -1.6064541342e-05 0 -0.16327379644 -1.8895843823e-05 0 
-0.16281664371 -8.2732958617e-06 0 -0.161810413 -8.8738170234e-06 0 -0.16041187942 6.2145818447e-06 0 
-0.15905705094 1.5894078388e-05 0 -0.15823565423 4.2168419895e-05 0 -0.15810292959 5.6118315115e-05 0 
-0.15841864049 7.8203200246e-05 0 -0.15880489349 8.4357212472e-05 0 -0.15892577171 9.9143093394e-05 0 
-0.15858004987 0.0001004730002 0 -0.15769043565 0.00011361511133 0 -0.15630221367 0.0001161776454 0 
-0.15440413356 0.00013030364062 0 -0.15181997418 0.00013079040218 0 -0.14790789783 0.00013419451716 0 
-0.14118528366 0.00010931690485 0 -0.12880727649 7.1516245953e-05 0 -0.10623488575 1.4351013306e-05 0 
-0.10005530715 -6.4258160819e-06 0 -0.12179635465 -5.0780276069e-05 0 -0.13377429545 -7.6525961049e-05 0 
-0.1404826045 -8.9588967967e-05 0 -0.14491358399 -7.2787770478e-05 0 -0.1486800611 -5.9852965933e-05 0 
-0.15249501169 -3.3397554944e-05 0 -0.15634873509 -2.489617691e-05 0 -0.15973573923 -1.3228105672e-05 0 
-0.16204185784 -2.1158928575e-05 0 -0.1631141752 -1.6040754417e-05 0 -0.16326962411 -1.9064425942e-05 0 
-0.16281144321 -8.1879461504e-06 0 -0.16180293262 -9.0321009338e-06 0 -0.16039928794 6.2775211518e-06 0 
-0.15903881192 1.5770274331e-05 0 -0.15821528435 4.234989683e-05 0 -0.15808467567 5.6130571465e-05 0 
-0.15840427577 7.8476718045e-05 0 -0.15879422426 8.4411716671e-05 0 -0.15891747177 9.9439021142e-05 0 
-0.15857262909 0.0001005297745 0 -0.15768231452 0.00011392038141 0 -0.1562936753 0.00011626589549 0 
-0.15439656377 0.00013067873078 0 -0.15181779861 0.0001309941872 0 -0.14791843295 0.00013474615116 0 
-0.14121648669 0.00010965417459 0 -0.12885479629 7.1882663178e-05 0 -0.10627775639 1.4163681044e-05 0 
-0.10008382052 -6.1783243837e-06 0 -0.12183140963 -5.1064929721e-05 0 -0.13379359245 -7.6785130659e-05 0 
-0.14048048854 -9.0067129349e-05 0 -0.14489848912 -7.2897804785e-05 0 -0.14866006374 -6.0131649661e-05 0 
-0.15247730911 -3.3327021811e-05 0 -0.15633837879 -2.5021765396e-05 0 -0.15973372757 -1.3105308426e-05 0 
-0.16204303503 -2.1350637326e-05 0 -0.16311295331 -1.6014317225e-05 0 -0.16326543689 -1.9238350433e-05 0 
-0.1628062278 -8.0992813309e-06 0 -0.16179546714 -9.196015526e-06 0 -0.16038666666 6.3427023633e-06 0 
-0.1590205133 1.5640544007e-05 0 -0.15819482505 4.2534327804e-05 0 -0.15806637704 5.6137465435e-05 0 
-0.15838988125 7.8753422713e-05 0 -0.15878355503 8.4460465587e-05 0 -0.15890915692 9.9738361314e-05 0 
-0.15856520832 0.00010058037878 0 -0.15767419338 0.0001142291876 0 -0.15628509223 0.0001163477209 0 
-0.15438893437 0.0001310576481 0 -0.15181553364 0.00013119148207 0 -0.14792887866 0.00013530328579 0 
-0.14124777913 0.0001099881556 0 -0.12890258431 7.2254813858e-05 0 -0.10632071644 1.3966817278e-05 0 
-0.10011234134 -5.9204544414e-06 0 -0.12186672539 -5.1355076721e-05 0 -0.13381299376 -7.7041528129e-05 0 
-0.14047829807 -9.0551860922e-05 0 -0.14488328993 -7.3002513091e-05 0 -0.14863999188 -6.0416216002e-05 0 
-0.15245954692 -3.3251526474e-05 0 -0.15632799268 -2.5152552553e-05 0 -0.15973174572 -1.2977856386e-05 0 
-0.16204424202 -2.1548556106e-05 0 -0.16311171651 -1.5985215214e-05 0 -0.16326120496 -1.9417895601e-05 0 
-0.1628010273 -8.0072941273e-06 0 -0.16178800166 -9.3658445621e-06 0 -0.16037403047 6.4101118369e-06 0 
-0.15900215507 1.5504601834e-05 0 -0.15817432106 4.2721712816e-05 0 -0.15804804862 5.6138720538e-05 0 
-0.15837545693 7.9033336078e-05 0 -0.1587728709 8.4503139078e-05 0 -0.15890084207 0.00010004117212 0 
-0.15855778754 0.00010062448564 0 -0.15766605735 0.00011454160995 0 -0.15627647936 0.00011642280151 0 
-0.15438124537 0.00013144052355 0 -0.15181317925 0.00013138196664 0 -0.14793926477 0.00013586606656 0 
-0.14127917588 0.00011031857866 0 -0.12895064056 7.2632930824e-05 0 -0.1063637659 1.3760032743e-05 0 
-0.10014088452 -5.6518124438e-06 0 -0.12190229446 -5.1650989917e-05 0 -0.13383248448 -7.7294971561e-05 0 
-0.14047603309 -9.1043453722e-05 0 -0.14486800134 -7.3101698945e-05 0 -0.14861981571 -6.0706970544e-05 0 
-0.15244171023 -3.317093433e-05 0 -0.15631757677 -2.5288849429e-05 0 -0.15972980857 -1.2845671336e-05 0 
-0.16204550862 -2.1753003239e-05 0 -0.16311047971 -1.5953441107e-05 0 -0.16325694323 -1.9603361579e-05 0 
-0.16279581189 -7.911987268e-06 0 -0.16178055108 -9.5418945421e-06 0 -0.16036137938 6.4797222876e-06 0 
-0.15898373723 1.5362142221e-05 0 -0.15815372765 4.2912044592e-05 0 -0.15802966058 5.6134023907e-05 0 
-0.1583610177 7.9316458141e-05 0 -0.15876217186 8.4539431555e-05 0 -0.15889252722 0.00010034748993 0 
-0.15855036676 0.00010066176037 0 -0.15765789151 0.00011485773575 0 -0.15626785159 0.00011649078806 0 
-0.15437349677 0.00013182744442 0 -0.15181073546 0.00013156526256 0 -0.14794957638 0.00013643466809 0 
-0.14131066203 0.00011064514547 0 -0.12899895012 7.3017239629e-05 0 -0.10640689731 1.3542925444e-05 0 
-0.10016943514 -5.3719904827e-06 0 -0.1219381243 -5.195295671e-05 0 -0.13385207951 -7.7545257227e-05 0 
-0.14047369361 -9.1542206064e-05 0 -0.14485262334 -7.319515862e-05 0 -0.14859953523 -6.100425162e-05 0 
-0.15242379904 -3.3085128962e-05 0 -0.15630713105 -2.5430981623e-05 0 -0.15972790122 -1.2708682334e-05 0 
-0.16204683483 -2.1964318876e-05 0 -0.16310924292 -1.5919000361e-05 0 -0.16325265169 -1.9795064873e-05 0 
-0.16279059649 -7.813377124e-06 0 -0.1617731303 -9.7244892459e-06 0 -0.1603487134 6.5514936978e-06 0 
-0.15896525979 1.521284139e-05 0 -0.15813307464 4.3105294026e-05 0 -0.15801122785 5.6123051763e-05 0 
-0.15834654868 7.9602788901e-05 0 -0.15875147283 8.4568971943e-05 0 -0.15888421237 0.00010065734386 0 
-0.15854293108 0.00010069183918 0 -0.15764969587 0.00011517763051 0 -0.15625917912 0.0001165513022 0 
-0.15436568856 0.0001322185708 0 -0.15180821717 0.00013174097694 0 -0.14795981348 0.00013700923591 0 
-0.14134225249 0.00011096755043 0 -0.12904754281 7.3407994932e-05 0 -0.10645011067 1.3315071556e-05 0 
-0.10019800067 -5.0805620049e-06 0 -0.12197422236 -5.2261293604e-05 0 -0.13387177885 -7.7792203228e-05 0 
-0.14047126472 -9.2048445367e-05 0 -0.14483714104 -7.3282695666e-05 0 -0.14857918024 -6.1308412114e-05 0 
-0.15240581334 -3.2993986679e-05 0 -0.15629665554 -2.5579302019e-05 0 -0.15972602367 -1.2566825717e-05 0 
-0.16204819083 -2.2182859539e-05 0 -0.16310799122 -1.588190753e-05 0 -0.16324831545 -1.9993352907e-05 0 
-0.16278536618 -7.7114937085e-06 0 -0.16176569462 -9.9139779195e-06 0 -0.16033603251 6.6253701334e-06 0 
-0.15894672275 1.5056350094e-05 0 -0.15811234713 4.3301432015e-05 0 -0.15799275041 5.6105447584e-05 0 
-0.15833206475 7.989230653e-05 0 -0.1587407589 8.4591410996e-05 0 -0.15887588263 0.00010097075574 0 
-0.1585355103 0.00010071433644 0 -0.15764150023 0.00011550135969 0 -0.15625047684 0.0001166039583 0 
-0.15435780585 0.00013261398999 0 -0.15180560946 0.00013190871687 0 -0.14796996117 0.00013758995919 0 
-0.14137393236 0.00011128546612 0 -0.12909641862 7.3805451393e-05 0 -0.106493406 1.3076029063e-05 0 
-0.10022657365 -4.777083177e-06 0 -0.12201058865 -5.2576317103e-05 0 -0.13389158249 -7.8035591287e-05 0 
-0.14046874642 -9.2562499049e-05 0 -0.14482155442 -7.3364106356e-05 0 -0.14855872095 -6.1619830376e-05 0 
-0.15238775313 -3.2897394703e-05 0 -0.15628615022 -2.5734185328e-05 0 -0.15972420573 -1.2420046914e-05 0 
-0.16204960644 -2.240901631e-05 0 -0.16310672462 -1.5842195353e-05 0 -0.16324394941 -2.0198589482e-05 0 
-0.16278015077 -7.60638477e-06 0 -0.16175828874 -1.0110733456e-05 0 -0.16032332182 6.701278835e-06 0 
-0.1589281261 1.4892298168e-05 0 -0.1580915451 4.3500396714e-05 0 -0.15797422826 5.6080836657e-05 0 
-0.15831755102 8.0184981925e-05 0 -0.15873004496 8.4606341261e-05 0 -0.15886755288 0.00010128774738 0 
-0.15852808952 0.00010072883742 0 -0.15763327479 0.00011582899606 0 -0.15624172986 0.00011664833437 0 
-0.15434987843 0.00013301384752 0 -0.15180289745 0.00013206806034 0 -0.14798003435 0.00013817699801 0 
-0.14140570164 0.0001115985433 0 -0.12914556265 7.4209863669e-05 0 -0.10653678328 1.2825335943e-05 0 
-0.10025515407 -4.4610910663e-06 0 -0.12204722315 -5.289838009e-05 0 -0.13391149044 -7.8275224951e-05 0 
-0.14046615362 -9.3084738182e-05 0 -0.1448058784 -7.3439186963e-05 0 -0.14853817225 -6.1938895669e-05 0 
-0.15236961842 -3.2795232983e-05 0 -0.1562756151 -2.5896029911e-05 0 -0.15972241759 -1.226830409e-05 0 
-0.16205106676 -2.2643200282e-05 0 -0.16310547292 -1.5799911125e-05 0 -0.16323953867 -2.0411165679e-05 0 
-0.16277493536 -7.4981157923e-06 0 -0.16175089777 -1.0315155123e-05 0 -0.16031061113 6.779127034e-06 0 
-0.15890946984 1.4720285435e-05 0 -0.15807068348 4.3702119001e-05 0 -0.15795566142 5.6048822444e-05 0 
-0.15830302238 8.0480756878e-05 0 -0.15871931612 8.4613333456e-05 0 -0.15885920823 0.00010160830425 0 
-0.15852065384 0.00010073490557 0 -0.15762503445 0.00011616059055 0 -0.15623296797 0.00011668398656 0 
-0.15434187651 0.00013341825979 0 -0.15180011094 0.00013221852714 0 -0.14799003303 0.00013877051242 0 
-0.14143756032 0.00011190641089 0 -0.1291949898 7.4621515523e-05 0 -0.10658023506 1.2562509255e-05 0 
-0.1002837345 -4.1321040953e-06 0 -0.12208414078 -5.3227846365e-05 0 -0.1339314878 -7.851087139e-05 0 
-0.14046345651 -9.3615541118e-05 0 -0.14479011297 -7.3507719208e-05 0 -0.14851751924 -6.2266051827e-05 0 
-0.1523514092 -3.2687403291e-05 0 -0.15626506507 -2.6065268685e-05 0 -0.15972067416 -1.2111566321e-05 0 
-0.16205257177 -2.2885851649e-05 0 -0.16310419142 -1.575512033e-05 0 -0.16323509812 -2.0631507141e-05 0 
-0.16276970506 -7.3867727224e-06 0 -0.16174352169 -1.0527673112e-05 0 -0.16029788554 6.8588019531e-06 0 
-0.15889075398 1.453988898e-05 0 -0.15804974735 4.3906511564e-05 0 -0.15793704987 5.6008972024e-05 0 
-0.15828846395 8.0779580458e-05 0 -0.15870858729 8.4611951024e-05 0 -0.15885087848 0.00010193242633 0 
-0.15851323307 0.00010073206795 0 -0.15761676431 0.0001164961941 0 -0.15622417629 0.00011671043467 0 
-0.15433381498 0.00013382732868 0 -0.15179723501 0.00013235965162 0 -0.1479999423 0.00013937070617 0 
-0.14146952331 0.00011220866872 0 -0.12924470007 7.5040705269e-05 0 -0.10662376136 1.2287042409e-05 0 
-0.10031231493 -3.7896190861e-06 0 -0.12212134153 -5.3565112466e-05 0 -0.13395160437 -7.8742312326e-05 0 
-0.1404606849 -9.4155329862e-05 0 -0.14477422833 -7.356950664e-05 0 -0.14849679172 -6.2601757236e-05 0 
-0.15233312547 -3.2573803765e-05 0 -0.15625447035 -2.6242356398e-05 0 -0.15971897542 -1.1949816326e-05 0 
-0.1620541364 -2.3137445169e-05 0 -0.16310292482 -1.5707910279e-05 0 -0.16323061287 -2.0860063159e-05 0 
-0.16276447475 -7.272464245e-06 0 -0.16173614562 -1.0748743989e-05 0 -0.16028513014 6.9401667133e-06 0 
-0.15887196362 1.4350653146e-05 0 -0.15802873671 4.4113461627e-05 0 -0.15791840851 5.5960827012e-05 0 
-0.15827387571 8.1081358076e-05 0 -0.15869784355 8.46016992e-05 0 -0.15884253383 0.00010226007726 0 
-0.15850581229 0.00010071982251 0 -0.15760847926 0.00011683584307 0 -0.1562153548 0.00011672718392 0 
-0.15432569385 0.0001342411706 0 -0.15179425478 0.00013249092444 0 -0.14800976217 0.00013997773931 0 
-0.14150157571 0.00011250490206 0 -0.12929470837 7.546771667e-05 0 -0.1066673547 1.199840608e-05 0 
-0.1003408879 -3.4331117149e-06 0 -0.1221588254 -5.3910585848e-05 0 -0.13397182524 -7.8969307651e-05 0 
-0.14045782387 -9.4704533694e-05 0 -0.14475826919 -7.362433098e-05 0 -0.1484759599 -6.2946492108e-05 0 
-0.15231476724 -3.2454343454e-05 0 -0.15624384582 -2.6427789635e-05 0 -0.15971730649 -1.1783055925e-05 0 
-0.16205574572 -2.3398488338e-05 0 -0.16310162842 -1.5658390112e-05 0 -0.16322609782 -2.1097321223e-05 0 
-0.16275925934 -7.1553254202e-06 0 -0.16172879934 -1.097886252e-05 0 -0.16027237475 7.0230580604e-06 0 
-0.15885311365 1.4152088625e-05 0 -0.15800765157 4.4322823669e-05 0 -0.15789970756 5.5903892644e-05 0 
-0.15825927258 8.1385987869e-05 0 -0.15868709981 8.458206139e-05 0 -0.15883417428 0.00010259121336 0 
-0.15849837661 0.00010069764539 0 -0.15760017931 0.00011717955931 0 -0.15620648861 0.00011673368863 0 
-0.15431749821 0.00013465991651 0 -0.15179118514 0.0001326117781 0 -0.14801949263 0.00014059183013 0 
-0.14153373241 0.00011279467435 0 -0.12934499979 7.5902884419e-05 0 -0.10671102256 1.1696048205e-05 0 
-0.10036946088 -3.0620353755e-06 0 -0.12219660729 -5.4264706705e-05 0 -0.13399215043 -7.9191609984e-05 0 
-0.14045485854 -9.5263625553e-05 0 -0.14474220574 -7.3671995779e-05 0 -0.14845502377 -6.3300780312e-05 0 
-0.15229634941 -3.2328942325e-05 0 -0.15623319149 -2.6622090445e-05 0 -0.15971569717 -1.1611303307e-05 0 
-0.16205741465 -2.3669521397e-05 0 -0.16310034692 -1.5606694433e-05 0 -0.16322155297 -2.1343803382e-05 0 
-0.16275402904 -7.0355195021e-06 0 -0.16172145307 -1.1218558029e-05 0 -0.16025960445 7.1072845458e-06 0 
-0.15883420408 1.3943675185e-05 0 -0.15798649192 4.4534441258e-05 0 -0.15788096189 5.5837648688e-05 0 
-0.15824465454 8.1693346146e-05 0 -0.15867634118 8.4552499175e-05 0 -0.15882582963 0.00010292578372 0 
-0.15849095583 0.00010066496907 0 -0.15759184957 0.00011752737919 0 -0.15619760752 0.00011672938854 0 
-0.15430924296 0.00013508365373 0 -0.15178802609 0.00013272167416 0 -0.14802914858 0.0001412131387 0 
-0.14156597853 0.00011307749082 0 -0.12939558923 7.6346521382e-05 0 -0.10675475001 1.1379385796e-05 0 
-0.10039801896 -2.6758193599e-06 0 -0.12223467976 -5.4627951613e-05 0 -0.13401257992 -7.9408986494e-05 0 
-0.1404518038 -9.583310748e-05 0 -0.14472605288 -7.371227548e-05 0 -0.14843401313 -6.3665189373e-05 0 
-0.15227784216 -3.2197531254e-05 0 -0.15622249246 -2.6825826353e-05 0 -0.15971413255 -1.1434599401e-05 0 
-0.16205914319 -2.3951128242e-05 0 -0.16309903562 -1.5552986952e-05 0 -0.16321696341 -2.1600071705e-05 0 
-0.16274879873 -6.9132402132e-06 0 -0.1617141366 -1.1468398952e-05 0 -0.16024680436 7.1926219789e-06 0 
-0.1588152349 1.372485076e-05 0 -0.15796525776 4.4748121582e-05 0 -0.15786217153 5.5761523981e-05 0 
-0.15823000669 8.2003265561e-05 0 -0.15866556764 8.4512415924e-05 0 -0.15881747007 0.00010326368647 0 
-0.15848352015 0.00010062118236 0 -0.15758350492 0.00011787928815 0 -0.15618868172 0.00011671366519 0 
-0.15430092812 0.00013551249867 0 -0.15178477764 0.0001328199578 0 -0.14803868532 0.0001418418542 0 
-0.14159831405 0.00011335287127 0 -0.1294464767 7.6798984082e-05 0 -0.10679854453 1.1047814041e-05 0 
-0.10042656958 -2.2738681764e-06 0 -0.1222730577 -5.5000811699e-05 0 -0.13403312862 -7.9621160694e-05 0 
-0.14044865966 -9.6413517895e-05 0 -0.14470979571 -7.3744980909e-05 0 -0.14841289818 -6.4040308644e-05 0 
-0.15225927532 -3.2060062949e-05 0 -0.15621177852 -2.7039606721e-05 0 -0.15971261263 -1.1253009689e-05 0 
-0.16206091642 -2.4243936423e-05 0 -0.16309773922 -1.5497465938e-05 0 -0.16321232915 -2.1866730094e-05 0 
-0.16274356842 -6.7887185651e-06 0 -0.16170683503 -1.1728997379e-05 0 -0.16023400426 7.2788111538e-06 0 
-0.15879620612 1.3495014173e-05 0 -0.1579439491 4.4963631808e-05 0 -0.15784335136 5.567491462e-05 0 
-0.15821532905 8.231557149e-05 0 -0.1586547941 8.4461178631e-05 0 -0.15880909562 0.00010360484157 0 
-0.15847609937 0.00010056564497 0 -0.15757513046 0.00011823527893 0 -0.15617972612 0.00011668587831 0 
-0.15429255366 0.0001359465532 0 -0.15178143978 0.00013290601783 0 -0.14804814756 0.00014247820945 0 
-0.14163073897 0.00011362026271 0 -0.12949766219 7.7260629041e-05 0 -0.10684239864 1.0700693565e-05 0 
-0.10045509785 -1.8555606403e-06 0 -0.12231173366 -5.5383818108e-05 0 -0.13405378163 -7.9827877926e-05 0 
-0.14044541121 -9.7005424323e-05 0 -0.14469343424 -7.376990834e-05 0 -0.14839169383 -6.442679296e-05 0 
-0.15224061906 -3.1916493754e-05 0 -0.15620103478 -2.7264079108e-05 0 -0.15971113741 -1.106662603e-05 0 
-0.16206274927 -2.4548620786e-05 0 -0.16309642792 -1.5440362404e-05 0 -0.16320765018 -2.2144431568e-05 0 
-0.16273835301 -6.6622237682e-06 0 -0.16169954836 -1.2001013602e-05 0 -0.16022117436 7.3655533015e-06 0 
-0.15877710283 1.3253519683e-05 0 -0.15792256594 4.5180713641e-05 0 -0.15782447159 5.5577169405e-05 0 
-0.15820063651 8.2630045654e-05 0 -0.15864402056 8.4398125182e-05 0 -0.15880073607 0.00010394909623 0 
-0.15846867859 0.0001004976657 0 -0.15756674111 0.00011859533697 0 -0.15617074072 0.00011664533667 0 
-0.1542841047 0.00013638590463 0 -0.15177799761 0.0001329791412 0 -0.14805750549 0.00014312237909 0 
-0.14166325331 0.00011387909763 0 -0.1295491606 7.7731827332e-05 0 -0.10688630491 1.0337359527e-05 0 
-0.10048361868 -1.4202475995e-06 0 -0.12235073 -5.5777538364e-05 0 -0.13407453895 -8.0028868979e-05 0 
-0.14044207335 -9.760944522e-05 0 -0.14467699826 -7.3786854045e-05 0 -0.14837040007 -6.4825318987e-05 0 
-0.1522219032 -3.1766809116e-05 0 -0.15619026124 -2.7499949283e-05 0 -0.1597097069 -1.0875573935e-05 0 
-0.16206464171 -2.4865901651e-05 0 -0.16309510171 -1.5381951016e-05 0 -0.16320294142 -2.2433878257e-05 0 
-0.16273312271 -6.5340677793e-06 0 -0.1616922766 -1.2285157027e-05 0 -0.16020834446 7.4525069067e-06 0 
-0.15875793993 1.2999671526e-05 0 -0.15790110826 4.5399065129e-05 0 -0.15780554712 5.5467597122e-05 0 
-0.15818591416 8.2946440671e-05 0 -0.15863321722 8.4322520706e-05 0 -0.15879236162 0.00010429630493 0 
-0.15846124291 0.00010041650967 0 -0.15755832195 0.00011895941134 0 -0.15616172552 0.00011659131997 0 
-0.15427559614 0.00013683062571 0 -0.15177446604 0.00013303861488 0 -0.14806675911 0.00014377456682 0 
-0.14169587195 0.00011412878666 0 -0.12960095704 7.8212979133e-05 0 -0.10693027079 9.9571116152e-06 0 
-0.1005121097 -9.6725148069e-07 0 -0.12239003927 -5.6182572735e-05 0 -0.13409541547 -8.0223857367e-05 0 
-0.14043863118 -9.8226235423e-05 0 -0.14466045797 -7.3795643402e-05 0 -0.1483490169 -6.5236636146e-05 0 
-0.15220311284 -3.1611016311e-05 0 -0.1561794728 -2.7747970307e-05 0 -0.15970832109 -1.0680012565e-05 0 
-0.16206659377 -2.5196563001e-05 0 -0.16309377551 -1.5322550098e-05 0 -0.16319818795 -2.2735830498e-05 0 
-0.1627279073 -6.4046130319e-06 0 -0.16168503463 -1.2582192539e-05 0 -0.16019549966 7.5392813415e-06 0 
-0.15873870254 1.2732723917e-05 0 -0.15787957609 4.5618333388e-05 0 -0.15778657794 5.5345444707e-05 0 
-0.15817117691 8.3264458226e-05 0 -0.15862242877 8.4233608504e-05 0 -0.15878398716 0.00010464627849 0 
-0.15845382214 0.00010032139835 0 -0.1575498879 0.00011932743655 0 -0.15615268052 0.0001165230351 0 
-0.15426702797 0.00013728083286 0 -0.15177083015 0.00013308366761 0 -0.14807590842 0.00014443499094 0 
-0.1417285651 0.00011436866771 0 -0.1296530813 7.8704484622e-05 0 -0.10697428137 9.5592158686e-06 0 
-0.10054057837 -4.9586441264e-07 0 -0.12242967635 -5.6599561503e-05 0 -0.13411639631 -8.0412552052e-05 0 
-0.1404350847 -9.8856507975e-05 0 -0.14464381337 -7.3796087236e-05 0 -0.14832752943 -6.5661530243e-05 0 
-0.15218424797 -3.1449140806e-05 0 -0.15616863966 -2.8008955269e-05 0 -0.15970699489 -1.0480142009e-05 0 
-0.16206860542 -2.5541445211e-05 0 -0.16309243441 -1.5262527086e-05 0 -0.16319338977 -2.3051105018e-05 0 
-0.16272267699 -6.274273801e-06 0 -0.16167779267 -1.289294687e-05 0 -0.16018262506 7.6254345913e-06 0 
-0.15871942043 1.2451871953e-05 0 -0.1578579694 4.5838129154e-05 0 -0.15776757896 5.5209908169e-05 0 
-0.15815640986 8.3583770902e-05 0 -0.15861161053 8.4130551841e-05 0 -0.15877559781 0.00010499878408 0 
-0.15844640136 0.00010021148773 0 -0.15754142404 0.0001196993253 0 -0.15614360571 0.00011643965991 0 
-0.1542583853 0.00013773655519 0 -0.15176710486 0.00013311346993 0 -0.14808495343 0.00014510385517 0 
-0.14176136255 0.0001145980641 0 -0.12970551848 7.9206780356e-05 0 -0.10701833665 9.1429028544e-06 0 
-0.10056902468 -5.3467270611e-09 0 -0.12246964127 -5.7029188611e-05 0 -0.13413749635 -8.0594661995e-05 0 
-0.14043143392 -9.9501019577e-05 0 -0.14462709427 -7.3788025475e-05 0 -0.14830596745 -6.610085984e-05 0 
-0.15216530859 -3.1281244446e-05 0 -0.15615777671 -2.8283779102e-05 0 -0.15970572829 -1.0276206922e-05 0 
-0.16207069159 -2.5901454137e-05 0 -0.1630910933 -1.5202308532e-05 0 -0.1631885618 -2.3380589482e-05 0 
-0.16271746159 -6.1435243879e-06 0 -0.16167058051 -1.3218312233e-05 0 -0.16016975045 7.71046507e-06 0 
-0.15870004892 1.2156250705e-05 0 -0.15783628821 4.6058004955e-05 0 -0.15774852037 5.5060121667e-05 0 
-0.15814162791 8.3904000348e-05 0 -0.15860080719 8.4012463049e-05 0 -0.15876720846 0.0001053535816 0 
-0.15843896568 0.00010008589015 0 -0.15753294528 0.00012007496844 0 -0.1561345011 0.00011634031398 0 
-0.15424966812 0.00013819786545 0 -0.15176327527 0.00013312714873 0 -0.14809389412 0.0001457813778 0 
-0.14179424942 0.00011481624824 0 -0.1297582835 7.9720310168e-05 0 -0.10706243664 8.7073649411e-06 0 
-0.10059743375 5.0507469496e-07 0 -0.12250993401 -5.7472192566e-05 0 -0.13415871561 -8.0769903434e-05 0 
-0.14042769372 -0.00010016058513 0 -0.14461027086 -7.3771305324e-05 0 -0.14828430116 -6.6555548983e-05 0 
-0.15214629471 -3.1107425457e-05 0 -0.15614688396 -2.8573387681e-05 0 -0.1597045064 -1.0068502888e-05 0 
-0.16207282245 -2.6277570214e-05 0 -0.1630897522 -1.5142382836e-05 0 -0.16318368912 -2.3725240681e-05 0 
-0.16271224618 -6.012905942e-06 0 -0.16166339815 -1.3559252693e-05 0 -0.16015686095 7.7938057075e-06 0 
-0.15868063271 1.1844924302e-05 0 -0.15781453252 4.6277444198e-05 0 -0.15772941709 5.4895157518e-05 0 
-0.15812681615 8.4224717284e-05 0 -0.15858997405 8.387840353e-05 0 -0.1587588042 0.00010571035091 0 
-0.1584315449 9.9943652458e-05 0 -0.15752443671 0.00012045422045 0 -0.15612535179 0.00011622404418 0 
-0.15424089134 0.00013866482186 0 -0.15175935626 0.00013312378724 0 -0.14810271561 0.00014646776253 0 
-0.14182721078 0.00011502244888 0 -0.12981136143 8.0245539721e-05 0 -0.10710657388 8.2517526607e-06 0 
-0.10062581301 1.0362081184e-06 0 -0.12255057693 -5.7929344621e-05 0 -0.13418003917 -8.0937963503e-05 0 
-0.14042383432 -0.00010083608504 0 -0.14459335804 -7.3745795817e-05 0 -0.14826256037 -6.7026572651e-05 0 
-0.15212722123 -3.0927818443e-05 0 -0.15613596141 -2.8878803278e-05 0 -0.15970334411 -9.8573846117e-06 0 
-0.16207502782 -2.6670853913e-05 0 -0.16308839619 -1.5083307517e-05 0 -0.16317875683 -2.4086097255e-05 0 
-0.16270703077 -5.8830323724e-06 0 -0.16165623069 -1.391681235e-05 0 -0.16014395654 7.8748216765e-06 0 
-0.15866112709 1.1516886843e-05 0 -0.15779270232 4.6495882998e-05 0 -0.15771026909 5.4714015278e-05 0 
-0.1581119895 8.4545426944e-05 0 -0.1585791409 8.3727361925e-05 0 -0.15875039995 0.00010606876458 0 
-0.15842412412 9.9783756013e-05 0 -0.15751589835 0.00012083692127 0 -0.15611618757 0.00011608986824 0 
-0.15423205495 0.00013913743896 0 -0.15175533295 0.00013310239592 0 -0.14811143279 0.00014716322767 0 
-0.14186027646 0.00011521582928 0 -0.12986476719 8.0782963778e-05 0 -0.10715074837 7.7751765275e-06 0 
-0.10065415502 1.5888986127e-06 0 -0.12259156257 -5.8401488786e-05 0 -0.13420149684 -8.1098558439e-05 0 
-0.14041987062 -0.00010152845789 0 -0.14457635581 -7.3711373261e-05 0 -0.14824071527 -6.7515007686e-05 0 
-0.15210807323 -3.0742598028e-05 0 -0.15612502396 -2.92011282e-05 0 -0.15970222652 -9.643271369e-06 0 
-0.1620772928 -2.7082453016e-05 0 -0.16308702528 -1.5025720131e-05 0 -0.16317379475 -2.446428698e-05 0 
-0.16270183027 -5.7545980781e-06 0 -0.16164907813 -1.4292120795e-05 0 -0.16013103724 7.9527962953e-06 0 
-0.15864157677 1.1171051483e-05 0 -0.15777078271 4.6712673793e-05 0 -0.1576910913 5.4515614465e-05 0 
-0.15809711814 8.4865590907e-05 0 -0.15856830776 8.3558232291e-05 0 -0.15874199569 0.00010642841517 0 
-0.15841668844 9.9605116702e-05 0 -0.15750734508 0.00012122285261 0 -0.15610697865 0.00011593670206 0 
-0.15422314405 0.00013961573131 0 -0.15175120533 0.00013306192704 0 -0.14812001586 0.00014786800602 0 
-0.14189341664 0.00011539553088 0 -0.12991851568 8.1333098933e-05 0 -0.10719495267 7.2766997619e-06 0 
-0.10068245977 2.1640303203e-06 0 -0.12263290584 -5.8889512729e-05 0 -0.13422305882 -8.1251375377e-05 0 
-0.1404157877 -0.00010223872232 0 -0.14455924928 -7.3667957622e-05 0 -0.14821879566 -6.8022010964e-05 0 
-0.15208885074 -3.0551997042e-05 0 -0.15611404181 -2.9541557524e-05 0 -0.15970118344 -9.4266542874e-06 0 
-0.16207963228 -2.7513608075e-05 0 -0.16308565438 -1.4970344637e-05 0 -0.16316878796 -2.4861026759e-05 0 
-0.16269661486 -5.628389772e-06 0 -0.16164195538 -1.46864013e-05 0 -0.16011810303 8.0269282989e-06 0 
-0.15862193704 1.0806243154e-05 0 -0.1577487886 4.6927099902e-05 0 -0.1576718539 5.4298794566e-05 0 
-0.15808224678 8.518458344e-05 0 -0.15855744481 8.3369857748e-05 0 -0.15873357654 0.00010678885883 0 
-0.15840926766 9.9406563095e-05 0 -0.15749874711 0.00012161178165 0 -0.15609773993 0.00011576342513 0 
-0.15421415865 0.00014009971346 0 -0.1517469734 0.00013300128921 0 -0.14812849462 0.00014858230134 0 
-0.14192663133 0.00011556061509 0 -0.1299726069 8.1896476331e-05 0 -0.10723917931 6.7553378358e-06 0 
-0.10071071237 2.7625285384e-06 0 -0.12267461419 -5.9394376876e-05 0 -0.13424475491 -8.1396116002e-05 0 
-0.14041160047 -0.000102967977 0 -0.14454206824 -7.3615483416e-05 0 -0.14819678664 -6.8548812123e-05 0 
-0.15206956863 -3.0356302887e-05 0 -0.15610304475 -2.9901384551e-05 0 -0.15970018506 -9.208107258e-06 0 
-0.16208203137 -2.7965668778e-05 0 -0.16308428347 -1.4918002307e-05 0 -0.16316375136 -2.5277646273e-05 0 
-0.16269142926 -5.5052914831e-06 0 -0.16163484752 -1.5100983546e-05 0 -0.16010515392 8.0963200162e-06 0 
-0.1586022526 1.0421191291e-05 0 -0.15772671998 4.7138346417e-05 0 -0.1576525718 5.4062311392e-05 0 
-0.15806734562 8.5501720605e-05 0 -0.15854658186 8.3160994109e-05 0 -0.15872514248 0.00010714958626 0 
-0.15840184689 9.9186872831e-05 0 -0.15749013424 0.00012200342462 0 -0.15608845651 0.00011556882237 0 
-0.15420511365 0.00014058935631 0 -0.15174263716 0.00013291931828 0 -0.14813682437 0.00014930636098 0 
-0.14195995033 0.00011571008508 0 -0.13002702594 8.2473663497e-05 0 -0.10728342086 6.2100561991e-06 0 
-0.10073892772 3.3853609693e-06 0 -0.12271668762 -5.9917110775e-05 0 -0.13426655531 -8.1532474724e-05 0 
-0.14040730894 -0.00010371740791 0 -0.1445247978 -7.355393609e-05 0 -0.14817468822 -6.9096764491e-05 0 
-0.15205021203 -3.015587572e-05 0 -0.15609201789 -3.0282015359e-05 0 -0.15969926119 -8.988299669e-06 0 
-0.16208451986 -2.8440097594e-05 0 -0.16308289766 -1.4869625375e-05 0 -0.16315865517 -2.5715587981e-05 0 
-0.16268622875 -5.3863009271e-06 0 -0.16162776947 -1.5537307263e-05 0 -0.16009218991 8.1599710029e-06 0 
-0.15858247876 1.0014523468e-05 0 -0.15770456195 4.7345522034e-05 0 -0.15763324499 5.3804811614e-05 0 
-0.15805241466 8.5816231149e-05 0 -0.15853571892 8.2930280769e-05 0 -0.15871670842 0.00010751002992 0 
-0.15839441121 9.8944714409e-05 0 -0.15748149157 0.00012239746866 0 -0.15607914329 0.00011535162048 0 
-0.15419597924 0.00014108463074 0 -0.15173819661 0.00013281473366 0 -0.14814504981 0.00015004038869 0 
-0.14199334383 0.00011584290041 0 -0.13008178771 8.3065249783e-05 0 -0.10732768476 5.6397661865e-06 0 
-0.10076709092 4.0335416998e-06 0 -0.12275913358 -6.0458809457e-05 0 -0.13428850472 -8.1660175056e-05 0 
-0.14040289819 -0.0001044883029 0 -0.14450745285 -7.3483330198e-05 0 -0.14815250039 -6.966732326e-05 0 
-0.15203079581 -2.9951146644e-05 0 -0.15608097613 -3.0684976082e-05 0 -0.15969839692 -8.7680027718e-06 0 
-0.16208706796 -2.8938486139e-05 0 -0.16308151186 -1.4826265215e-05 0 -0.16315351427 -2.6176418032e-05 0 
-0.16268104315 -5.2725363275e-06 0 -0.16162070632 -1.5996940419e-05 0 -0.160079211 8.2167616711e-06 0 
-0.15856264532 9.5847526609e-06 0 -0.15768232942 4.7547622671e-05 0 -0.15761387348 5.3524850955e-05 0 
-0.15803745389 8.6127249233e-05 0 -0.15852484107 8.2676306192e-05 0 -0.15870825946 0.00010786954954 0 
-0.15838699043 9.8678690847e-05 0 -0.15747283399 0.00012279352813 0 -0.15606980026 0.00011511045159 0 
-0.15418678522 0.00014158546401 0 -0.15173365176 0.0001326862548 0 -0.14815312624 0.00015078461729 0 
-0.14202681184 0.0001159579333 0 -0.1301369071 8.3671868197e-05 0 -0.10737194866 5.0433218348e-06 0 
-0.10079519451 4.7081312005e-06 0 -0.12280197442 -6.102066618e-05 0 -0.13431055844 -8.1778911408e-05 0 
-0.14039838314 -0.00010528205166 0 -0.14449001849 -7.3403738497e-05 0 -0.14813023806 -7.0262074587e-05 0 
-0.15201130509 -2.9742637707e-05 0 -0.15606988966 -3.1111921999e-05 0 -0.15969759226 -8.5481096903e-06 0 
-0.16208969057 -2.9462567909e-05 0 -0.16308011115 -1.4789110537e-05 0 -0.16314832866 -2.6661851734e-05 0 
-0.16267585754 -5.165255061e-06 0 -0.16161368787 -1.648158468e-05 0 -0.16006621718 8.2654496509e-06 0 
-0.15854273736 9.130269973e-06 0 -0.15766002238 4.7743535106e-05 0 -0.15759445727 5.3220857808e-05 0 
-0.15802247822 8.6433836259e-05 0 -0.15851394832 8.2397506048e-05 0 -0.1586998105 0.00010822742479 0 
-0.15837955475 9.8387296021e-05 0 -0.15746413171 0.00012319118832 0 -0.15606042743 0.00011484388233 0 
-0.1541775167 0.00014209178335 0 -0.15172900259 0.00013253245561 0 -0.14816106856 0.00015153929417 0 
-0.14206035435 0.00011605399777 0 -0.13019236922 8.4294159024e-05 0 -0.10741622746 4.4195162445e-06 0 
-0.10082325339 5.4102420108e-06 0 -0.12284520268 -6.1603946961e-05 0 -0.13433276117 -8.1888429122e-05 0 
-0.14039374888 -0.00010610014579 0 -0.14447249472 -7.3315277405e-05 0 -0.14810790122 -7.0882735599e-05 0 
-0.15199173987 -2.9530972824e-05 0 -0.1560588032 -3.1564664823e-05 0 -0.1596968472 -8.3296445155e-06 0 
-0.16209238768 -3.0014234653e-05 0 -0.16307871044 -1.4759504666e-05 0 -0.16314309835 -2.7173751732e-05 0 
-0.16267068684 -5.0658641157e-06 0 -0.16160668433 -1.6993095414e-05 0 -0.16005320847 8.3046497821e-06 0 
-0.15852275491 8.6493291747e-06 0 -0.15763762593 4.7932026064e-05 0 -0.15757499635 5.2891147789e-05 0 
-0.15800747275 8.6734929937e-05 0 -0.15850304067 8.2092250523e-05 0 -0.15869134665 0.00010858286987 0 
-0.15837211907 9.8068943771e-05 0 -0.15745539963 0.00012358998356 0 -0.15605100989 0.00011455036292 0 
-0.15416817367 0.00014260348689 0 -0.15172423422 0.00013235188089 0 -0.14816887677 0.0001523046376 0 
-0.14209398627 0.00011612984235 0 -0.13024818897 8.4932828031e-05 0 -0.10746049881 3.7670783968e-06 0 
-0.10085124522 6.1410378294e-06 0 -0.12288883328 -6.2210026954e-05 0 -0.13435508311 -8.1988458987e-05 0 
-0.14038899541 -0.00010694424418 0 -0.14445489645 -7.3218157922e-05 0 -0.14808547497 -7.1531168942e-05 0 
-0.15197212994 -2.9316886867e-05 0 -0.15604767203 -3.2045169064e-05 0 -0.15969619155 -8.113785043e-06 0 
-0.16209517419 -3.0595547287e-05 0 -0.16307730973 -1.4738957361e-05 0 -0.16313782334 -2.7714158932e-05 0 
-0.16266551614 -4.9759405556e-06 0 -0.16159969568 -1.7533489881e-05 0 -0.16004019976 8.3328231995e-06 0 
-0.15850271285 8.1400394265e-06 0 -0.15761515498 4.8111724027e-05 0 -0.15755549073 5.253389827e-05 0 
-0.15799245238 8.7029358838e-05 0 -0.15849211812 8.1758771557e-05 0 -0.15868286788 0.00010893499712 0 
-0.15836468339 9.7721931525e-05 0 -0.15744662285 0.00012398936087 0 -0.15604156256 0.00011422829266 0 
-0.15415875614 0.00014312044368 0 -0.15171936154 0.00013214295905 0 -0.14817653596 0.00015308090951 0 
-0.1421276778 0.00011618411372 0 -0.13030438125 8.5588595539e-05 0 -0.10750476271 3.0846695154e-06 0 
-0.10087917745 6.9017396527e-06 0 -0.12293288112 -6.2840386818e-05 0 -0.13437753916 -8.2078768173e-05 0 
-0.14038413763 -0.00010781610763 0 -0.14443720877 -7.3112641985e-05 0 -0.14806295931 -7.2209419159e-05 0 
-0.15195244551 -2.910125113e-05 0 -0.15603654087 -3.2555595681e-05 0 -0.1596955955 -7.9018791439e-06 0 
-0.16209803522 -3.1208761357e-05 0 -0.16307589412 -1.4729174836e-05 0 -0.16313248873 -2.8285301596e-05 0 
-0.16266036034 -4.8972483455e-06 0 -0.16159275174 -1.8104972696e-05 0 -0.16002716124 8.348261872e-06 0 
-0.15848258138 7.600347999e-06 0 -0.15759257972 4.8281122872e-05 0 -0.15753594041 5.2147152019e-05 0 
-0.15797738731 8.7315849669e-05 0 -0.15848119557 8.1395184679e-05 0 -0.15867437422 0.0001092828461 0 
-0.15835724771 9.734446212e-05 0 -0.15743783116 0.00012438875274 0 -0.15603207052 0.00011387594714 0 
-0.1541492641 0.00014364249364 0 -0.15171436965 0.00013190406025 0 -0.14818404615 0.0001538683573 0 
-0.14216144383 0.00011621540762 0 -0.13036091626 8.6262232799e-05 0 -0.10754901171 2.3708769277e-06 0 
-0.10090705007 7.6936266851e-06 0 -0.12297734618 -6.3496619987e-05 0 -0.13440012932 -8.2159152953e-05 0 
-0.14037914574 -0.00010871768609 0 -0.14441946149 -7.2999107942e-05 0 -0.14804038405 -7.2919698141e-05 0 
-0.15193271637 -2.8885086067e-05 0 -0.156025365 -3.3098298445e-05 0 -0.15969507396 -7.6954693213e-06 0 
-0.16210097075 -3.1856354326e-05 0 -0.16307447851 -1.4732072486e-05 0 -0.16312712431 -2.8889622627e-05 0 
-0.16265521944 -4.8317606343e-06 0 -0.1615858227 -1.8709946744e-05 0 -0.16001410782 8.3490713223e-06 0 
-0.1584623903 7.02802663e-06 0 -0.15756994486 4.8438552767e-05 0 -0.15751633048 5.172879537e-05 0 
-0.15796230733 8.7592983618e-05 0 -0.15847025812 8.0999459897e-05 0 -0.15866588056 0.00010962533997 0 
-0.15834979713 9.6934629255e-05 0 -0.15742899477 0.00012478750432 0 -0.15602253377 0.00011349152192 0 
-0.15413968265 0.0001441694767 0 -0.15170927346 0.00013163342373 0 -0.14819140732 0.00015466725745 0 
-0.14219528437 0.00011622221791 0 -0.13041783869 8.6954569269e-05 0 -0.10759323835 1.6242117908e-06 0 
-0.10093485564 8.5180399765e-06 0 -0.12302224338 -6.4180450863e-05 0 -0.13442286849 -8.2229438704e-05 0 
-0.14037404954 -0.00010965108959 0 -0.1444016397 -7.2878036008e-05 0 -0.14801771939 -7.3664450611e-05 0 
-0.15191291273 -2.8669583116e-05 0 -0.15601418912 -3.3675867599e-05 0 -0.15969462693 -7.496318176e-06 0 
-0.16210401058 -3.2541032851e-05 0 -0.163073048 -1.4749812181e-05 0 -0.16312170029 -2.9529794119e-05 0 
-0.16265007854 -4.781682037e-06 0 -0.16157892346 -1.9351036826e-05 0 -0.16000103951 8.333151527e-06 0 
-0.15844212472 6.4206560637e-06 0 -0.15754720569 4.858218017e-05 0 -0.15749667585 5.1276540034e-05 0 
-0.15794719756 8.7859218183e-05 0 -0.15845930576 8.0569465354e-05 0 -0.1586573571 0.00010996130732 0 
-0.15834234655 9.6490424767e-05 0 -0.15742012858 0.00012518490257 0 -0.15601295233 0.00011307311797 0 
-0.1541300267 0.00014470117458 0 -0.15170405805 0.00013132924505 0 -0.14819860458 0.00015547787189 0 
-0.14222919941 0.00011620295845 0 -0.13047511876 8.7666463514e-05 0 -0.1076374352 8.4310278226e-07 0 
-0.10096259415 9.3763846962e-06 0 -0.12306758016 -6.489376392e-05 0 -0.13444575667 -8.228950901e-05 0 
-0.14036883414 -0.00011061863188 0 -0.14438374341 -7.2750022809e-05 0 -0.14799499512 -7.4446325016e-05 0 
-0.15189306438 -2.8456139262e-05 0 -0.15600299835 -3.4291133488e-05 0 -0.1596942544 -7.3064379649e-06 0 
-0.16210712492 -3.3265780075e-05 0 -0.16307163239 -1.4784824089e-05 0 -0.16311623156 -3.020875738e-05 0 
-0.16264495254 -4.7494777391e-06 0 -0.16157205403 -2.0031115127e-05 0 -0.15998795629 8.2981750893e-06 0 
-0.15842176974 5.7756069509e-06 0 -0.15752439201 4.8709978728e-05 0 -0.15747697651 5.0787937653e-05 0 
-0.15793205798 8.8112858066e-05 0 -0.15844832361 8.0102894572e-05 0 -0.15864881873 0.00011028948211 0 
-0.15833489597 9.6009709523e-05 0 -0.15741120279 0.00012558014714 0 -0.15600334108 0.00011261874897 0 
-0.15412029624 0.00014523738355 0 -0.15169872344 0.00013098960335 0 -0.14820562303 0.00015630050621 0 
-0.14226315916 0.00011615596304 0 -0.13053277135 8.8398854132e-05 0 -0.10768159479 2.5891516486e-08 0 
-0.10099026561 1.0270136954e-05 0 -0.12311337143 -6.5638581873e-05 0 -0.13446877897 -8.2339283836e-05 0 
-0.14036349952 -0.000111622845 0 -0.14436578751 -7.2615839599e-05 0 -0.14797221124 -7.5268253568e-05 0 
-0.15187315643 -2.8246377042e-05 0 -0.15599177778 -3.4947232052e-05 0 -0.15969397128 -7.1281251621e-06 0 
-0.16211032867 -3.4033881093e-05 0 -0.16307020187 -1.4839843971e-05 0 -0.16311071813 -3.0929742934e-05 0 
-0.16263982654 -4.7379012358e-06 0 -0.1615652144 -2.0753319404e-05 0 -0.15997485816 8.2415654106e-06 0 
-0.15840134025 5.0900216593e-06 0 -0.15750147402 4.8819736548e-05 0 -0.15745723248 5.0260339776e-05 0 
-0.15791688859 8.8352055172e-05 0 -0.15843734145 7.9597317381e-05 0 -0.15864026546 0.00011060846737 0 
-0.15832743049 9.5490257081e-05 0 -0.15740226209 0.00012597242312 0 -0.15599368513 0.00011212632671 0 
-0.15411047637 0.00014577787078 0 -0.15169326961 0.00013061251957 0 -0.14821249247 0.00015713550965 0 
-0.14229717851 0.00011607946362 0 -0.13059081137 8.9152737928e-05 0 -0.10772570968 -8.2917284772e-07 0 
-0.10101785511 1.1200841982e-05 0 -0.12315963209 -6.6417109338e-05 0 -0.13449195027 -8.2378763182e-05 0 
-0.1403580606 -0.00011266652291 0 -0.144347772 -7.2476410423e-05 0 -0.14794933796 -7.6133452239e-05 0 
-0.15185318887 -2.804217911e-05 0 -0.1559805572 -3.5647604818e-05 0 -0.15969377756 -6.964000022e-06 0 
-0.16211363673 -3.4848959331e-05 0 -0.16306875646 -1.4917952285e-05 0 -0.16310516 -3.1696312362e-05 0 
-0.16263473034 -4.7500298024e-06 0 -0.16155840456 -2.1521094823e-05 0 -0.15996173024 8.160473044e-06 0 
-0.15838083625 4.3607919906e-06 0 -0.15747848153 4.8909019824e-05 0 -0.15743742883 4.969089423e-05 0 
-0.15790168941 8.8574801339e-05 0 -0.15842634439 7.905014354e-05 0 -0.1586316973 0.00011091677879 0 
-0.1583199501 9.4929724582e-05 0 -0.15739326179 0.00012636081374 0 -0.15598396957 0.00011159369024 0 
-0.1541005671 0.00014632240345 0 -0.15168768167 0.00013019589824 0 -0.14821918309 0.00015798324603 0 
-0.14233125746 0.0001159716121 0 -0.13064922392 8.9929184469e-05 0 -0.10776977241 -1.7239394765e-06 0 
-0.101045385 1.2170121408e-05 0 -0.12320636958 -6.7231761932e-05 0 -0.13451528549 -8.2408041635e-05 0 
-0.14035248756 -0.00011375270697 0 -0.14432968199 -7.2332884884e-05 0 -0.14792641997 -7.7045464423e-05 0 
-0.15183317661 -2.7845739169e-05 0 -0.15596932173 -3.6396068026e-05 0 -0.15969365835 -6.8170506893e-06 0 
-0.1621170342 -3.5715016566e-05 0 -0.16306732595 -1.5022617845e-05 0 -0.16309954226 -3.2512383768e-05 0 
-0.16262963414 -4.7893036026e-06 0 -0.16155162454 -2.2338213967e-05 0 -0.15994860232 8.0517429524e-06 0 
-0.15836025774 3.5845355342e-06 0 -0.15745538473 4.8975165555e-05 0 -0.15741758049 4.9076537834e-05 0 
-0.15788646042 8.8778935606e-05 0 -0.15841531754 7.845863729e-05 0 -0.15862309933 0.00011121280113 0 
-0.15831246972 9.4325660029e-05 0 -0.15738421679 0.00012674437312 0 -0.15597422421 0.00011101859127 0 
-0.15409056842 0.00014687073417 0 -0.15168197453 0.00012973758567 0 -0.14822567999 0.00015884412278 0 
-0.14236539602 0.0001158304658 0 -0.13070803881 9.0729343356e-05 0 -0.10781378299 -2.6603620427e-06 0 
-0.10107283294 1.3179677808e-05 0 -0.12325359881 -6.8085144449e-05 0 -0.13453878462 -8.2427301095e-05 0 
-0.14034681022 -0.00011488478049 0 -0.14431156218 -7.2186652687e-05 0 -0.14790344238 -7.8008204582e-05 0 
-0.15181311965 -2.7659598345e-05 0 -0.15595808625 -3.7196849007e-05 0 -0.15969364345 -6.6906873144e-06 0 
-0.16212053597 -3.6636498407e-05 0 -0.16306589544 -1.5157748749e-05 0 -0.16309387982 -3.3382297261e-05 0 
-0.16262455285 -4.8595684348e-06 0 -0.16154487431 -2.3208815037e-05 0 -0.15993542969 7.9118854046e-06 0 
-0.15833958983 2.757570428e-06 0 -0.15743219852 4.9015274271e-05 0 -0.15739767253 4.841397822e-05 0 
-0.15787120163 8.8962100563e-05 0 -0.15840426087 7.7819895523e-05 0 -0.15861448646 0.00011149481725 0 
-0.15830497444 9.3675524113e-05 0 -0.15737512708 0.00012712208263 0 -0.15596441925 0.00011039872334 0 
-0.15408048034 0.00014742267376 0 -0.15167614818 0.00012923536997 0 -0.14823199809 0.00015971863468 0 
-0.14239957929 0.000115654002 0 -0.13076722622 9.1554480605e-05 0 -0.10785771161 -3.6405044739e-06 0 
-0.10110021383 1.4231294699e-05 0 -0.12330133468 -6.8980145443e-05 0 -0.13456244767 -8.2436861703e-05 0 
-0.14034102857 -0.00011606647604 0 -0.14429338276 -7.2039372753e-05 0 -0.14788040519 -7.9026031017e-05 0 
-0.15179303288 -2.7486708859e-05 0 -0.15594683588 -3.8054640754e-05 0 -0.15969371796 -6.5888020799e-06 0 
-0.16212414205 -3.7618334318e-05 0 -0.16306445003 -1.5327752408e-05 0 -0.16308815777 -3.4310854971e-05 0 
-0.16261947155 -4.9651252993e-06 0 -0.16153815389 -2.4137443688e-05 0 -0.15992225707 7.7370386862e-06 0 
-0.15831883252 1.8758860278e-06 0 -0.15740892291 4.9026180932e-05 0 -0.15737771988 4.7699671995e-05 0 
-0.15785589814 8.9121771452e-05 0 -0.15839320421 7.7130876889e-05 0 -0.15860584378 0.00011176101543 0 
-0.15829744935 9.297671204e-05 0 -0.15736597776 0.00012749293819 0 -0.15595455468 0.00010973174358 0 
-0.15407028794 0.00014797800395 0 -0.15167018771 0.00012868698104 0 -0.14823813736 0.00016060734924 0 
-0.14243380725 0.00011544012523 0 -0.13082681596 9.2405964097e-05 0 -0.10790156573 -4.6665486479e-06 0 
-0.1011275202 1.5326842913e-05 0 -0.12334959209 -6.9919893576e-05 0 -0.13458627462 -8.2437189121e-05 0 
-0.14033512771 -0.00011730192637 0 -0.14427515864 -7.1893067798e-05 0 -0.14785730839 -8.0103760411e-05 0 
-0.15177290142 -2.7330490411e-05 0 -0.1559355855 -3.8974671043e-05 0 -0.15969389677 -6.5158396865e-06 0 
-0.16212785244 -3.8666021283e-05 0 -0.16306301951 -1.5537594663e-05 0 -0.16308239102 -3.5303379263e-05 0 
-0.16261442006 -5.110789516e-06 0 -0.16153144836 -2.5129098503e-05 0 -0.15990903974 7.5229318099e-06 0 
-0.15829800069 9.3510954002e-07 0 -0.15738554299 4.9004447646e-05 0 -0.15735770762 4.6929832024e-05 0 
-0.15784056485 8.9255256171e-05 0 -0.15838210285 7.6388416346e-05 0 -0.15859717131 0.00011200946756 0 
-0.15828992426 9.2226546258e-05 0 -0.15735678375 0.00012785587751 0 -0.1559446454 0.00010901527276 0 
-0.15406000614 0.00014853660832 0 -0.15166407824 0.00012809010514 0 -0.14824405313 0.00016151092132 0 
-0.14246806502 0.00011518664542 0 -0.13088679314 9.3285278126e-05 0 -0.10794533044 -5.7407996792e-06 0 
-0.10115475208 1.646828423e-05 0 -0.12339838594 -7.0907859481e-05 0 -0.1346102953 -8.2428938185e-05 0 
-0.14032912254 -0.0001185957226 0 -0.14425690472 -7.1750124334e-05 0 -0.14783418179 -8.1246776972e-05 0 
-0.15175272524 -2.7194915674e-05 0 -0.15592435002 -3.9962778828e-05 0 -0.15969417989 -6.4768801167e-06 0 
-0.16213168204 -3.9785689296e-05 0 -0.1630615741 -1.5792884369e-05 0 -0.16307657957 -3.636578549e-05 0 
-0.16260936856 -5.3019525694e-06 0 -0.16152478755 -2.6189271011e-05 0 -0.1598958075 7.2648285823e-06 0 
-0.15827706456 -6.9532013924e-08 0 -0.15736207366 4.8946352763e-05 0 -0.15733763576 4.6100391046e-05 0 
-0.15782518685 8.9359666163e-05 0 -0.15837098658 7.5589188782e-05 0 -0.15858845413 0.00011223818001 0 
-0.15828236938 9.1422320111e-05 0 -0.15734751523 0.0001282098674 0 -0.15593466163 0.00010824695346 0 
-0.15404962003 0.00014909844322 0 -0.15165783465 0.00012744244304 0 -0.14824977517 0.00016243018035 0 
-0.1425023526 0.00011489135068 0 -0.13094717264 9.4194088888e-05 0 -0.10798899829 -6.8656941039e-06 0 
-0.10118191689 1.7657674107e-05 0 -0.12344773859 -7.1947855758e-05 0 -0.13463449478 -8.2413011114e-05 0 
-0.14032301307 -0.00011995297973 0 -0.144238621 -7.1613423643e-05 0 -0.14781101048 -8.2461090642e-05 0 
-0.15173253417 -2.7084595786e-05 0 -0.15591311455 -4.1025505197e-05 0 -0.15969456732 -6.4777364059e-06 0 
-0.16213561594 -4.0984203224e-05 0 -0.16306012869 -1.6099957065e-05 0 -0.16307069361 -3.7504662032e-05 0 
-0.16260434687 -5.5446553233e-06 0 -0.16151814163 -2.7324002076e-05 0 -0.15988254547 6.9574766712e-06 0 
-0.15825603902 -1.1432583733e-06 0 -0.15733848512 4.884788359e-05 0 -0.15731748939 4.520701259e-05 0 
-0.15780976415 8.9431945526e-05 0 -0.15835982561 7.4729789048e-05 0 -0.15857972205 0.00011244510824 0 
-0.15827478468 9.0561326942e-05 0 -0.157338202 0.00012855390378 0 -0.15592463315 0.00010742445738 0 
-0.15403912961 0.0001496635814 0 -0.15165145695 0.00012674171012 0 -0.1482552886 0.00016336607223 0 
-0.14253668487 0.00011455194908 0 -0.13100793958 9.5134215371e-05 0 -0.10803255439 -8.0438076111e-06 0 
-0.10120901465 1.8897164409e-05 0 -0.12349767238 -7.3044073361e-05 0 -0.13465888798 -8.2390542957e-05 0 
-0.14031681418 -0.00012137942394 0 -0.14422030747 -7.1486385423e-05 0 -0.14778780937 -8.3753438958e-05 0 
-0.15171229839 -2.700488767e-05 0 -0.15590187907 -4.2170195229e-05 0 -0.15969505906 -6.5250646912e-06 0 
-0.16213966906 -4.2269264668e-05 0 -0.16305869818 -1.6465970475e-05 0 -0.16306476295 -3.8727372157e-05 0 
-0.16259932518 -5.8456712395e-06 0 -0.16151152551 -2.8539932828e-05 0 -0.15986923873 6.5950393946e-06 0 
-0.15823492408 -2.2917854494e-06 0 -0.15731479228 4.8704732762e-05 0 -0.15729729831 4.42450837e-05 0 
-0.15779428184 8.9468892838e-05 0 -0.15834863484 7.3806724686e-05 0 -0.15857093036 0.00011262816406 0 
-0.15826718509 8.964092558e-05 0 -0.15732881427 0.00012888709898 0 -0.15591453016 0.00010654557991 0 
-0.15402853489 0.0001502322848 0 -0.15164493024 0.00012598570902 0 -0.14826056361 0.00016431980475 0 
-0.14257103205 0.00011416614871 0 -0.13106913865 9.610770212e-05 0 -0.10807599127 -9.2778600447e-06 0 
-0.10123605281 2.0189007046e-05 0 -0.12354819477 -7.4201198004e-05 0 -0.1346835047 -8.2363047113e-05 0 
-0.14031051099 -0.00012288146536 0 -0.14420199394 -7.1373076935e-05 0 -0.14776457846 -8.5131381638e-05 0 
-0.15169206262 -2.6962019547e-05 0 -0.1558906734 -4.3405121687e-05 0 -0.15969568491 -6.6265010901e-06 0 
-0.16214384139 -4.3649542931e-05 0 -0.16305725276 -1.6899024558e-05 0 -0.16305878758 -4.004215225e-05 0 
-0.16259431839 -6.212595963e-06 0 -0.1615049392 -2.9844355595e-05 0 -0.15985590219 6.1710034061e-06 0 
-0.15821370482 -3.5213997762e-06 0 -0.15729098022 4.8512305511e-05 0 -0.15727703273 4.320970038e-05 0 
-0.15777876973 8.9467139333e-05 0 -0.15833739936 7.281647413e-05 0 -0.15856210887 0.00011278528837 0 
-0.1582595408 8.8658569439e-05 0 -0.15731935203 0.00012920868176 0 -0.15590435266 0.0001056082765 0 
-0.15401782095 0.00015080503363 0 -0.15163825452 0.00012517237337 0 -0.14826563001 0.00016529283312 0 
-0.14260539412 0.00011373168672 0 -0.13113072515 9.711682651e-05 0 -0.10811929405 -1.0570724953e-05 0 
-0.10126303136 2.1535559426e-05 0 -0.123599343 -7.5424402894e-05 0 -0.13470831513 -8.2332415332e-05 0 
-0.14030411839 -0.00012446631445 0 -0.14418366551 -7.1278351243e-05 0 -0.14774134755 -8.6603475211e-05 0 
-0.15167181194 -2.6963240089e-05 0 -0.15587948263 -4.4739623263e-05 0 -0.15969642997 -6.7908190431e-06 0 
-0.16214814782 -4.5134809625e-05 0 -0.16305582225 -1.7408288841e-05 0 -0.16305273771 -4.1458257328e-05 0 
-0.1625893116 -6.6538973442e-06 0 -0.16149836779 -3.1245206628e-05 0 -0.15984252095 5.6779508668e-06 0 
-0.15819238126 -4.8391661949e-06 0 -0.15726706386 4.8265825171e-05 0 -0.15725667775 4.2095751269e-05 0 
-0.15776318312 8.9423185273e-05 0 -0.15832613409 7.1755544923e-05 0 -0.15855322778 0.00011291449482 0 
-0.1582518667 8.7611908384e-05 0 -0.15730981529 0.00012951812823 0 -0.15589411557 0.00010461074999 0 
-0.15400700271 0.00015138259914 0 -0.15163142979 0.00012429979688 0 -0.14827044308 0.00016628694721 0 
-0.1426397711 0.00011324631487 0 -0.13119272888 9.8164171504e-05 0 -0.10816245526 -1.1925435501e-05 0 
-0.10128996521 2.2939280825e-05 0 -0.12365113199 -7.6719465142e-05 0 -0.13473336399 -8.2301012299e-05 0 
-0.14029765129 -0.00012614212756 0 -0.14416535199 -7.1207949077e-05 0 -0.14771808684 -8.8179389422e-05 0 
-0.15165156126 -2.7017002139e-05 0 -0.15586832166 -4.6184301027e-05 0 -0.15969729424 -7.0281175795e-06 0 
-0.16215258837 -4.6736135118e-05 0 -0.16305439174 -1.8004175217e-05 0 -0.16304662824 -4.298609565e-05 0 
-0.16258431971 -7.178911801e-06 0 -0.16149181128 -3.2751060644e-05 0 -0.1598290801 5.107274319e-06 0 
-0.15817093849 -6.2531803451e-06 0 -0.15724301338 4.796041685e-05 0 -0.15723626316 4.089804861e-05 0 
-0.1577475518 8.9333465439e-05 0 -0.1583147943 7.0620517363e-05 0 -0.15854428709 0.00011301395716 0 
-0.1582441628 8.6498854216e-05 0 -0.15730018914 0.00012981522013 0 -0.15588378906 0.00010355157428 0 
-0.15399605036 0.0001519662037 0 -0.15162444115 0.00012336643704 0 -0.14827501774 0.00016730437346 0 
-0.14267414808 0.00011270792311 0 -0.13125516474 9.9252662039e-05 0 -0.10820546001 -1.3345188563e-05 0 
-0.10131685436 2.4402734198e-05 0 -0.12370359153 -7.8092853073e-05 0 -0.13475866616 -8.2271821157e-05 0 
-0.14029110968 -0.00012791808695 0 -0.14414705336 -7.1168724389e-05 0 -0.14769484103 -8.9870103693e-05 0 
-0.15163131058 -2.7133166441e-05 0 -0.15585719049 -4.7751203965e-05 0 -0.15969830751 -7.3500491453e-06 0 
-0.16215714812 -4.8466070439e-05 0 -0.16305294633 -1.8698563508e-05 0 -0.16304045916 -4.4637476094e-05 0 
-0.16257932782 -7.7980603237e-06 0 -0.16148528457 -3.4371907532e-05 0 -0.15981559455 4.4499834075e-06 0 
-0.15814936161 -7.7718023022e-06 0 -0.1572188288 4.7590438044e-05 0 -0.15721575916 3.9611277316e-05 0 
-0.15773183107 8.9194283646e-05 0 -0.15830342472 6.9408131822e-05 0 -0.15853530169 0.00011308207468 0 
-0.15823639929 8.5317726189e-05 0 -0.15729047358 0.00013010017574 0 -0.15587337315 0.0001024298108 0 
-0.1539849788 0.00015255754988 0 -0.15161728859 0.00012237111514 0 -0.14827935398 0.00016834784765 0 
-0.14270852506 0.00011211456149 0 -0.13131800294 0.00010038563778 0 -0.10824830085 -1.4833355635e-05 0 
-0.10134372115 2.5928588002e-05 0 -0.12375674397 -7.9551828094e-05 0 -0.13478422165 -8.2248516264e-05 0 
-0.14028450847 -0.0001298046991 0 -0.14412879944 -7.1168818977e-05 0 -0.14767159522 -9.1688125394e-05 0 
-0.15161107481 -2.7323254471e-05 0 -0.15584610403 -4.9454079999e-05 0 -0.1596994549 -7.7700788097e-06 0 
-0.16216185689 -5.0338916481e-05 0 -0.16305151582 -1.9505052478e-05 0 -0.16303421557 -4.6425779146e-05 0 
-0.16257435083 -8.5232131823e-06 0 -0.16147875786 -3.6119694414e-05 0 -0.1598020643 3.6972492126e-06 0 
-0.15812766552 -9.4030319815e-06 0 -0.1571945101 4.7149038437e-05 0 -0.15719516575 3.822981671e-05 0 
-0.15771605074 8.9001943707e-05 0 -0.15829196572 6.8115317845e-05 0 -0.15852622688 0.00011311761773 0 
-0.15822857618 8.4067381977e-05 0 -0.15728066862 0.0001303737663 0 -0.15586286783 0.00010124516848 0 
-0.15397377312 0.00015315903875 0 -0.15160997212 0.00012131319818 0 -0.14828342199 0.00016942077491 0 
-0.14274290204 0.00011146453471 0 -0.13138127327 0.0001015669186 0 -0.10829097033 -1.6393483747e-05 0 
-0.10137057304 2.751961074e-05 0 -0.12381064147 -8.1104553828e-05 0 -0.13481004536 -8.2235623267e-05 0 
-0.14027786255 -0.00013181385293 0 -0.14411057532 -7.1217888035e-05 0 -0.14764837921 -9.3647766334e-05 0 
-0.15159085393 -2.7600748581e-05 0 -0.15583506227 -5.1308667025e-05 0 -0.15970076621 -8.3037903096e-06 0 
-0.16216671467 -5.2370996855e-05 0 -0.16305008531 -2.0439214495e-05 0 -0.16302791238 -4.8366149713e-05 0 
-0.16256935894 -9.3678418125e-06 0 -0.16147223115 -3.8007619878e-05 0 -0.15978845954 2.8392873901e-06 0 
-0.15810580552 -1.1155527318e-05 0 -0.1571700424 4.6629043936e-05 0 -0.15717446804 3.6747853301e-05 0 
-0.15770018101 8.8752880401e-05 0 -0.15828044713 6.6739376052e-05 0 -0.15851707757 0.0001131198951 0 
-0.15822069347 8.2747421402e-05 0 -0.15727075934 0.00013063759252 0 -0.15585227311 9.9998236692e-05 0 
-0.15396243334 0.00015377394448 0 -0.15160247684 0.0001201928244 0 -0.14828722179 0.00017052736075 0 
-0.14277726412 0.00011075651855 0 -0.13144497573 0.00010280092829 0 -0.10833344609 -1.8029295461e-05 0 
-0.10139742494 2.91786655e-05 0 -0.12386529893 -8.2760270743e-05 0 -0.134836182 -8.2238722825e-05 0 
-0.14027117193 -0.00013395922724 0 -0.1440924257 -7.1327449405e-05 0 -0.1476252079 -9.5765455626e-05 0 
-0.15157067776 -2.7981446692e-05 0 -0.15582408011 -5.3333053074e-05 0 -0.15970222652 -8.9692448455e-06 0 
-0.16217170656 -5.4580992582e-05 0 -0.16304863989 -2.1518895664e-05 0 -0.16302151978 -5.0475744501e-05 0 
-0.16256435215 -1.0347166608e-05 0 -0.16146568954 -4.0050006646e-05 0 -0.15977478027 1.8648260038e-06 0 
-0.1580837816 -1.3039131773e-05 0 -0.15714539587 4.6023294999e-05 0 -0.15715365112 3.515951903e-05 0 
-0.15768420696 8.844381955e-05 0 -0.15826883912 6.527818914e-05 0 -0.15850783885 0.00011308895046 0 
-0.15821275115 8.1358419266e-05 0 -0.15726074576 0.00013089420099 0 -0.15584157407 9.8690739833e-05 0 
-0.15395094454 0.00015440660354 0 -0.15159481764 0.00011901105609 0 -0.14829073846 0.00017167280021 0 
-0.14281161129 0.000109989669 0 -0.13150912523 0.00010409278912 0 -0.10837572068 -1.9744698875e-05 0 
-0.10142430663 3.0908704503e-05 0 -0.1239207685 -8.4529434389e-05 0 -0.13486263156 -8.226463251e-05 0 
-0.14026448131 -0.00013625645079 0 -0.1440743655 -7.1511181886e-05 0 -0.1476020813 -9.8060088931e-05 0 
-0.15155053139 -2.8483880669e-05 0 -0.15581317246 -5.5548061937e-05 0 -0.15970385075 -9.7874144558e-06 0 
-0.16217686236 -5.6990349549e-05 0 -0.16304719448 -2.2764581445e-05 0 -0.16301503778 -5.2774055803e-05 0 
-0.16255934536 -1.1478419765e-05 0 -0.16145914793 -4.2262789066e-05 0 -0.1597610116 7.6128947057e-07 0 
-0.15806157887 -1.5064623767e-05 0 -0.15712058544 4.5324370149e-05 0 -0.15713271499 3.3458971302e-05 0 
-0.15766814351 8.8071923528e-05 0 -0.15825714171 6.3730381953e-05 0 -0.15849851072 0.00011302582425 0 
-0.15820471942 7.9902230937e-05 0 -0.15725059807 0.00013114749163 0 -0.15583075583 9.7325835668e-05 0 
-0.15393930674 0.0001550627203 0 -0.15158696473 0.00011777021427 0 -0.14829398692 0.00017286355433 0 
-0.14284592867 0.00010916383326 0 -0.13157370687 0.00010544846009 0 -0.10841778666 -2.1543775802e-05 0 
-0.10145123303 3.2712745451e-05 0 -0.12397708744 -8.642397006e-05 0 -0.13488943875 -8.2321712398e-05 0 
-0.14025777578 -0.0001387235825 0 -0.1440564096 -7.1785390901e-05 0 -0.1475790292 -0.00010055351595 0 
-0.15153045952 -2.9129836548e-05 0 -0.15580233932 -5.7977773395e-05 0 -0.15970565379 -1.0782695426e-05 0 
-0.16218216717 -5.9623762354e-05 0 -0.16304573417 -2.4199845939e-05 0 -0.16300846636 -5.5283329857e-05 0 
-0.16255429387 -1.2781141777e-05 0 -0.16145257652 -4.4663789595e-05 0 -0.15974713862 -4.8527982699e-07 0 
-0.15803918242 -1.7243717593e-05 0 -0.15709558129 4.4524604164e-05 0 -0.15711164474 3.1640542147e-05 0 
-0.15765193105 8.7634980446e-05 0 -0.15824532509 6.2095663452e-05 0 -0.15848904848 0.00011293287389 0 
-0.15819659829 7.8382348875e-05 0 -0.15724031627 0.00013140302326 0 -0.15581981838 9.5908522781e-05 0 
-0.15392751992 0.00015574977442 0 -0.151578933 0.00011647416977 0 -0.14829695225 0.0001741075539 0 
-0.14288023114 0.0001082797171 0 -0.13163875043 0.00010687493341 0 -0.10845964402 -2.3430782676e-05 0 
-0.10147824138 3.4593875171e-05 0 -0.12403431535 -8.8457491074e-05 0 -0.13491661847 -8.2420134277e-05 0 
-0.14025110006 -0.00014138146071 0 -0.14403857291 -7.2169525083e-05 0 -0.14755606651 -0.00010327104974 0 
-0.15151046216 -2.9944954804e-05 0 -0.15579159558 -6.0650119849e-05 0 -0.15970763564 -1.1983524928e-05 0 
-0.1621876359 -6.2509760028e-05 0 -0.16304425895 -2.5851868486e-05 0 -0.16300179064 -5.8028992498e-05 0 
-0.16254921257 -1.4277536138e-05 0 -0.1614459455 -4.7273031669e-05 0 -0.15973314643 -1.8903297132e-06 0 
-0.15801656246 -1.9589082513e-05 0 -0.15707036853 4.3616106268e-05 0 -0.15709039569 2.9698896469e-05 0 
-0.15763558447 8.713168063e-05 0 -0.15823338926 6.0375095927e-05 0 -0.15847946703 0.00011281418119 0 
-0.15818835795 7.6804375567e-05 0 -0.15722990036 0.0001316684793 0 -0.15580876172 9.4446135336e-05 0 
-0.15391556919 0.00015647737018 0 -0.15157072246 0.00011512880155 0 -0.14829961956 0.00017541467969 0 
-0.14291450381 0.00010733915406 0 -0.13170427084 0.0001083804018 0 -0.10850127041 -2.5410136004e-05 0 
-0.1015053615 3.6555200495e-05 0 -0.12409250438 -9.0645597083e-05 0 -0.13494421542 -8.2572340034e-05 0 
-0.14024448395 -0.0001442542416 0 -0.14402090013 -7.268677291e-05 0 -0.14753322303 -0.00010624215793 0 
-0.15149055421 -3.0959468859e-05 0 -0.15578095615 -6.3597588451e-05 0 -0.15970981121 -1.3423114069e-05 0 
-0.16219325364 -6.5681393608e-05 0 -0.16304276884 -2.7752057576e-05 0 -0.16299499571 -6.1040213041e-05 0 
-0.16254407167 -1.5992882254e-05 0 -0.16143925488 -5.0113041652e-05 0 -0.15971900523 -3.4709401007e-06 0 
-0.15799368918 -2.2114378226e-05 0 -0.15704491735 4.2590832891e-05 0 -0.15706898272 2.7629257602e-05 0 
-0.15761907399 8.6561907665e-05 0 -0.15822130442 5.8571575209e-05 0 -0.15846973658 0.00011267601803 0 
-0.1581800133 7.5176554674e-05 0 -0.15721932054 0.00013195422071 0 -0.15579757094 9.2948910606e-05 0 
-0.15390345454 0.00015725780395 0 -0.1515623033 0.00011374250607 0 -0.14830198884 0.00017679703888 0 
-0.14294874668 0.00010634546197 0 -0.13177026808 0.00010997453501 0 -0.10854267329 -2.7486399631e-05 0 
-0.10153264552 3.8599820982e-05 0 -0.12415171415 -9.3006252428e-05 0 -0.1349722743 -8.2793456386e-05 0 
-0.14023795724 -0.00014737002493 0 -0.14400342107 -7.3364841228e-05 0 -0.14751051366 -0.00010950120486 0 
-0.15147076547 -3.2209092751e-05 0 -0.15577043593 -6.6858112405e-05 0 -0.1597121954 -1.5140325559e-05 0 
-0.16219905019 -6.9177054684e-05 0 -0.16304123402 -2.993678936e-05 0 -0.16298805177 -6.4350526372e-05 0 
-0.16253885627 -1.7956019292e-05 0 -0.16143248975 -5.3209209e-05 0 -0.15970468521 -5.245983175e-06 0 
-0.15797053277 -2.4834300348e-05 0 -0.15701919794 4.1440707719e-05 0 -0.15704736114 2.5427694709e-05 0 
-0.15760236979 8.5927182226e-05 0 -0.15820904076 5.6690307247e-05 0 -0.1584598273 0.00011252750846 0 
-0.15817153454 7.3510454968e-05 0 -0.1572085619 0.00013227401359 0 -0.15578623116 9.1430760222e-05 0 
-0.15389117599 0.00015810668992 0 -0.15155370533 0.00011232680117 0 -0.1483040601 0.00017826960539 0 
-0.14298297465 0.00010530378495 0 -0.13183675706 0.00011166877084 0 -0.10858385265 -2.9664255635e-05 0 
-0.10156013817 4.0730792534e-05 0 -0.1242120266 -9.5560200862e-05 0 -0.13500083983 -8.3101927885e-05 0 
-0.14023154974 -0.00015076166892 0 -0.14398615062 -7.42368793e-05 0 -0.14748798311 -0.00011308844114 0 
-0.15145111084 -3.373607251e-05 0 -0.15576004982 -7.0476082328e-05 0 -0.1597147882 -1.7180724171e-05 0 
-0.16220499575 -7.304148312e-05 0 -0.16303966939 -3.2448289858e-05 0 -0.16298095882 -6.7998582381e-05 0 
-0.16253355145 -2.0199926439e-05 0 -0.16142559052 -5.6590211898e-05 0 -0.15969017148 -7.2362995525e-06 0 
-0.15794706345 -2.7764612241e-05 0 -0.15699318051 4.0157767216e-05 0 -0.15702548623 2.3091484763e-05 0 
-0.15758544207 8.5231156845e-05 0 -0.15819658339 5.4739466577e-05 0 -0.15844972432 0.00011238137085 0 
-0.15816289186 7.1821821621e-05 0 -0.15719763935 0.00013264582958 0 -0.15577472746 8.9910092356e-05 0 
-0.15387871861 0.00015904383326 0 -0.15154491365 0.00011089715554 0 -0.14830583334 0.00017985081649 0 
-0.14301717281 0.0001042216245 0 -0.13190378249 0.00011347667896 0 -0.10862480104 -3.1948471587e-05 0 
-0.10158789903 4.2951061914e-05 0 -0.12427351624 -9.8331489426e-05 0 -0.1350299716 -8.3520193584e-05 0 
-0.14022530615 -0.00015446760517 0 -0.1439691633 -7.5342584751e-05 0 -0.14746564627 -0.00011705115321 0 
-0.15143162012 -3.5590484913e-05 0 -0.15574981272 -7.4503623182e-05 0 -0.15971760452 -1.959783549e-05 0 
-0.16221112013 -7.7326963947e-05 0 -0.16303803027 -3.5335666325e-05 0 -0.16297368705 -7.202901179e-05 0 
-0.16252811253 -2.2762387744e-05 0 -0.16141854227 -6.0288475652e-05 0 -0.15967538953 -9.4648748927e-06 0 
-0.15792323649 -3.0922194128e-05 0 -0.15696680546 3.8734331611e-05 0 -0.15700334311 2.0619600036e-05 0 
-0.15756826103 8.4480270743e-05 0 -0.1581839025 5.2730974858e-05 0 -0.15843941271 0.00011225484195 0 
-0.15815408528 7.0131580287e-05 0 -0.15718649328 0.00013309289352 0 -0.15576305985 8.8410968601e-05 0 
-0.15386608243 0.00016009408864 0 -0.15153592825 0.00010947387636 0 -0.14830732346 0.00018156331498 0 
-0.14305135608 0.00010310941434 0 -0.13197135925 0.00011541439744 0 -0.10866554081 -3.4343858715e-05 0 
-0.10161601752 4.5263379434e-05 0 -0.12433628738 -0.00010134810145 0 -0.13505972922 -8.4075596533e-05 0 
-0.14021928608 -0.00015853301738 0 -0.143952474 -7.6729542343e-05 0 -0.14744354784 -0.00012144503853 0 
-0.15141230822 -3.7831770896e-05 0 -0.15573973954 -7.9002129496e-05 0 -0.15972065926 -2.2454654754e-05 0 
-0.16221737862 -8.2094717072e-05 0 -0.16303631663 -3.865614417e-05 0 -0.16296619177 -7.649348845e-05 0 
-0.16252250969 -2.5686789741e-05 0 -0.1614113003 -6.4340638346e-05 0 -0.15966032445 -1.1956925846e-05 0 
-0.1578989774 -3.4325268643e-05 0 -0.15694005787 3.7163015804e-05 0 -0.15698085725 1.8013395675e-05 0 
-0.15755078197 8.3684652054e-05 0 -0.15817095339 5.0681464927e-05 0 -0.15842883289 0.0001121708774 0 
-0.15814507008 6.8467103119e-05 0 -0.15717513859 0.00013364496408 0 -0.15575122833 8.696437726e-05 0 
-0.15385325253 0.00016128865536 0 -0.15152674913 0.00010808333172 0 -0.14830853045 0.00018343493866 0 
-0.14308553934 0.00010198128439 0 -0.13203953207 0.00011750117847 0 -0.10870607942 -3.6855195503e-05 0 
-0.10164456069 4.7670215281e-05 0 -0.12440044433 -0.00010464271327 0 -0.13509020209 -8.480145334e-05 0 
-0.14021354914 -0.00016301115102 0 -0.14393615723 -7.8454919276e-05 0 -0.14742173254 -0.00012633592996 0 
-0.15139321983 -4.0530616388e-05 0 -0.15572986007 -8.4044069808e-05 0 -0.15972393751 -2.5825464036e-05 0 
-0.16222380102 -8.7416665338e-05 0 -0.16303449869 -4.2476567614e-05 0 -0.16295844316 -8.1451966253e-05 0 
-0.16251669824 -2.9023052775e-05 0 -0.16140379012 -6.878797285e-05 0 -0.15964490175 -1.4739978724e-05 0 
-0.15787424147 -3.7993642763e-05 0 -0.15691284835 3.5436765756e-05 0 -0.15695799887 1.5277450075e-05 0 
-0.15753293037 8.2859332906e-05 0 -0.15815767646 4.8613459512e-05 0 -0.15841795504 0.00011215951963 0 
-0.15813581645 6.6863707616e-05 0 -0.15716353059 0.0001343399199 0 -0.1557392031 8.5609870439e-05 0 
-0.15384025872 0.0001626664307 0 -0.1515173912 0.00010675932572 0 -0.14830945432 0.00018549988454 0 
-0.14311975241 0.00010085597023 0 -0.13210833073 0.00011976001406 0 -0.10874644667 -3.9487156755e-05 0 
-0.10167365521 5.0173610362e-05 0 -0.1244661212 -0.00010825363279 0 -0.13512147963 -8.573836385e-05 0 
-0.14020816982 -0.00016796501586 0 -0.14392027259 -8.0587422417e-05 0 -0.14740024507 -0.0001318018476 0 
-0.15137438476 -4.3771226046e-05 0 -0.15572020411 -8.9715249487e-05 0 -0.15972748399 -2.9798011383e-05 0 
-0.16223035753 -9.3377471785e-05 0 -0.16303253174 -4.6875131375e-05 0 -0.16295039654 -8.6974221631e-05 0 
-0.16251061857 -3.2828811527e-05 0 -0.16139598191 -7.3677292676e-05 0 -0.15962904692 -1.7845210095e-05 0 
-0.1578489542 -4.1947801947e-05 0 -0.15688511729 3.3551408706e-05 0 -0.15693469346 1.2419236555e-05 0 
-0.15751467645 8.2025318989e-05 0 -0.15814402699 4.6556771849e-05 0 -0.15840673447 0.0001122595495 0 
-0.15812630951 6.5366526542e-05 0 -0.15715166926 0.00013522556401 0 -0.15572698414 8.439749945e-05 0 
-0.15382707119 0.00016427588707 0 -0.15150786936 0.00010554485925 0 -0.14831013978 0.00018780006212 0 
-0.14315402508 9.9757926364e-05 0 -0.13217782974 0.000122218451 0 -0.1087866649 -4.2244198994e-05 0 
-0.10170341283 5.2775023505e-05 0 -0.12453345954 -0.00011222593457 0 -0.13515365124 -8.6935870058e-05 0 
-0.14020322263 -0.0001734693069 0 -0.14390489459 -8.3209837612e-05 0 -0.14737915993 -0.00013793555263 0 
-0.15135586262 -4.7654062655e-05 0 -0.15571077168 -9.6117495559e-05 0 -0.15973128378 -3.4476128349e-05 0 
-0.16223704815 -0.00010007702804 0 -0.16303038597 -5.1943512517e-05 0 -0.16294197738 -9.3141628895e-05 0 
-0.16250421107 -3.7170677388e-05 0 -0.16138777137 -7.9061966971e-05 0 -0.15961267054 -2.1308453142e-05 0 
-0.15782302618 -4.6207256673e-05 0 -0.15685676038 3.1506770028e-05 0 -0.1569108516 9.4496408565e-06 0 
-0.15749593079 8.121071005e-05 0 -0.1581299603 4.4550281018e-05 0 -0.15839512646 0.0001125205672 0 
-0.15811648965 6.4032697992e-05 0 -0.15713950992 0.00013636208314 0 -0.15571455657 8.3390230429e-05 0 
-0.15381370485 0.00016617721121 0 -0.15149819851 0.00010449424735 0 -0.14831058681 0.00019038682512 0 
-0.14318837225 9.871871589e-05 0 -0.13224808872 0.00012490953668 0 -0.10882680118 -4.513042586e-05 0 
-0.10173399746 5.547510591e-05 0 -0.12460263819 -0.0001166128277 0 -0.13518686593 -8.8454478828e-05 0 
-0.14019882679 -0.00017961296544 0 -0.14389009774 -8.6422005552e-05 0 -0.14735850692 -0.0001448476105 0 
-0.1513376683 -5.2299186791e-05 0 -0.15570160747 -0.00010337193817 0 -0.1597353518 -3.9982875023e-05 0 
-0.16224382818 -0.00010763337923 0 -0.16302800179 -5.7789315179e-05 0 -0.16293312609 -0.00010004920478 0 
-0.16249740124 -4.2125589971e-05 0 -0.16137906909 -8.5002830019e-05 0 -0.15959566832 -2.5169167202e-05 0 
-0.1577963531 -5.0791499234e-05 0 -0.15682767332 2.9305352655e-05 0 -0.15688638389 6.3857542045e-06 0 
-0.15747660398 8.0452562543e-05 0 -0.15811537206 4.264420204e-05 0 -0.15838305652 0.00011300553888 0 
-0.15810632706 6.2934152083e-05 0 -0.15712702274 0.00013782472524 0 -0.15570190549 8.2666796516e-05 0 
-0.15380017459 0.00016844490892 0 -0.15148840845 0.00010367570212 0 -0.14831085503 0.00019332311058 0 
-0.14322288334 9.7778734926e-05 0 -0.13231919706 0.00012787297601 0 -0.10886691511 -4.8149402573e-05 0 
-0.10176558048 5.8273428294e-05 0 -0.12467385828 -0.00012147738744 0 -0.1352212429 -9.0368157544e-05 0 
-0.1401950717 -0.00018650213315 0 -0.14387600124 -9.0344547061e-05 0 -0.14733839035 -0.00015267016715 0 
-0.15131986141 -5.7850320445e-05 0 -0.15569272637 -0.00011162299779 0 -0.15973968804 -4.6464330808e-05 0 
-0.16225068271 -0.00011618631834 0 -0.16302531958 -6.4539024606e-05 0 -0.16292373836 -0.00010780798766 0 
-0.16249005497 -4.7782505135e-05 0 -0.16136975586 -9.15690689e-05 0 -0.15957792103 -2.947030589e-05 0 
-0.15776880085 -5.5720727687e-05 0 -0.15679772198 2.6953102861e-05 0 -0.15686118603 3.2529114833e-06 0 
-0.15745659173 7.9799247032e-05 0 -0.15810018778 4.0902737965e-05 0 -0.15837045014 0.00011379391071 0 
-0.15809576213 6.2160856032e-05 0 -0.15711417794 0.00013970739383 0 -0.15568903089 8.2325263065e-05 0 
-0.15378649533 0.00017117110838 0 -0.15147851408 0.00010317454144 0 -0.14831098914 0.00019668589812 0 
-0.14325758815 9.6989286249e-05 0 -0.13239127398 0.00013115657202 0 -0.10890708864 -5.1303941291e-05 0 
-0.10179838538 6.1168117099e-05 0 -0.12474736571 -0.00012689465075 0 -0.13525699079 -9.2767499154e-05 0 
-0.14019212127 -0.00019426390645 0 -0.1438626945 -9.512349061e-05 0 -0.14731888473 -0.00016156162019 0 
-0.15130251646 -6.4479791035e-05 0 -0.15568415821 -0.00012104322377 0 -0.1597442776 -5.4094150983e-05 0 
-0.16225756705 -0.00012590159895 0 -0.16302226484 -7.2341506893e-05 0 -0.16291372478 -0.00011654790433 0 
-0.16248206794 -5.4244392231e-05 0 -0.16135968268 -9.8839496786e-05 0 -0.15955926478 -3.4259082895e-05 0 
-0.15774022043 -6.101487088e-05 0 -0.15676677227 2.4461161956e-05 0 -0.15683509409 8.620374814e-08 0 
-0.1574357599 7.9313096649e-05 0 -0.15808430314 3.940726674e-05 0 -0.15835723281 0.00011498538515 0 
-0.15808475018 6.1824794102e-05 0 -0.15710094571 0.00014212676615 0 -0.15567593277 8.2487240434e-05 0 
-0.15377266705 0.00017446947459 0 -0.151468575 0.00010309703794 0 -0.14831106365 0.00020056944049 0 
-0.14329260588 9.6415191365e-05 0 -0.13246443868 0.00013481796486 0 -0.10894744098 -5.4595799156e-05 0 
-0.1018326804 6.4155399741e-05 0 -0.12482344359 -0.00013295419922 0 -0.1352943182 -9.5763636637e-05 0 
-0.14019015431 -0.0002030509786 0 -0.14385031164 -0.00010093588935 0 -0.14730009437 -0.00017171233776 0 
-0.15128567815 -7.23945559e-05 0 -0.15567594767 -0.00013183921692 0 -0.15974915028 -6.3079045503e-05 0 
-0.16226442158 -0.000136976043 0 -0.16301871836 -8.1372170825e-05 0 -0.16290293634 -0.00012642107322 0 
-0.16247327626 -6.1630518758e-05 0 -0.16134868562 -0.00010690378258 0 -0.15953950584 -3.9587353967e-05 0 
-0.1577104032 -6.6692795372e-05 0 -0.15673463047 2.1847497919e-05 0 -0.15680794418 -3.0671933473e-06 0 
-0.1574139595 7.9073681263e-05 0 -0.15806756914 3.8260102883e-05 0 -0.15834328532 0.0001167043738 0 
-0.15807318687 6.206476246e-05 0 -0.15708729625 0.00014522741549 0 -0.15566258132 8.3303079009e-05 0 
-0.15375873446 0.00017848011339 0 -0.15145865083 0.00010357519932 0 -0.14831113815 0.00020508903253 0 
-0.14332804084 9.6138028312e-05 0 -0.13253886998 0.00013892679999 0 -0.10898812115 -5.8025329054e-05 0 
-0.10186877847 6.7229026172e-05 0 -0.12490241975 -0.00013976344781 0 -0.13533344865 -9.9493161542e-05 0 
-0.14018933475 -0.00021304738766 0 -0.14383904636 -0.00010799689335 0 -0.14728213847 -0.00018335178902 0 
-0.15126943588 -8.1843587395e-05 0 -0.15566810966 -0.00014425881091 0 -0.15975426137 -7.3665411037e-05 0 
-0.16227118671 -0.00014964364527 0 -0.16301457584 -9.1837828222e-05 0 -0.16289120913 -0.00013760568982 0 
-0.1624635011 -7.0079040597e-05 0 -0.16133654118 -0.000115863877 0 -0.1595184356 -4.5511867938e-05 0 
-0.15767912567 -7.2771348641e-05 0 -0.15670108795 1.9138908101e-05 0 -0.15677955747 -6.1451241891e-06 0 
-0.15739101171 7.9181685578e-05 0 -0.15804983675 3.7589103158e-05 0 -0.15832848847 0.00011910543253 0 
-0.15806102753 6.3052029873e-05 0 -0.15707315505 0.00014918795205 0 -0.15564899147 8.4958090156e-05 0 
-0.15374472737 0.00018337536312 0 -0.15144878626 0.00010477264004 0 -0.14831136167 0.0002103857405 0 
-0.14336402714 9.626015526e-05 0 -0.13261476159 0.00014356734755 0 -0.10902932286 -6.1591017584e-05 0 
-0.10190705955 7.0379472163e-05 0 -0.12498470396 -0.00014745170483 0 -0.13537469506 -0.0001041243886 0 
-0.1401899308 -0.00022447569063 0 -0.14382904768 -0.00011656848801 0 -0.14726512134 -0.00019675724616 0 
-0.15125386417 -9.3126887805e-05 0 -0.15566067398 -0.00015859985433 0 -0.15975961089 -8.6147236289e-05 0 
-0.16227777302 -0.00016418279847 0 -0.16300965846 -0.00010398245649 0 -0.16287833452 -0.00015031041403 0 
-0.16245250404 -7.974995242e-05 0 -0.16132301092 -0.00012583550415 0 -0.15949577093 -5.2094404964e-05 0 
-0.15764611959 -7.9264056694e-05 0 -0.15666587651 1.6373447579e-05 0 -0.15674966574 -9.066912753e-06 0 
-0.15736670792 7.9763514805e-05 0 -0.15803094208 3.7553094444e-05 0 -0.15831269324 0.00012237972987 0 
-0.15804816782 6.4997228037e-05 0 -0.1570584774 0.00015422847355 0 -0.15563516319 8.7680127763e-05 0 
-0.15373069048 0.00018936717242 0 -0.15143911541 0.00010689174087 0 -0.14831182361 0.00021663222287 0 
-0.1434007436 9.69097091e-05 0 -0.13269239664 0.0001488418493 0 -0.10907126963 -6.528889935e-05 0 
-0.10194799304 7.3592978879e-05 0 -0.12507078052 -0.00015617522877 0 -0.13541842997 -0.00010986522102 0 
-0.14019221067 -0.0002376059856 0 -0.14382055402 -0.00012697046623 0 -0.1472492218 -0.00021226481476 0 
-0.15123905241 -0.00010660658154 0 -0.15565368533 -0.00017522096459 0 -0.15976515412 -0.00010087571718 0 
-0.16228404641 -0.00018092496612 0 -0.1630037725 -0.00011809389252 0 -0.16286407411 -0.0001647794852 0 
-0.16244000196 -9.0828216344e-05 0 -0.16130778193 -0.00013694964582 0 -0.15947118402 -5.9401634644e-05 0 
-0.15761107206 -8.6179468781e-05 0 -0.15662866831 1.3603412299e-05 0 -0.15671798587 -1.1729079233e-05 0 
-0.157340765 8.0976817117e-05 0 -0.1580106318 3.8348316593e-05 0 -0.15829573572 0.00012676262122 0 
-0.15803447366 6.8158442446e-05 0 -0.15704320371 0.00016061954375 0 -0.15562108159 9.1748654086e-05 0 
-0.15371666849 0.00019671587506 0 -0.15142971277 0.00011018257646 0 -0.14831274748 0.00022403993353 0 
-0.14343844354 9.8246971902e-05 0 -0.13277205825 0.00015487459314 0 -0.10911426693 -6.9111847552e-05 0 
-0.10199213773 7.6850221376e-05 0 -0.12516121566 -0.00016612379113 0 -0.1354650557 -0.00011697331502 0 
-0.14019651711 -0.00025276726228 0 -0.14381381869 -0.00013959412172 0 -0.14723460376 -0.00023028301075 0 
-0.15122511983 -0.00012272053573 0 -0.15564714372 -0.00019455462461 0 -0.15977084637 -0.00011827072012 0 
-0.16228985786 -0.00020026486891 0 -0.16299666464 -0.00013451160339 0 -0.16284810007 -0.00018129844102 0 
-0.16242566705 -0.00010352725803 0 -0.16129045188 -0.00014935387298 0 -0.15944428742 -6.7504697654e-05 0 
-0.15757356584 -9.3518960057e-05 0 -0.15658912063 1.0899007975e-05 0 -0.15668419003 -1.4000213923e-05 0 
-0.15731288493 8.301690832e-05 0 -0.15798868239 4.0216000343e-05 0 -0.15827740729 0.00013254275837 0 
-0.15801982582 7.2850838478e-05 0 -0.15702727437 0.00016869296087 0 -0.15560677648 9.7505828307e-05 0 
-0.1537027657 0.00020574114751 0 -0.15142075717 0.00011495390208 0 -0.1483143121 0.0002328681876 0 
-0.14347738028 0.00010047238902 0 -0.13285417855 0.00016181716637 0 -0.10915870219 -7.3048606282e-05 0 
-0.10204018652 8.0124627857e-05 0 -0.1252567023 -0.00017752885469 0 -0.13551512361 -0.00012576906011 0 
-0.14020323753 -0.00027036198298 0 -0.14380913973 -0.00015491957311 0 -0.14722146094 -0.00025131000439 0 
-0.15121217072 -0.00014199916041 0 -0.15564107895 -0.0002171232918 0 -0.15977659822 -0.0001388345554 0 
-0.16229502857 -0.00022267250461 0 -0.16298805177 -0.00015363564307 0 -0.16283005476 -0.00020020028751 0 
-0.16240906715 -0.00011809245916 0 -0.16127060354 -0.0001632135245 0 -0.15941460431 -7.6478187111e-05 0 
-0.15753312409 -0.00010127374117 0 -0.15654675663 8.3528302639e-06 0 -0.1566478312 -1.5715220798e-05 0 
-0.15728269517 8.6124353402e-05 0 -0.15796475112 4.3451134843e-05 0 -0.15825745463 0.00014007248683 0 
-0.15800406039 7.9457953689e-05 0 -0.15701059997 0.00017885470879 0 -0.15559223294 0.00010536970512 0 
-0.15368905663 0.00021683545492 0 -0.15141242743 0.00012158688332 0 -0.1483168155 0.00024343536643 0 
-0.14351792634 0.00010383685731 0 -0.13293923438 0.00016985497496 0 -0.10920504481 -7.7082644566e-05 0 
-0.10209296644 8.3380073193e-05 0 -0.1253580898 -0.00019067426911 0 -0.13556924462 -0.00013665249571 0 
-0.14021287858 -0.00029088440351 0 -0.14380688965 -0.0001735377009 0 -0.14721003175 -0.00027595515712 0 
-0.1512003094 -0.00016508615226 0 -0.15563547611 -0.0002435589995 0 -0.15978230536 -0.00016316860274 0 
-0.1622992754 -0.00024870730704 0 -0.16297753155 -0.00017593672965 0 -0.16280946136 -0.00022187235299 0 
-0.16238969564 -0.0001348046062 0 -0.16124767065 -0.00017871218733 0 -0.15938156843 -8.6398336862e-05 0 
-0.15748921037 -0.00010942087829 0 -0.15650105476 6.0850325099e-06 0 -0.15660844743 -1.6668269382e-05 0 
-0.15724974871 9.0593581263e-05 0 -0.15793846548 4.8412577598e-05 0 -0.15823559463 0.00014978001127 0 
-0.15798698366 8.8444852736e-05 0 -0.15699307621 0.00019160029478 0 -0.15557749569 0.00011585024913 0 
-0.15367566049 0.00023048071307 0 -0.15140494704 0.00013055223098 0 -0.14832058549 0.000256133324 0 
-0.14356051385 0.00010865506192 0 -0.13302780688 0.00017921581457 0 -0.10925387591 -8.119053382e-05 0 
-0.10215150565 8.6567866674e-05 0 -0.12546640635 -0.00020591000794 0 -0.13562817872 -0.00015012540098 0 
-0.14022599161 -0.00031494454015 0 -0.1438074708 -0.00019617802172 0 -0.14720056951 -0.0003049664374 0 
-0.15118968487 -0.00019276417152 0 -0.15563033521 -0.00027462749858 0 -0.15978780389 -0.00019199302187 0 
-0.16230230033 -0.0002790344588 0 -0.16296462715 -0.00020196754485 0 -0.16278575361 -0.00024676320027 0 
-0.16236692667 -0.00015398277901 0 -0.16122099757 -0.00019605133275 0 -0.15934449434 -9.7339987406e-05 0 
-0.15744115412 -0.00011791830912 0 -0.15645138919 4.2497540562e-06 0 -0.15656542778 -1.6604326447e-05 0 
-0.15721350908 9.678232891e-05 0 -0.15790937841 5.5534321291e-05 0 -0.15821146965 0.00016218295787 0 
-0.15796837211 0.00010037321772 0 -0.15697458386 0.00020753295394 0 -0.15556256473 0.00012956849241 0 
-0.15366272628 0.00024726887932 0 -0.15139858425 0.00014243175974 0 -0.14832602441 0.00027144569322 0 
-0.14360567927 0.00011532294593 0 -0.13312067091 0.00019018091552 0 -0.10930595547 -8.5339910584e-05 0 
-0.10221705586 8.9622502855e-05 0 -0.12558288872 -0.00022367024212 0 -0.13569284976 -0.00016682046407 0 
-0.14024329185 -0.00034329891787 0 -0.14381140471 -0.00022374429682 0 -0.14719335735 -0.00033926515607 0 
-0.15118041635 -0.00022598676151 0 -0.15562559664 -0.00031125781243 0 -0.15979290009 -0.00022617039212 0 
-0.16230367124 -0.00031444389606 0 -0.16294875741 -0.00023237502319 0 -0.16275823116 -0.00027538929135 0 
-0.16234000027 -0.0001759861625 0 -0.16118977964 -0.00021544814808 0 -0.15930256248 -0.00010937183833 0 
-0.15738813579 -0.00012669818534 0 -0.15639701486 3.0432329368e-06 0 -0.15651807189 -1.5210077436e-05 0 
-0.15717336535 0.0001051219806 0 -0.15787698328 6.5337670094e-05 0 -0.15818466246 0.00017790342099 0 
-0.15794792771 0.00011591841758 0 -0.15695497394 0.00022738508414 0 -0.15554746985 0.00014727952657 0 
-0.15365040302 0.0002679277095 0 -0.15139368176 0.00015794571664 0 -0.14833363891 0.00028997150366 0 
-0.14365412295 0.00012434099335 0 -0.13321872056 0.00020309953834 0 -0.1093621999 -8.9486646175e-05 0 
-0.10229118168 9.2456066341e-05 0 -0.12570907176 -0.00024449711782 0 -0.13576439023 -0.00018754003395 0 
-0.14026561379 -0.00037689099554 0 -0.14381925762 -0.00025736022508 0 -0.14718872309 -0.00037999014603 0 
-0.15117260814 -0.00026591788628 0 -0.1556211561 -0.00035457825288 0 -0.15979728103 -0.00026673381217 0 
-0.16230285168 -0.00035587139428 0 -0.16292914748 -0.00026791309938 0 -0.16272602975 -0.0003083407646 0 
-0.16230802238 -0.0002012137993 0 -0.16115306318 -0.00023713090923 0 -0.15925483406 -0.0001225489541 0 
-0.1573292464 -0.00013565793051 0 -0.15633703768 2.7130993203e-06 0 -0.1564655751 -1.210390019e-05 0 
-0.15712858737 0.0001161284672 0 -0.15784060955 7.844396896e-05 0 -0.15815466642 0.00019768399943 0 
-0.15792530775 0.00013588834554 0 -0.15693405271 0.00025204298436 0 -0.15553219616 0.0001698997512 0 
-0.15363888443 0.00029335284489 0 -0.15139065683 0.0001779874583 0 -0.14834405482 0.00031245639548 0 
-0.14370666444 0.0001363454212 0 -0.13332314789 0.00021840850241 0 -0.10942376405 -9.3571041361e-05 0 
-0.10237579793 9.4950257335e-05 0 -0.12584683299 -0.00026907265419 0 -0.13584417105 -0.00021330855088 0 
-0.140293926 -0.00041690439684 0 -0.14383174479 -0.00029842852382 0 -0.14718700945 -0.00042855500942 0 
-0.15116637945 -0.0003139815235 0 -0.15561683476 -0.00040596103645 0 -0.15980051458 -0.00031492029666 0 
-0.16229914129 -0.00040442278259 0 -0.16290487349 -0.00030945561593 0 -0.1626880765 -0.00034628497087 0 
-0.16226986051 -0.00023010079167 0 -0.1611097157 -0.00026132998755 0 -0.15920013189 -0.00013690140622 0 
-0.15726336837 -0.00014464840933 0 -0.15627044439 3.5695591123e-06 0 -0.15640696883 -6.8251410994e-06 0 
-0.15707828104 0.00013041273633 0 -0.15779951215 9.5586830867e-05 0 -0.15812087059 0.00022240378894 0 
-0.15790009499 0.00016124357353 0 -0.15691158175 0.0002825751726 0 -0.15551674366 0.00019853955018 0 
-0.15362836421 0.00032464825199 0 -0.15138998628 0.00020366822719 0 -0.14835800231 0.00033983375761 0 
-0.14376433194 0.00015215147869 0 -0.13343535364 0.00023665899062 0 -0.10949211568 -9.7512296634e-05 0 
-0.10247330368 9.6943214885e-05 0 -0.12599851191 -0.000298263476 0 -0.13593387604 -0.00024544532062 0 
-0.14032945037 -0.00046483488404 0 -0.14384964108 -0.00034870798117 0 -0.14718858898 -0.00048672175035 0 
-0.15116177499 -0.00037192419404 0 -0.15561236441 -0.00046707733418 0 -0.1598020494 -0.00037221089588 0 
-0.1622916311 -0.00046140019549 0 -0.16287472844 -0.00035800761543 0 -0.16264306009 -0.00038996577496 0 
-0.16222414374 -0.00026310858084 0 -0.1610583514 -0.00028826241032 0 -0.15913712978 -0.00015241696383 0 
-0.15718923509 -0.00015345771681 0 -0.15619601309 5.9986050474e-06 0 -0.1563411206 1.1764680039e-06 0 
-0.15702141821 0.00014868934522 0 -0.15775279701 0.00011762214126 0 -0.158082515 0.00025309287594 0 
-0.15787173808 0.00019311775395 0 -0.15688721836 0.00032026419649 0 -0.15550106764 0.00023454161419 0 
-0.15361906588 0.00036317756167 0 -0.15139222145 0.00023637540289 0 -0.14837637544 0.00037328177132 0 
-0.14382839203 0.00017281502369 0 -0.13355715573 0.00025855543208 0 -0.10956907272 -0.00010119816579 0 
-0.10258671641 9.8207136034e-05 0 -0.12616704404 -0.00033318370697 0 -0.13603559136 -0.00028566439869 0 
-0.14037358761 -0.00052258576034 0 -0.14387390018 -0.00041041173972 0 -0.14719384909 -0.00055669405265 0 
-0.15115876496 -0.00044189146138 0 -0.15560731292 -0.00053996330826 0 -0.15980108082 -0.00044037643238 0 
-0.16227914393 -0.00052832893562 0 -0.16283726692 -0.00041471322766 0 -0.16258938611 -0.00044019610505 0 
-0.16216927767 -0.00030070656794 0 -0.16099734604 -0.00031810702058 0 -0.15906426311 -0.00016901560593 0 
-0.15710535645 -0.00016178935766 0 -0.15611240268 1.0476554053e-05 0 -0.156266734 1.2549086023e-05 0 
-0.15695683658 0.00017178170674 0 -0.15769939125 0.00014553341316 0 -0.15803875029 0.00029094249476 0 
-0.15783955157 0.00023283596965 0 -0.15686051548 0.00036664010258 0 -0.15548504889 0.00027952477103 0 
-0.15361118317 0.00041062737 0 -0.151398018 0.00027784655686 0 -0.1484002471 0.00041429942939 0 
-0.14390045404 0.00019971872098 0 -0.13369078934 0.00028501063935 0 -0.10965697467 -0.00010446774104 0 
-0.10271990299 9.8423632153e-05 0 -0.12635612488 -0.00037527363747 0 -0.13615195453 -0.00033620430622 0 
-0.14042812586 -0.00059258850524 0 -0.14390565455 -0.0004863277718 0 -0.14720319211 -0.00064123154152 0 
-0.15115730464 -0.00052651815349 0 -0.15560115874 -0.00062709586928 0 -0.15979665518 -0.00052152766148 0 
-0.16226026416 -0.00060698244488 0 -0.16279065609 -0.00048085596063 0 -0.1625251472 -0.00049783999566 0 
-0.16210335493 -0.00034334108932 0 -0.1609248966 -0.00035096713691 0 -0.15897978842 -0.00018651370192 0 
-0.15701013803 -0.00016923404473 0 -0.15601812303 1.7585538444e-05 0 -0.15618245304 2.8044778446e-05 0 
-0.15688323975 0.00020062022668 0 -0.15763813257 0.00018042880401 0 -0.15798853338 0.00033730690484 0 
-0.1578027606 0.00028192769969 0 -0.15683098137 0.00042351314914 0 -0.1554685384 0.00033543162863 0 
-0.15360495448 0.00046908418881 0 -0.1514081955 0.0003302617115 0 -0.14843095839 0.00046480662422 0 
-0.14398252964 0.00023468821018 0 -0.13383921981 0.00031721635605 0 -0.10975886136 -0.0001070950384 0 
-0.1028778106 9.7153286333e-05 0 -0.12657044828 -0.00042640935862 0 -0.13628618419 -0.00040001611342 0 
-0.14049507678 -0.00067797594238 0 -0.1439461112 -0.00057998287957 0 -0.14721688628 -0.00074380420847 0 
-0.15115702152 -0.00062904914375 0 -0.15559285879 -0.00073149328819 0 -0.15978717804 -0.00061818008544 0 
-0.16223286092 -0.00069940864341 0 -0.16273245215 -0.00055785034783 0 -0.16244778037 -0.0005637780996 0 
-0.16202390194 -0.00039138377178 0 -0.16083861887 -0.00038681051228 0 -0.15888153017 -0.00020456788479 0 
-0.15690164268 -0.00017522927374 0 -0.15591138601 2.803318057e-05 0 -0.15608654916 4.8519792472e-05 0 
-0.15679901838 0.00023622784647 0 -0.15756748617 0.00022352335509 0 -0.15793047845 0.00039369147271 0 
-0.15776018798 0.0003421313304 0 -0.15679769218 0.00049300602404 0 -0.15545105934 0.00040458500735 0 
-0.15360035002 0.00054113590159 0 -0.15142346919 0.00039637074224 0 -0.14846992493 0.00052729429444 0 
-0.1440770328 0.00028017183649 0 -0.13400608301 0.00035675248364 0 -0.10987861454 -0.00010875830048 0 
-0.10306632519 9.3660390121e-05 0 -0.12681543827 -0.00048916134983 0 -0.13644164801 -0.0004811140243 0 
-0.14057615399 -0.0007828787202 0 -0.14399589598 -0.00069589738268 0 -0.14723442495 -0.0008688303642 0 
-0.15115654469 -0.00075353303691 0 -0.15558031201 -0.00085687986575 0 -0.15976986289 -0.00073336216155 0 
-0.16219350696 -0.00080796924885 0 -0.16265879571 -0.0006472201203 0 -0.16235342622 -0.00063884467818 0 
-0.16192723811 -0.00044503971003 0 -0.16073511541 -0.00042536176625 0 -0.15876638889 -0.00022257430828 0 
-0.15677703917 -0.00017898881924 0 -0.15578958392 4.2678766476e-05 0 -0.15597648919 7.4921023042e-05 0 
-0.1567016542 0.00027967963251 0 -0.15748496354 0.00027609139215 0 -0.15786218643 0.00046171562281 0 
-0.15770956874 0.0004153859918 0 -0.15675869584 0.00057758722687 0 -0.15543112159 0.00048976222752 0 
-0.15359646082 0.00063001707895 0 -0.15144380927 0.00047968630679 0 -0.14851804078 0.00060508272145 0 
-0.14418628812 0.00033957566484 0 -0.13419547677 0.00040584729868 0 -0.11002069712 -0.00010885871598 0 
-0.10329318047 8.6425774498e-05 0 -0.12709805369 -0.00056727259653 0 -0.13662278652 -0.0005850730231 0 
-0.14067366719 -0.00091279007029 0 -0.14405620098 -0.00083985686069 0 -0.1472555697 -0.0010219312971 0 
-0.15115478635 -0.00090503168758 0 -0.15556158125 -0.0010078658815 0 -0.15974202752 -0.00087072403403 0 
-0.1621388793 -0.00093535432825 0 -0.16256600618 -0.00075053574983 0 -0.16223850846 -0.00072371959686 0 
-0.16181008518 -0.0005042097182 0 -0.16061148047 -0.00046594761079 0 -0.15863190591 -0.00023952646006 0 
-0.15663430095 -0.00017940909311 0 -0.15565097332 6.2555882323e-05 0 -0.15585055947 0.00010824536002 0 
-0.15658937395 0.00033202036866 0 -0.15738870203 0.00033937164699 0 -0.15778176486 0.00054303067736 0 
-0.15764908493 0.00050378614105 0 -0.15671238303 0.00068007537629 0 -0.15540756285 0.00059424963547 0 
-0.15359269083 0.00073975301348 0 -0.15146975219 0.00058469135547 0 -0.14857690036 0.00070264923852 0 
-0.14431376755 0.00041773353587 0 -0.13441319764 0.00046780961566 0 -0.11019152403 -0.00010611482867 0 
-0.10357368737 7.3073904787e-05 0 -0.12743230164 -0.00066573813092 0 -0.13684035838 -0.0007191603072 0 
-0.14079575241 -0.0010746250628 0 -0.14413382113 -0.0010188919259 0 -0.14728567004 -0.0012099165469 0 
-0.15115612745 -0.0010895567248 0 -0.15554018319 -0.001189868548 0 -0.15970633924 -0.0010344305774 0 
-0.16207097471 -0.0010844428325 0 -0.1624558419 -0.00086926319636 0 -0.16210506856 -0.00081878621131 0 
-0.16167497635 -0.00056836020667 0 -0.16047082841 -0.00050738226855 0 -0.15848185122 -0.00025393182295 0 
-0.15647776425 -0.00017503292474 0 -0.15550009906 8.8853172201e-05 0 -0.15571328998 0.00014947343152 0 
-0.15646657348 0.00039416085929 0 -0.15728279948 0.00041443912778 0 -0.15769313276 0.00063918030355 0 
-0.15758261085 0.00060945126461 0 -0.15666277707 0.00080352753866 0 -0.15538474917 0.00072176021058 0 
-0.15359403193 0.00087515602354 0 -0.15150749683 0.00071687466698 0 -0.14865396917 0.00082578684669 0 
-0.14446952939 0.00052116566803 0 -0.13467252254 0.00054715696024 0 -0.11040607095 -9.8538686871e-05 0 
-0.10393044353 5.1235481806e-05 0 -0.12783667445 -0.00079038972035 0 -0.13710683584 -0.00089242233662 0 
-0.14095009863 -0.0012768784072 0 -0.14423409104 -0.0012413057266 0 -0.14732755721 -0.001440768363 0 
-0.15116158128 -0.0013139628572 0 -0.15551540256 -0.0014089839533 0 -0.15966048837 -0.0012290190207 0 
-0.16198633611 -0.0012581284391 0 -0.16232454777 -0.0010045790114 0 -0.16194982827 -0.00092396308901 0 
-0.16151946783 -0.00063636805862 0 -0.16031177342 -0.00054782751249 0 -0.1583160609 -0.00026371330023 0 
-0.15630832314 -0.00016401422909 0 -0.15533842146 0.00012288628204 0 -0.1555660069 0.00019949539274 0 
-0.15633414686 0.0004667599278 0 -0.15716764331 0.00050204776926 0 -0.157596156 0.00075141846901 0 
-0.15750977397 0.00073434744263 0 -0.15660959482 0.00095107825473 0 -0.15536291897 0.00087632075883 0 
-0.15360164642 0.0010418293532 0 -0.15156002343 0.00088281463832 0 -0.14875431359 0.00098189688288 0 
-0.14466293156 0.00065845489735 0 -0.13498832285 0.00064965622732 0 -0.11068282276 -8.3682440163e-05 0 
-0.10434894264 1.2631448044e-05 0 -0.12828837335 -0.00095273990883 0 -0.1373886466 -0.0011197669664 0 
-0.14109496772 -0.0015325396089 0 -0.14431144297 -0.0015187780373 0 -0.14733184874 -0.0017256361898 0 
-0.1511182487 -0.0015880045248 0 -0.15543065965 -0.0016739910934 0 -0.15954443812 -0.0014609057689 0 
-0.16182272136 -0.001459985855 0 -0.162109375 -0.0011573394295 0 -0.16171099246 -0.0010382984765 0 
-0.16128328443 -0.00070581358159 0 -0.16007612646 -0.00058378046378 0 -0.15807883441 -0.00026512768818 0 
-0.15607245266 -0.00014334966545 0 -0.15511338413 0.00016632513143 0 -0.15535596013 0.00025887752417 0 
-0.1561383456 0.00054975104285 0 -0.15698817372 0.00060214963742 0 -0.15743473172 0.00088041037088 0 
-0.15737392008 0.00088029482868 0 -0.1564963758 0.0011262480402 0 -0.1552863121 0.001062870957 0 
-0.15356115997 0.0012471141526 0 -0.15157540143 0.0010915154126 0 -0.14882910252 0.001182152424 0 
-0.1448521167 0.00084340275498 0 -0.13532708585 0.00078622048022 0 -0.11099147052 -5.3732717788e-05 0 
-0.1047944352 -8.005197742e-05 0 -0.12874020636 -0.0011847063433 0 -0.13763028383 -0.0014296417357 0 
-0.14116989076 -0.0018632155843 0 -0.14430573583 -0.0018693174934 0 -0.14723752439 -0.00208243425 0 
-0.15096352994 -0.0019289022312 0 -0.15522065759 -0.0020011281595 0 -0.15929017961 -0.0017418985954 0 
-0.16151079535 -0.001695615123 0 -0.16174177825 -0.0013277713442 0 -0.16132190824 -0.0011589516653 0 
-0.1609018892 -0.00077139178757 0 -0.15970179439 -0.00060770765413 0 -0.15771117806 -0.00025011299294 0 
-0.15571379662 -0.00010698458937 0 -0.15476955473 0.00022165919654 0 -0.15502686799 0.00032702970202 0 
-0.15582101047 0.00064096035203 0 -0.15668402612 0.00071261962876 0 -0.15714652836 0.0010255132802 0 
-0.15711149573 0.0010490173008 0 -0.15625886619 0.001333629596 0 -0.15509043634 0.0012883854797 0 
-0.15340815485 0.0015015464742 0 -0.15149001777 0.0013563546818 0 -0.14881616831 0.0014451262541 0 
-0.14498303831 0.0011016561184 0 -0.13564820588 0.00098424672615 0 -0.11131017655 2.1403557184e-05 0 
-0.10567499697 -0.00029307111981 0 -0.12954621017 -0.001531294547 0 -0.13818058372 -0.0018511632225 0 
-0.14152853191 -0.0022879473399 0 -0.14458076656 -0.002307617804 0 -0.14741747081 -0.0025277391542 0 
-0.15107811987 -0.0023543324787 0 -0.1552721709 -0.0024079836439 0 -0.15928892791 -0.0020840780344 0 
-0.16144618392 -0.001968935132 0 -0.16162194312 -0.0015133956913 0 -0.16118605435 -0.001280624303 0 
-0.16077974439 -0.00082553207176 0 -0.15959355235 -0.00060937553644 0 -0.15761852264 -0.0002078563557 0 
-0.15563839674 -4.723634629e-05 0 -0.15471178293 0.00029116630321 0 -0.15498170257 0.00040141967474 0 
-0.15578280389 0.00073556334246 0 -0.15665358305 0.00082865695003 0 -0.15712757409 0.0011837967904 0 
-0.15711596608 0.0012404874433 0 -0.15628778934 0.0015763944248 0 -0.15516249835 0.0015584827634 0 
-0.15352603793 0.0018144630594 0 -0.15168324113 0.0016899196198 0 -0.14909225702 0.001792527386 0 
-0.14543987811 0.0014695235295 0 -0.13636414707 0.0012967508519 0 -0.11215603352 0.00021530558297 0 
-0.10790469497 -0.00063207658241 0 -0.13150028884 -0.0019880451728 0 -0.1398075968 -0.0023721770849 0 
-0.14294062555 -0.0027937698178 0 -0.14591582119 -0.0028168505523 0 -0.14866326749 -0.0030457791872 0 
-0.15226557851 -0.0028477883898 0 -0.15639969707 -0.0028792286757 0 -0.16036370397 -0.0024733820464 0 
-0.16245958209 -0.0022688282188 0 -0.16258738935 -0.0017062936677 0 -0.16214458644 -0.0013983937679 0 
-0.16175743937 -0.00086586578982 0 -0.16059045494 -0.00058857328258 0 -0.15863855183 -0.00013974361354 0 
-0.15668268502 3.3903063013e-05 0 -0.15577416122 0.00037294815411 0 -0.15605230629 0.00047995115165 0 
-0.15685375035 0.00083103479119 0 -0.15772515535 0.00094676576555 0 -0.1582043916 0.0013505738461 0 
-0.15821105242 0.0014485401334 0 -0.15740345418 0.0018473983509 0 -0.15631753206 0.0018651437713 0 
-0.15472385287 0.0021789642051 0 -0.15295597911 0.0020863865502 0 -0.15044921637 0.0022280295379 0 
-0.14700515568 0.0019644091371 0 -0.13825179636 0.0017684368649 0 -0.11434071511 0.00060255586868 0 
-0.11184398085 -0.0010850114049 0 -0.13498838246 -0.0025345541071 0 -0.14290678501 -0.0029611969367 0 
-0.14581122994 -0.0033488443587 0 -0.14872130752 -0.0033568567596 0 -0.15139091015 -0.0035931263119 0 
-0.15494574606 -0.0033615301363 0 -0.15902630985 -0.0033684042282 0 -0.16293941438 -0.0028710917104 0 
-0.16497866809 -0.002570286626 0 -0.16506959498 -0.0018938789144 0 -0.16463144124 -0.0015079664299 0 
-0.16426883638 -0.00089516065782 0 -0.16312643886 -0.00055491871899 0 -0.16120585799 -5.9118199715e-05 0 
-0.15928196907 0.00012509411317 0 -0.15839119256 0.00046138299513 0 -0.15867187083 0.00056152167963 0 
-0.15946571529 0.00092771218624 0 -0.16032919288 0.0010654064827 0 -0.16080616415 0.0015200700145 0 
-0.16082426906 0.0016616367502 0 -0.16003192961 0.0021297913045 0 -0.15897859633 0.0021869300399 0 
-0.15742106736 0.002570384182 0 -0.15572032332 0.0025156131014 0 -0.15328839421 0.0027163242921 0 
-0.15005977452 0.002523469273 0 -0.14166878164 0.0022917715833 0 -0.11818351597 0.0010248332983 0 
-0.11729624867 -0.0014986975584 0 -0.1398999691 -0.003060619114 0 -0.14740258455 -0.0035463238601 0 
-0.15008804202 -0.0039065186866 0 -0.15295284986 -0.0038831136189 0 -0.15555939078 -0.0041258409619 0 
-0.15907651186 -0.0038501925301 0 -0.16310730577 -0.0038321902975 0 -0.16696815193 -0.0032408188563 0 
-0.16895440221 -0.0028482475318 0 -0.16902020574 -0.0020620732103 0 -0.16859915853 -0.00160329754 0 
-0.16826701164 -0.00091425678693 0 -0.16715623438 -0.00051532650832 0 -0.16527751088 2.3686336135e-05 0 
-0.16339479387 0.00021709631255 0 -0.16252245009 0.00055083353072 0 -0.1627998054 0.00064354855567 0 
-0.1635773778 0.0010237280512 0 -0.16442324221 0.0011809541611 0 -0.16488960385 0.0016847545048 0 
-0.16491132975 0.0018670817371 0 -0.16412854195 0.0024054585956 0 -0.16309970617 0.0025005682837 0 
-0.16156975925 0.002960044425 0 -0.15992324054 0.0029405578971 0 -0.15754987299 0.0032100393437 0 
-0.15452904999 0.0030720396899 0 -0.14653263986 0.0027948692441 0 -0.12360979617 0.0014260058524 0 
-0.12417107821 -0.0018490604125 0 -0.14612324536 -0.0035101133399 0 -0.15319402516 -0.0040552052669 0 
-0.15568640828 -0.0044137975201 0 -0.15853253007 -0.0043499069288 0 -0.16109535098 -0.0046029705554 0 
-0.16458562016 -0.0042754588649 0 -0.16857025027 -0.0042357048951 0 -0.17237687111 -0.0035534643102 0 
-0.17431381345 -0.0030814281199 0 -0.17436639965 -0.0021975736599 0 -0.17397476733 -0.0016774019459 0 
-0.17367902398 -0.00092167616822 0 -0.17260758579 -0.00047278220882 0 -0.17078234255 0.00010315118561 0 
-0.16894933581 0.00030439821421 0 -0.16809730232 0.00063667696668 0 -0.16836602986 0.0007225596346 0 
-0.16911900043 0.0011153751984 0 -0.16993752122 0.0012881112052 0 -0.17038467526 0.0018361362163 0 
-0.17040149868 0.0020522794221 0 -0.1696216166 0.0026568137109 0 -0.16860724986 0.0027833194472 0 
-0.16709379852 0.0033187964 0 -0.16548417509 0.0033239258919 0 -0.16314932704 0.0036625673529 0 
-0.16031941772 0.0035503280815 0 -0.15274706483 0.0032277451828 0 -0.1304987669 0.0017695005517 0 
-0.1323903203 -0.0021245796233 0 -0.15359526873 -0.0038530889433 0 -0.16022102535 -0.004438336473 0 
-0.1625534147 -0.0048232786357 0 -0.16540940106 -0.0047141057439 0 -0.16795125604 -0.0049858661368 0 
-0.17142780125 -0.0046030483209 0 -0.17537212372 -0.0045489314944 0 -0.17912457883 -0.0037847307976 0 
-0.18101760745 -0.0032519132365 0 -0.18106903136 -0.0022887454834 0 -0.18071810901 -0.0017234776169 0 
-0.18046401441 -0.00091499229893 0 -0.17943900824 -0.00042827759171 0 -0.17767769098 0.00017629643844 0 
-0.17590174079 0.00038347041118 0 -0.17507195473 0.00071531382855 0 -0.17532767355 0.0007952178712 0 
-0.17604906857 0.0011986304307 0 -0.17683164775 0.0013812925899 0 -0.17725162208 0.0019657076336 0 
-0.17725479603 0.002204996068 0 -0.17647026479 0.0028666621074 0 -0.17545847595 0.0030129214283 0 
-0.17394798994 0.0036180261523 0 -0.17235462368 0.0036312248558 0 -0.17003646493 0.0040345615707 0 
-0.1673745513 0.0039160661399 0 -0.16024699807 0.003562382888 0 -0.13877181709 0.0020406455733 0 
-0.14186015725 -0.002317909617 0 -0.16224163771 -0.0040732580237 0 -0.16842348874 -0.0046632927842 0 
-0.17063456774 -0.0050972164609 0 -0.17352831364 -0.0049382862635 0 -0.17607346177 -0.0052396776155 0 
-0.17955088615 -0.0048028132878 0 -0.18346303701 -0.0047461572103 0 -0.18716402352 -0.0039146491326 0 
-0.18902055919 -0.0033451821655 0 -0.18908248842 -0.002326073125 0 -0.18878187239 -0.0017355247401 0 
-0.18857337534 -0.00089157477487 0 -0.18760047853 -0.00038168914034 0 -0.18591104448 0.0002415595809 0 
-0.18419750035 0.00045207492076 0 -0.18339164555 0.00078417634359 0 -0.18363116682 0.00085879303515 0 
-0.18431591988 0.0012699384242 0 -0.18505598605 0.0014555261005 0 -0.18544241786 0.0020658562426 0 
-0.18542417884 0.0023142367136 0 -0.18462768197 0.0030191300903 0 -0.18360620737 0.0031686420552 0 
-0.18208420277 0.0038309006486 0 -0.1804844588 0.0038320110179 0 -0.17815941572 0.0042945113964 0 
-0.17563423514 0.0041420548223 0 -0.16895757616 0.0037843540777 0 -0.14834041893 0.0022313068621 0 
-0.15246163309 -0.0024207551032 0 -0.17196524143 -0.0041594598442 0 -0.17772246897 -0.0047068353742 0 
-0.17985624075 -0.0052050026134 0 -0.18281258643 -0.0049914144911 0 -0.1853838861 -0.0053348019719 0 
-0.18887594342 -0.0048498553224 0 -0.19276513159 -0.0048065651208 0 -0.19641952217 -0.0039279265329 0 
-0.19824840128 -0.00335048954 0 -0.19833143055 -0.0023026594426 0 -0.19808827341 -0.0017089290777 0 
-0.19792768359 -0.00084924546536 0 -0.19701048732 -0.00033260296914 0 -0.19539766014 0.00029807831743 0 
-0.19374930859 0.00050882139476 0 -0.19296841323 0.00084163685096 0 -0.19318987429 0.00091152486857 0 
-0.19383533299 0.0013268968323 0 -0.19452904165 0.0015073852846 0 -0.19487811625 0.0021310683805 0 
-0.19483290613 0.0023717840668 0 -0.19401930273 0.0031016308349 0 -0.19297847152 0.0032334814314 0 
-0.19143334031 0.0039340760559 0 -0.18980683386 0.0038995034993 0 -0.18745207787 0.0044143237174 0 
-0.18502175808 0.0042079556733 0 -0.17877605557 0.0038893986493 0 -0.15908196568 0.0023443445098 0 
-0.16402611136 -0.0024225499947 0 -0.18262220919 -0.0041028228588 0 -0.18799094856 -0.0045524984598 0 
-0.19009019434 -0.005123487208 0 -0.19312401116 -0.0048516583629 0 -0.19573688507 -0.005250077229 0 
-0.19925247133 -0.0047269458883 0 -0.20312681794 -0.004715653602 0 -0.20674067736 -0.0038146765437 0 
-0.20855125785 -0.0032613081858 0 -0.20866388083 -0.0022146035917 0 -0.20848242939 -0.0016408640658 0 
-0.20837014914 -0.00078671565279 0 -0.20750977099 -0.00028086930979 0 -0.20597460866 0.00034513225546 0 
-0.20439128578 0.00055278860964 0 -0.20363549888 0.00088691886049 0 -0.2038384974 0.00095282506663 0 
-0.20444461703 0.0013686822494 0 -0.20509126782 0.0015356207732 0 -0.20540228486 0.0021588956006 0 
-0.20532782376 0.0023737822194 0 -0.20449569821 0.0031075789593 0 -0.20343157649 0.003198384773 0 
-0.20185998082 0.0039133699611 0 -0.20019726455 0.0038160113618 0 -0.19780145586 0.0043698488735 0 
-0.19542390108 0.0040895342827 0 -0.18956227601 0.0038657386322 0 -0.17079129815 0.002375256503 0 
-0.17621324956 -0.002307331888 0 -0.19393479824 -0.0038938417565 0 -0.19896565378 -0.004192667082 0 
-0.20106138289 -0.0048444997519 0 -0.20416896045 -0.0045145512559 0 -0.20682443678 -0.004979130812 0 
-0.21036313474 -0.0044285804033 0 -0.21422699094 -0.0044675501995 0 -0.21780580282 -0.0035715906415 0 
-0.21960611641 -0.0030759021174 0 -0.21975323558 -0.0020613295492 0 -0.21963399649 -0.0015305785928 0 
-0.21956837177 -0.00070381420664 0 -0.21876347065 -0.00022689037723 0 -0.21730268002 0.00038210806088 0 
-0.21578139067 0.00058341259137 0 -0.21505001187 0.00092012650566 0 -0.21523587406 0.00098343903664 0 
-0.21580567956 0.0013962917728 0 -0.21640826762 0.0015414663358 0 -0.21668429673 0.0021504361648 0 
-0.21658237278 0.0023216486443 0 -0.21573501825 0.0030383493286 0 -0.21465103328 0.0030661295168 0 
-0.21306040883 0.0037710343022 0 -0.21136806905 0.0035843974911 0 -0.20893988013 0.0041554132476 0 
-0.20658870041 0.0037702147383 0 -0.20106217265 0.0036674407311 0 -0.18316993117 0.002246293705 0 
-0.18844334781 -0.0019995486364 0 -0.20535385609 -0.0034974550363 0 -0.21008528769 -0.0036329410505 0 
-0.21218372881 -0.0043823490851 0 -0.21533963084 -0.0040001836605 0 -0.21802173555 -0.0045366333798 0 
-0.2215718329 -0.0039661792107 0 -0.22542311251 -0.0040693623014 0 -0.22896900773 -0.0032051117159 0 
-0.23076251149 -0.0027993146796 0 -0.23094278574 -0.0018466921756 0 -0.23088119924 -0.001380006317 0 
-0.23085817695 -0.00060158508131 0 -0.23010474443 -0.00017107745225 0 -0.22871144116 0.00040898731095 0 
-0.22724664211 0.00060119893169 0 -0.22653855383 0.00094273715513 0 -0.22671091557 0.0010058358312 0 
-0.22725096345 0.0014129669871 0 -0.22781679034 0.0015292013995 0 -0.22806511819 0.00211110292 0 
-0.22794228792 0.0022229875904 0 -0.22708778083 0.0029042065144 0 -0.22599428892 0.0028519218322 0 
-0.2244015187 0.0035264538601 0 -0.22270174325 0.0032295424026 0 -0.22027291358 0.0037899317686 0 
-0.21795669198 0.0032611987554 0 -0.21274749935 0.0032839039341 0 -0.19568742812 0.0019283058355 0 
-0.19973520935 -0.0015113279223 0 -0.21586956084 -0.0029421274085 0 -0.22029031813 -0.0029218767304 0 
-0.22235423326 -0.0037831049412 0 -0.22551040351 -0.0033555214759 0 -0.22818633914 -0.0039609381929 0 
-0.23172472417 -0.0033723532688 0 -0.23555271327 -0.0035466703121 0 -0.23906125128 -0.0027363754343 0 
-0.24084316194 -0.0024467890617 0 -0.24104638398 -0.0015809357865 0 -0.24103185534 -0.0011947295861 0 
-0.24104522169 -0.00048207680811 0 -0.24033737183 -0.00011269836978 0 -0.23900270462 0.0004281194706 0 
-0.23758745193 0.00060938060051 0 -0.23690210283 0.00095849880017 0 -0.2370672971 0.0010244359728 0 
-0.23758748174 0.0014241238823 0 -0.23812763393 0.0015060544247 0 -0.23835931718 0.0020506740548 0 
-0.23822638392 0.0020916624926 0 -0.23737630248 0.0027241050266 0 -0.2362882942 0.0025826056954 0 
-0.23471489549 0.003216017969 0 -0.23303881288 0.002802364761 0 -0.23065789044 0.0033342503011 0 
-0.22843173146 0.0026357444003 0 -0.2235905081 0.0027449557092 0 -0.20735357702 0.0014042801922 0 
-0.20853734016 -0.00092766265152 0 -0.22392186522 -0.0023336452432 0 -0.22797676921 -0.0021816913504 0 
-0.22993512452 -0.0031413545366 0 -0.23303417861 -0.0026607848704 0 -0.235660851 -0.0033190427348 0 
-0.23915590346 -0.0027072490193 0 -0.24294044077 -0.0029509537853 0 -0.2463991046 -0.0022070717532 0 
-0.24815526605 -0.0020468323492 0 -0.248362571 -0.0012815733207 0 -0.24837988615 -0.0009837304242 0 
-0.2484228313 -0.00034680738463 0 -0.24775463343 -4.688248373e-05 0 -0.24647016823 0.00044794398127 0 
-0.24509802461 0.00061674549943 0 -0.24443620443 0.00097444828134 0 -0.24460253119 0.0010448805988 0 
-0.24511435628 0.0014357025502 0 -0.24564163387 0.0014804019593 0 -0.24586927891 0.0019818122964 0 
-0.245739609 0.0019466419471 0 -0.24490702152 0.0025241354015 0 -0.24384145439 0.0022930887062 0 
-0.24230742455 0.0028860252351 0 -0.24068208039 0.0023688899819 0 -0.2383852452 0.0028850797098 0 
-0.23630091548 0.0020442197565 0 -0.23188003898 0.0022092575673 0 -0.21653227508 0.00082688411931 0 
-0.21360765398 -0.00043514379649 0 -0.22826495767 -0.0018419635016 0 -0.23194272816 -0.0015619181795 0 
-0.23375166953 -0.002567598829 0 -0.23675923049 -0.0020100488327 0 -0.23930072784 -0.0026980834082 0 
-0.24272322655 -0.0020563500002 0 -0.24644204974 -0.0023600596469 0 -0.24983602762 -0.0016790209338 0 
-0.25154909492 -0.0016389890807 0 -0.25173920393 -0.00097042421112 0 -0.25177270174 -0.00075697811553 0 
-0.25183942914 -0.00019470723055 0 -0.25120562315 3.7758894905e-05 0 -0.24996416271 0.00048540515127 0 
-0.2486294508 0.00063894555205 0 -0.24799235165 0.0010003743228 0 -0.24816800654 0.0010718519334 0 
-0.24868191779 0.0014511534246 0 -0.24920807779 0.0014586340403 0 -0.24944312871 0.0019173021428 0 
-0.24932977557 0.001809726702 0 -0.24852648377 0.0023353684228 0 -0.24749925733 0.0020225830376 0 
-0.24602006376 0.0025828757789 0 -0.24446280301 0.0019832525868 0 -0.2422581315 0.0025098714978 0 
-0.24031247199 0.0015936703421 0 -0.23623816669 0.0018800713588 0 -0.2216399312 0.00049609487178 0 
-0.21553970873 -0.00023766577942 0 -0.22962869704 -0.0015880219871 0 -0.23302774131 -0.0011169371428 0 
-0.23470364511 -0.0021138365846 0 -0.23762209713 -0.001463433262 0 -0.24006585777 -0.0021666933317 0 
-0.24340516329 -0.0014930811012 0 -0.24705040455 -0.0018435803941 0 -0.25037634373 -0.0012066573836 0 
-0.2520378828 -0.001256821095 0 -0.25219643116 -0.00066492415499 0 -0.25223439932 -0.00052204699023 0 
-0.25231981277 -2.3919612431e-05 0 -0.25171425939 0.00015244772658 0 -0.25050744414 0.00055696716299 0 
-0.2492030412 0.0006907969364 0 -0.24858999252 0.0010448214598 0 -0.24878096581 0.0011082653655 0 
-0.24930542707 0.0014718652237 0 -0.24984037876 0.0014446298592 0 -0.25009176135 0.0018669880228 0 
-0.25000444055 0.0016988174757 0 -0.24923719466 0.0021840108093 0 -0.24825748801 0.0018033516826 0 
-0.24683956802 0.0023425957188 0 -0.24535705149 0.0016783886822 0 -0.24323789775 0.0022265911102 0 
-0.24140800536 0.0012623235816 0 -0.23757518828 0.0016718170373 0 -0.22348238528 0.00029650994111 0 
-0.21632683277 -0.00012083797628 0 -0.23000489175 -0.0014155781828 0 -0.23321950436 -0.00077219679952 0 
-0.23479452729 -0.0017577788094 0 -0.23764392734 -0.0010185204446 0 -0.23999974132 -0.0017325867666 0 
-0.24326655269 -0.0010268393671 0 -0.24684976041 -0.0014113245998 0 -0.25011968613 -0.00079846964218 0 
-0.25173431635 -0.00090822897619 0 -0.25185739994 -0.00037128993426 0 -0.25189337134 -0.00028289930196 0 
-0.2519929409 0.00016335358669 0 -0.25140845776 0.00029621107387 0 -0.25022661686 0.00066297012381 0 
-0.24894377589 0.0007739366265 0 -0.24835169315 0.001110950252 0 -0.2485614568 0.0011582379229 0 
-0.24910308421 0.0015028214548 0 -0.2496548146 0.0014438673388 0 -0.24992902577 0.0018371989718 0 
-0.24987313151 0.0016204204876 0 -0.24914285541 0.0020772800781 0 -0.24821087718 0.0016419952735 0 
-0.24685028195 0.0021714444738 0 -0.24543716013 0.0014565119054 0 -0.24338932335 0.0020335761365 0 
-0.24165695906 0.0010352819227 0 -0.23801122606 0.0015538936714 0 -0.22436006367 0.00018881590222 0 
-0.2170252949 -3.4379256249e-05 0 -0.2302980423 -0.00128990144 0 -0.23336496949 -0.00049758132081 0 
-0.23485951126 -0.0014743111096 0 -0.23765967786 -0.00064951577224 0 -0.23994505405 -0.0013714027591 0 
-0.24315673113 -0.00063139898703 0 -0.24669535458 -0.0010392680997 0 -0.24992527068 -0.00043734384235 0 
-0.25150302052 -0.00058666575933 0 -0.25159308314 -8.9487766672e-05 0 -0.25162476301 -4.1655006498e-05 0 
-0.25173553824 0.00036248672404 0 -0.25116622448 0.00046112621203 0 -0.25000172853 0.00079443107825 0 
-0.24873310328 0.00088223646162 0 -0.24815870821 0.0011984159937 0 -0.24838885665 0.0012261586962 0 
-0.24895198643 0.001550663379 0 -0.24952585995 0.0014624837786 0 -0.24982699752 0.0018320040544 0 
-0.24980480969 0.0015745472629 0 -0.24910993874 0.0020114299841 0 -0.24822191894 0.0015304451808 0 
-0.24691081047 0.0020577043761 0 -0.24555651844 0.0012996529695 0 -0.2435631305 0.0019088354893 0 
-0.24190825224 0.00087957637152 0 -0.23841062188 0.0014912616462 0 -0.22519472241 0.00012358414824 0 
-0.21763087809 3.7914112909e-05 0 -0.23049354553 -0.0011962365825 0 -0.23343920708 -0.00027122301981 0 
-0.23487067223 -0.0012446233304 0 -0.23763756454 -0.00033770967275 0 -0.23986826837 -0.0010656155646 0 
-0.24303892255 -0.00028936719173 0 -0.24654693902 -0.00071195414057 0 -0.24974957108 -0.00011214084225 0 
-0.25130003691 -0.00028692610795 0 -0.2513615787 0.00018135218124 0 -0.25138890743 0.00020000113 0 
-0.25150990486 0.0005703541683 0 -0.25095248222 0.00064190884586 0 -0.24980090559 0.00094577111304 0 
-0.24854211509 0.0010117773199 0 -0.24798318744 0.0013064675732 0 -0.2482342869 0.0013140261872 0 
-0.24882124364 0.0016188827576 0 -0.24942022562 0.0015038530109 0 -0.24975046515 0.0018535628915 0 
-0.24976280332 0.0015609163092 0 -0.24910154939 0.00198361394 0 -0.24825364351 0.0014627913479 0 
-0.24698534608 0.0019926070236 0 -0.24568070471 0.00119495939 0 -0.24372877181 0.0018365493743 0 
-0.24213583767 0.00077346607577 0 -0.2387611568 0.0014640776208 0 -0.22598041594 7.5489893788e-05 0 
-0.21816511452 0.00010149215814 0 -0.23061311245 -0.0011251738761 0 -0.23345518112 -7.8854507592e-05 0 
-0.2348369509 -0.0010547679849 0 -0.23758248985 -6.8752400693e-05 0 -0.23977151513 -0.0008015006897 0 
-0.24291208386 1.2371211596e-05 0 -0.24640059471 -0.0004177337978 0 -0.24958622456 0.00018598670431 0 
-0.25111806393 -3.8341549953e-06 0 -0.2511562705 0.00044324083137 0 -0.25118035078 0.0004420079058 0 
-0.25131207705 0.00078546494478 0 -0.25076532364 0.00083581800573 0 -0.24962458014 0.0011140743736 0 
-0.24837313592 0.0011604647152 0 -0.24782834947 0.0014346229145 0 -0.24810060859 0.0014228184009 0 
-0.24871268868 0.0017093096394 0 -0.24933835864 0.0015696936753 0 -0.24969878793 0.0019027987728 0 
-0.24974578619 0.0015788046876 0 -0.24911649525 0.0019913101569 0 -0.24830542505 0.0014342354843 0 
-0.24707469344 0.0019692825153 0 -0.24581257999 0.0011329115368 0 -0.24389284849 0.0018055844121 0 
-0.24235087633 0.00070348364534 0 -0.23908354342 0.0014620779548 0 -0.2267421037 3.7596968468e-05 0 
-0.21863983572 0.0001593119523 0 -0.23066797853 -0.00107048871 0 -0.23341937363 8.9641223894e-05 0 
-0.23476183414 -0.00089408294298 0 -0.23749497533 0.00016862632765 0 -0.23965291679 -0.00056799792219 0 
-0.24277222157 0.00028442993062 0 -0.24625055492 -0.00014689785894 0 -0.24942722917 0.00046468465007 0 
-0.25094878674 0.00026715287822 0 -0.25096893311 0.00069933402119 0 -0.25099155307 0.00068541889777 0 
-0.25113561749 0.0010077031329 0 -0.25059971213 0.0010418051388 0 -0.24946917593 0.0012980448082 0 
-0.24822378159 0.0013273316436 0 -0.24769233167 0.0015827134484 0 -0.24798594415 0.001553109847 0 
-0.24862395227 0.0018229627749 0 -0.24927724898 0.00166086026 0 -0.24966843426 0.0019800097216 0 
-0.24975001812 0.0016273220535 0 -0.24915134907 0.0020323758945 0 -0.24837456644 0.0014409568394 0 
-0.24717746675 0.0019824977499 0 -0.24595268071 0.0011065611616 0 -0.24405869842 0.0018081994494 0 
-0.24256007373 0.00066099799005 0 -0.23938985169 0.0014792361762 0 -0.22749353945 6.4066020968e-06 0 
-0.21906398237 0.00021363567794 0 -0.23066657782 -0.0010278647533 0 -0.23333726823 0.00024161751207 0 
-0.23464855552 -0.00075444043614 0 -0.23737601936 0.00038326298818 0 -0.2395118624 -0.00035601892159 0 
-0.24261654913 0.00053581880638 0 -0.24609081447 0.00010806931095 0 -0.24926795065 0.00073066388723 0 
-0.25078704953 0.00053051125724 0 -0.25079318881 0.0009529858944 0 -0.25081679225 0.00093209830811 0 
-0.25097557902 0.0012379284017 0 -0.2504517138 0.0012599574402 0 -0.24933171272 0.0014974583173 0 
-0.2480918169 0.0015121874167 0 -0.247573331 0.0017508851597 0 -0.24788853526 0.0017053760821 0 
-0.24855311215 0.0019605178386 0 -0.24923472106 0.0017778354231 0 -0.24965715408 0.0020852992311 0 
-0.24977335334 0.0017057063524 0 -0.2492043674 0.002105221618 0 -0.24846015871 0.0014801545767 0 
-0.24729405344 0.00202854909 0 -0.24610312283 0.0011110984487 0 -0.24423061311 0.001839244389 0 
-0.24277025461 0.00064054038376 0 -0.23969018459 0.0015120268799 0 -0.22824583948 -2.0193683667e-05 0 
-0.21944370866 0.00026623165468 0 -0.23061473668 -0.0009942400502 0 -0.23321264982 0.00038255169056 0 
-0.23449939489 -0.00062949577114 0 -0.2372264713 0.00058243714739 0 -0.23934610188 -0.00015826777963 0 
-0.2424416095 0.0007743605529 0 -0.24591948092 0.00035282209865 0 -0.24910470843 0.00098955526482 0 
-0.25062802434 0.0007908725529 0 -0.25062409043 0.0012077458669 0 -0.25065144897 0.0011844472028 0 
-0.25082784891 0.0014776566532 0 -0.25031778216 0.0014911108883 0 -0.24920931458 0.0017128004692 0 
-0.24797484279 0.0017153789522 0 -0.24746921659 0.0019395663403 0 -0.24780638516 0.0018801501719 0 
-0.24849824607 0.0021225791425 0 -0.24920882285 0.0019210343016 0 -0.24966306984 0.002218852751 0 
-0.24981428683 0.0018135183491 0 -0.24927461147 0.0022089129779 0 -0.24856214225 0.0015500293812 0 
-0.24742552638 0.0021051100921 0 -0.24626649916 0.0011434638873 0 -0.24441295862 0.0018955300329 0 
-0.24298761785 0.00063877215143 0 -0.23999293149 0.0015584558714 0 -0.22900800407 -4.3547966925e-05 0 
-0.21978323162 0.00031852687243 0 -0.23051640391 -0.00096743146423 0 -0.2330480665 0.00051668967353 0 
-0.2343159318 -0.00051401753444 0 -0.23704539239 0.000772559084 0 -0.23915472627 3.0463905205e-05 0 
-0.24224627018 0.0010060027707 0 -0.24573346972 0.00059271865757 0 -0.24893389642 0.0012465789914 0 
-0.25046798587 0.0010527553968 0 -0.25045773387 0.0014671561075 0 -0.25049173832 0.0014451640891 0 
-0.25068897009 0.0017288243398 0 -0.2501949966 0.0017365816748 0 -0.24909943342 0.0019450229593 0 
-0.24787062407 0.0019376247656 0 -0.24737791717 0.0021494184621 0 -0.24773749709 0.0020780917257 0 
-0.2484574616 0.0023098282982 0 -0.24919779599 0.0020909840241 0 -0.24968470633 0.0023811089341 0 
-0.24987174571 0.0019507667748 0 -0.24936167896 0.0023432357702 0 -0.24868099391 0.0016497593606 0 
-0.24757348001 0.0022111115977 0 -0.24644583464 0.0012020705035 0 -0.24461011589 0.0019754127134 0 
-0.24321807921 0.00065389357042 0 -0.24030546844 0.001617568545 0 -0.22978800535 -6.4516927523e-05 0 
-0.22008527815 0.00037169380812 0 -0.23037408292 -0.00094588944921 0 -0.23284508288 0.0006475179689 0 
-0.23409718275 -0.00040447857464 0 -0.2368337214 0.00095878186403 0 -0.23893643916 0.00021493071108 0 
-0.24202822149 0.0012358615641 0 -0.24553027749 0.0008328933036 0 -0.2487526387 0.001506532426 0 
-0.25030392408 0.0013204598799 0 -0.25029096007 0.0017347636167 0 -0.25033462048 0.0017171318177 0 
-0.25055626035 0.0019936335739 0 -0.2500808239 0.001997976331 0 -0.24899983406 0.0021953682881 0 
-0.24777704477 0.0021798817907 0 -0.24729736149 0.0023812721483 0 -0.247679919 0.0022999974899 0 
-0.24842891097 0.0025230902247 0 -0.24919997156 0.0022884171922 0 -0.24972072244 0.0025728591718 0 
-0.24994494021 0.0021179849282 0 -0.24946545064 0.0025087427348 0 -0.24881754816 0.0017794850282 0 
-0.24773982167 0.0023466742132 0 -0.24664434791 0.0012866383186 0 -0.24482662976 0.0020785543602 0 
-0.24346739054 0.00068532151636 0 -0.2406347841 0.0016891929554 0 -0.2305932194 -8.3627193817e-05 0 
-0.22035138309 0.00042675549048 0 -0.23018914461 -0.00092845177278 0 -0.23260395229 0.00077806040645 0 
-0.23384326696 -0.00029813320725 0 -0.23659035563 0.001144748996 0 -0.23868966103 0.00039949189522 0 
-0.24178533256 0.0014685627539 0 -0.24530744553 0.0010780995945 0 -0.24855837226 0.0017740230542 0 
-0.250133425 0.0015982235782 0 -0.25012135506 0.0020141596906 0 -0.25017768145 0.002003375208 0 
-0.25042751431 0.0022744515445 0 -0.24997326732 0.0022770471405 0 -0.24890865386 0.002465227386 0 
-0.24769222736 0.0024432269856 0 -0.2472256124 0.0026360428892 0 -0.24763165414 0.0025467688683 0 
-0.24841073155 0.0027633432765 0 -0.24921368062 0.0025143038947 0 -0.24976977706 0.0027952964883 0 
-0.25003314018 0.0023162770085 0 -0.24958591163 0.0027067949995 0 -0.24897271395 0.0019403238548 0 
-0.24792659283 0.0025131104048 0 -0.24686548114 0.0013981361408 0 -0.2450671643 0.0022058286704 0 
-0.2437414825 0.00073355104541 0 -0.24098785222 0.0017738268944 0 -0.23143106699 -0.00010114280303 0 
-0.22058217227 0.0004846114025 0 -0.22996212542 -0.00091428536689 0 -0.2323243469 0.00091031339252 0 
-0.23355324566 -0.000192690728 0 -0.23631371558 0.0013336342527 0 -0.23841226101 0.00058797735255 0 
-0.24151515961 0.0017084401334 0 -0.24506245553 0.0013329596259 0 -0.24834874272 0.0020536719821 0 
-0.24995443225 0.0018903674791 0 -0.24994705617 0.0023090494797 0 -0.2500192523 0.0023070618045 0 
-0.25030124187 0.0025737390388 0 -0.24987086654 0.002575563034 0 -0.24882435799 0.0027560053859 0 
-0.24761454761 0.002728729276 0 -0.24716079235 0.0029146193992 0 -0.24759069085 0.0028193390463 0 
-0.24840095639 0.0030316805933 0 -0.24923704565 0.0027698376216 0 -0.24983036518 0.0030500281136 0 
-0.25013536215 0.0025473497808 0 -0.24972291291 0.0029396172613 0 -0.24914743006 0.0021344274282 0 
-0.24813595414 0.0027130113449 0 -0.24711294472 0.0015388391912 0 -0.24533675611 0.0023593660444 0 
-0.24404673278 0.00080016243737 0 -0.24137212336 0.0018726218259 0 -0.23230946064 -0.00011708550301 0 
-0.22077769041 0.0005461925175 0 -0.22969278693 -0.00090316467686 0 -0.23200546205 0.001045649522 0 
-0.23322546482 -8.6379412096e-05 0 -0.23600144684 0.001528063789 0 -0.23810145259 0.00078389956616 0 
-0.2412147671 0.0019597739447 0 -0.2447925508 0.0016022198834 0 -0.24812152982 0.0023503701668 0 
-0.24976542592 0.002201491734 0 -0.24976681173 0.002623364795 0 -0.24985820055 0.0026315380819 0 
-0.25017666817 0.0028939843178 0 -0.24977269769 0.0028951577842 0 -0.24874582887 0.0030689607374 0 
-0.2475425452 0.0030372962356 0 -0.2471010536 0.003217712976 0 -0.24755486846 0.0031185604166 0 
-0.24839738011 0.0033292328008 0 -0.24926790595 0.003056376474 0 -0.24990059435 0.0033390538301 0 
-0.2502502799 0.0028135264292 0 -0.24987591803 0.0032103681006 0 -0.24934226274 0.0023650992662 0 
-0.24836990237 0.0029504508711 0 -0.24739059806 0.0017125321319 0 -0.24564087391 0.0025427620858 0 
-0.24439024925 0.00088797369972 0 -0.24179592729 0.0019874570426 0 -0.23323731124 -0.000131206878 0 
-0.22093777359 0.0006124858046 0 -0.22938029468 -0.00089576729806 0 -0.23164618015 0.001184833236 0 
-0.23285757005 2.1896081307e-05 0 -0.23565034568 0.0017300904728 0 -0.23775348067 0.00099055981264 0 
-0.24088045955 0.0022270572372 0 -0.24449457228 0.0018910893705 0 -0.24787452817 0.0026696182322 0 
-0.24956528842 0.0025367359631 0 -0.24958001077 0.0029614234809 0 -0.24969430268 0.0029804019723 0 
-0.25005379319 0.0032376281451 0 -0.24967853725 0.0032371259294 0 -0.24867238104 0.0034049991518 0 
-0.24747505784 0.0033694813028 0 -0.24704457819 0.0035456647165 0 -0.24752189219 0.003445052309 0 
-0.24839746952 0.0036570513621 0 -0.24930360913 0.0033753337339 0 -0.24997791648 0.0036646905355 0 
-0.25037586689 0.0031177215278 0 -0.2500436902 0.0035231935326 0 -0.24955715239 0.002636943711 0 
-0.24863003194 0.0032312942203 0 -0.24770228565 0.0019248558674 0 -0.24598534405 0.0027614517603 0 
-0.24477989972 0.0010013291612 0 -0.24226859212 0.0021210927516 0 -0.23422454298 -0.00014291224943 0 
-0.22106213868 0.00068423670018 0 -0.22902405262 -0.00089317449601 0 -0.23124457896 0.0013272369979 0 
-0.23244643211 0.00013230917102 0 -0.23525626957 0.0019410232781 0 -0.23736353219 0.0012110717362 0 
-0.24050755799 0.0025152512826 0 -0.24416477978 0.0022056135349 0 -0.2476053983 0.0030179223977 0 
-0.2493532151 0.0029020889197 0 -0.24938668311 0.0033281389624 0 -0.24952811003 0.0033576304559 0 
-0.24993366003 0.0036070132628 0 -0.24958889186 0.0036022162531 0 -0.2486038208 0.0037644715048 0 
-0.24741128087 0.0037252930924 0 -0.24698968232 0.0038982122205 0 -0.24748918414 0.0037990016863 0 
-0.24839830399 0.0040159411728 0 -0.24934087694 0.0037280030083 0 -0.2500590086 0.0040294253267 0 
-0.25050914288 0.0034633381292 0 -0.25022402406 0.0038832095452 0 -0.24979110062 0.0029559589457 0 
-0.24891725183 0.0035635069944 0 -0.24805165827 0.0021836836822 0 -0.24637624621 0.0030231531709 0 
-0.24522441626 0.001146449591 0 -0.24280054867 0.0022773595992 0 -0.23528239131 -0.00015116092982 0 
-0.22115074098 0.00076199613977 0 -0.22862368822 -0.00089727970771 0 -0.23079819977 0.0014708867529 0 
-0.23198768497 0.00024374216446 0 -0.23481331766 0.0021612185519 0 -0.2369247973 0.0014483314008 0 
-0.24008981884 0.0028300415725 0 -0.24379861355 0.0025530983694 0 -0.24731200933 0.0034032654949 0 
-0.24912947416 0.0033047676552 0 -0.24918827415 0.0037292996421 0 -0.24936196208 0.0037677870132 0 
-0.24981914461 0.004004358314 0 -0.24950565398 0.003990387544 0 -0.24854063988 0.0041469596326 0 
-0.24735064805 0.0041039725766 0 -0.24693438411 0.0042741643265 0 -0.24745351076 0.0041798599996 0 
-0.2483959794 0.0044062165543 0 -0.24937526882 0.0041153132915 0 -0.25013911724 0.0044357334264 0 
-0.25064560771 0.0038541830145 0 -0.250413239 0.0042965314351 0 -0.25004205108 0.0033297189511 0 
-0.24923230708 0.0039576208219 0 -0.24844361842 0.002499675611 0 -0.24682238698 0.0033385243732 0 
-0.24573662877 0.001331948908 0 -0.24340716004 0.0024614334106 0 -0.23642741144 -0.00015431984502 0 
-0.22120594978 0.00084592646454 0 -0.22818025947 -0.00091144262115 0 -0.23030398786 0.0016113502206 0 
-0.23147386312 0.000352877978 0 -0.234310776 0.0023896144703 0 -0.23642517626 0.0017052605981 0 
-0.2396171242 0.0031788367778 0 -0.24339036644 0.0029434321914 0 -0.24699369073 0.0038362946361 0 
-0.24889750779 0.0037540215999 0 -0.24899038672 0.0041721123271 0 -0.24920301139 0.0042162882164 0 
-0.24971781671 0.0044312863611 0 -0.24943336844 0.0043997392058 0 -0.24848371744 0.0045503578149 0 
-0.24729169905 0.0045033553615 0 -0.24687518179 0.0046708262525 0 -0.24740958214 0.0045859478414 0 
-0.24838450551 0.0048274630681 0 -0.24940010905 0.0045375833288 0 -0.25021091104 0.0048858993687 0 
-0.25077778101 0.004294495564 0 -0.25060454011 0.0047706994228 0 -0.25030532479 0.0037684259005 0 
-0.24957561493 0.0044286227785 0 -0.24888646603 0.0028885179199 0 -0.24733988941 0.0037234153133 0 
-0.2463401258 0.0015704385005 0 -0.2441162318 0.0026806532405 0 -0.23768956959 -0.00014968242613 0 
-0.22123642266 0.00093406677479 0 -0.22769929469 -0.00094287039246 0 -0.2297604531 0.0017383110244 0 
-0.23089531064 0.00045093946392 0 -0.2337321341 0.0026219396386 0 -0.23584485054 0.0019854761194 0 
-0.23907274008 0.0035738453735 0 -0.24293108284 0.0033930020873 0 -0.24665015936 0.0043334304355 0 
-0.24866352975 0.0042629064992 0 -0.24880225956 0.0046662478708 0 -0.24906289577 0.004709713161 0 
-0.24964164197 0.0048872064799 0 -0.24937899411 0.0048233256675 0 -0.24843388796 0.004968221765 0 
-0.247232005 0.0049184993841 0 -0.2468072474 0.0050833397545 0 -0.24735066295 0.0050143189728 0 
-0.24835668504 0.0052786339074 0 -0.24940742552 0.0049943132326 0 -0.25026485324 0.0053814360872 0 
-0.25089433789 0.0047882962972 0 -0.25078511238 0.005314680282 0 -0.25056836009 0.0042865998112 0 
-0.24993962049 0.0050000082701 0 -0.24938265979 0.0033762156963 0 -0.24794198573 0.0042040189728 0 
-0.24705803394 0.0018818704411 0 -0.24495573342 0.0029461442027 0 -0.23909963667 -0.00013243654394 0 
-0.2212511152 0.001020491356 0 -0.22718928754 -0.0010046219686 0 -0.22917279601 0.0018323723925 0 
-0.23025147617 0.00051948887995 0 -0.2330698967 0.0028469488025 0 -0.23516947031 0.002291818615 0 
-0.23843984306 0.0040335794911 0 -0.24240607023 0.0039276462048 0 -0.24627158046 0.004919460509 0 
-0.2484228164 0.0048497016542 0 -0.24862195551 0.0052245906554 0 -0.24894168973 0.0052562095225 0 
-0.24959230423 0.0053688618354 0 -0.24934500456 0.0052478839643 0 -0.24839372933 0.0053889569826 0 
-0.24717536569 0.0053418199532 0 -0.24673390388 0.0055049587972 0 -0.24727785587 0.0054609850049 0 
-0.24831216037 0.0057580829598 0 -0.24939456582 0.0054833870381 0 -0.25029465556 0.0059211105108 0 
-0.25098457932 0.0053361440077 0 -0.25093838573 0.0059347632341 0 -0.25080725551 0.0048993621022 0 
-0.25029477477 0.0057020122185 0 -0.24990054965 0.0039987945929 0 -0.24859599769 0.0048172865063 0 
-0.24785882235 0.002293249825 0 -0.24589332938 0.0032726163045 0 -0.24062548578 -9.5437957498e-05 0 
-0.22124132514 0.0011022296967 0 -0.22664934397 -0.0011071391637 0 -0.22854493558 0.0018744546687 0 
-0.22955043614 0.00053730380023 0 -0.23233424127 0.003046851838 0 -0.23440438509 0.0026189310011 0 
-0.23771458864 0.0045702806674 0 -0.24180240929 0.0045699393377 0 -0.24583908916 0.0056193741038 0 
-0.24815493822 0.0055345427245 0 -0.24842950702 0.0058618402109 0 -0.24882349372 0.0058660651557 0 
-0.24956011772 0.0058777481318 0 -0.24932828546 0.0056670824997 0 -0.24836976826 0.0058073736727 0 
-0.2471370995 0.0057693659328 0 -0.24667146802 0.00592839811 0 -0.24720290303 0.0059194308706 0 
-0.2482585609 0.0062610572204 0 -0.24936451018 0.0059983199462 0 -0.25029808283 0.0064981700853 0 
-0.25104233623 0.005931338761 0 -0.25105416775 0.0066268327646 0 -0.25100415945 0.0056078047492 0 
-0.25061291456 0.0065507059917 0 -0.25040116906 0.0047787437215 0 -0.24925199151 0.0055906730704 0 
-0.24868676066 0.0028251546901 0 -0.24686862528 0.0036725692917 0 -0.24220584333 -3.1483770726e-05 0 
-0.22123424709 0.0011876256904 0 -0.22608652711 -0.0012507654028 0 -0.22784180939 0.001854538219 0 
-0.2287145704 0.00049296120415 0 -0.23142060637 0.0032085739076 0 -0.23345069587 0.00295672426 0 
-0.23684191704 0.0051851533353 0 -0.2411327064 0.005329716485 0 -0.24541424215 0.0064482903108 0 
-0.24793313444 0.0063333562575 0 -0.24829655886 0.0065956097096 0 -0.2488053143 0.0065576951019 0 
-0.24966351688 0.0064231464639 0 -0.24937680364 0.006083667744 0 -0.24834914505 0.0062301266007 0 
-0.24708577991 0.0062034800649 0 -0.24657963216 0.0063435183838 0 -0.2470793426 0.0063771810383 0 
-0.24815516174 0.0067773386836 0 -0.24928288162 0.0065271495841 0 -0.25024217367 0.0071021351032 0 
-0.25103610754 0.0065660006367 0 -0.25110673904 0.0073854476213 0 -0.25115963817 0.0064084543847 0 
-0.25096651912 0.0075555625372 0 -0.25106525421 0.0057298922911 0 -0.2502015233 0.00654577557 0 
-0.24991612136 0.0034945346415 0 -0.24829131365 0.0041579380631 0 -0.24426572025 6.7984132329e-05 0 
-0.22149206698 0.0012316021603 0 -0.22564283013 -0.0015080628218 0 -0.22702734172 0.0016686123563 0 
-0.22749108076 0.00029463955434 0 -0.22988380492 0.0032922648825 0 -0.23182329535 0.0033495312091 0 
-0.23551185429 0.006002901122 0 -0.24038931727 0.0063460613601 0 -0.24524214864 0.0074905902147 0 
-0.24810087681 0.0072756144218 0 -0.24857588112 0.0074648149312 0 -0.24929027259 0.0073886783794 0 
-0.25032889843 0.0069575798698 0 -0.24967697263 0.0063595790416 0 -0.24825446308 0.0065722661093 0 
-0.2468367517 0.0066129905172 0 -0.24625074863 0.0067282021046 0 -0.24670509994 0.0068272124045 0 
-0.24783997238 0.0073140361346 0 -0.2490310967 0.0070709036663 0 -0.25002574921 0.0077287997119 0 
-0.25085538626 0.0072401775979 0 -0.25096088648 0.008238684386 0 -0.25117132068 0.0073998700827 0 
-0.25145930052 0.0089129600674 0 -0.25235855579 0.0070914630778 0 -0.25229886174 0.00790287368 0 
-0.25268116593 0.0044360472821 0 -0.25140699744 0.0047831228003 0 -0.24809198081 0.00022733656806 0 
-0.22229349613 0.0010063600494 0 -0.22558028996 -0.0021730368026 0 -0.2263995707 0.00091033882927 0 
-0.22607266903 -0.00048451061593 0 -0.22772908211 0.0030453708023 0 -0.2293035537 0.003916321788 0 
-0.23343147337 0.0075002131052 0 -0.23927222192 0.0081850020215 0 -0.24514138699 0.0091148391366 0 
-0.24864172935 0.0084865223616 0 -0.249373734 0.0085482634604 0 -0.25032404065 0.0084531269968 0 
-0.25129470229 0.0072747454979 0 -0.25029683113 0.0059933848679 0 -0.24813351035 0.0064689093269 0 
-0.24637617171 0.0068708984181 0 -0.24570964277 0.0070550329983 0 -0.24612884223 0.0073017417453 0 
-0.24735039473 0.0079433228821 0 -0.24865427613 0.0076774978079 0 -0.24968037009 0.0083749536425 0 
-0.25045403838 0.0079109063372 0 -0.25043210387 0.0091896094382 0 -0.25065118074 0.0088160512969 0 
-0.25145021081 0.011203722097 0 -0.25346049666 0.0096237976104 0 -0.25459986925 0.010352402925 0 
-0.25595194101 0.0060484679416 0 -0.25513854623 0.0056891534477 0 -0.25263157487 0.00050084549002 0 
-0.22247232497 0.00044216492097 0 -0.22536085546 -0.0032962723635 0 -0.2266599685 -0.00058723933762 0 
-0.22627067566 -0.0022249035537 0 -0.22782559693 0.0020153147634 0 -0.22867138684 0.004396348726 0 
-0.23210942745 0.0097172195092 0 -0.23729620874 0.01108712703 0 -0.24311423302 0.011679877527 0 
-0.24714313447 0.010278893635 0 -0.2485743165 0.0099478904158 0 -0.24964344501 0.0094424737617 0 
-0.24917796254 0.0073475404643 0 -0.25026684999 0.0051581915468 0 -0.24867872894 0.0057519073598 0 
-0.24690249562 0.0069225528277 0 -0.24640530348 0.0073649934493 0 -0.24681955576 0.0078066177666 0 
-0.24783931673 0.0086694248021 0 -0.24901151657 0.0083424551412 0 -0.24988083541 0.0089450776577 0 
-0.25030973554 0.0083611859009 0 -0.24983665347 0.0099236266688 0 -0.2493956238 0.010291603394 0 
-0.24897141755 0.01419871673 0 -0.24986162782 0.01326071471 0 -0.25005680323 0.013919842429 0 
-0.25081813335 0.0083390856162 0 -0.24986362457 0.0069310334511 0 -0.24815568328 0.00098335160874 0 
-0.22040911019 0.00053829612443 0 -0.22340321541 -0.003326961305 0 -0.22653228045 -0.00086617423221 0 
-0.22796684504 -0.0031409806106 0 -0.23140336573 0.0009702690877 0 -0.2326297462 0.0035790773109 0 
-0.23385605216 0.009872016497 0 -0.23647046089 0.01206908375 0 -0.23933456838 0.013563222252 0 
-0.24170669913 0.012615537271 0 -0.24307617545 0.011876559816 0 -0.24450996518 0.0091714644805 0 
-0.24535813928 0.0082301683724 0 -0.24726502597 0.0074481465854 0 -0.24961453676 0.006225568708 0 
-0.2492852062 0.0073895556852 0 -0.24935002625 0.0079019507393 0 -0.2497920841 0.0080852080137 0 
-0.25040635467 0.0089648114517 0 -0.25094088912 0.0086429677904 0 -0.25125566125 0.0090583283454 0 
-0.25101384521 0.0081923883408 0 -0.24971866608 0.009760722518 0 -0.24796804786 0.0097478451207 0 
-0.24475616217 0.014123175293 0 -0.24174012244 0.013633636758 0 -0.23810191453 0.014873513021 0 
-0.2356646806 0.0091499900445 0 -0.23303577304 0.0079548917711 0 -0.23129057884 0.0017496021464 0 
-0.21889276803 0.0012518778676 0 -0.22026401758 -0.0019803415053 0 -0.22370967269 0.0013382950565 0 
-0.22670851648 -0.001176019432 0 -0.23170617223 0.0023107416928 0 -0.23524171114 0.002400996862 0 
-0.23564559221 0.0074560376815 0 -0.23699335754 0.0092279845849 0 -0.23753891885 0.01115634013 0 
-0.23723971844 0.012523210607 0 -0.2368939817 0.013617854565 0 -0.23846584558 0.011705076322 0 
-0.24394804239 0.010424970649 0 -0.24525409937 0.011378736235 0 -0.25000020862 0.010914813727 0 
-0.25131011009 0.009492315352 0 -0.25186535716 0.0088443066925 0 -0.25258213282 0.0082423575222 0 
-0.25298011303 0.0086725233123 0 -0.25297066569 0.0081145102158 0 -0.25267150998 0.0083756055683 0 
-0.25189679861 0.0071066371165 0 -0.24984681606 0.0083566661924 0 -0.24705666304 0.0070475959219 0 
-0.24247837067 0.010235515423 0 -0.23665548861 0.0091513320804 0 -0.22986079752 0.011107206345 0 
-0.22480322421 0.0063505563885 0 -0.21951957047 0.0070766564459 0 -0.21685095131 0.0013443708885 0 
-0.22306120396 -0.00088795932243 0 -0.2236097455 -0.0028013188858 0 -0.22389574349 0.0029388961848 0 
-0.22563517094 0.0010334972758 0 -0.22917062044 0.0051194787957 0 -0.23249188066 0.0032624602318 0 
-0.23422041535 0.0057342369109 0 -0.23545582592 0.0065494170412 0 -0.23829832673 0.0076656220481 0 
-0.23830270767 0.010197646916 0 -0.23674289882 0.013977692463 0 -0.23751778901 0.01624536328 0 
-0.24275316298 0.015419158153 0 -0.24804618955 0.015434526838 0 -0.25069802999 0.015467855148 0 
-0.25174719095 0.012112949044 0 -0.25238698721 0.01017366536 0 -0.25332516432 0.0085974726826 0 
-0.25376230478 0.0082295015454 0 -0.25373023748 0.0072645945475 0 -0.25324708223 0.0073135877028 0 
-0.25224727392 0.0056144408882 0 -0.24998264015 0.0063636354171 0 -0.24679407477 0.0040879012085 0 
-0.24214826524 0.005824690219 0 -0.23638811707 0.0033176138531 0 -0.22897990048 0.0059636808001 0 
-0.22402897477 0.0015950761735 0 -0.2178234905 0.0039421999827 0 -0.21595397592 -0.00080185662955 0 
-0.2323884666 -0.00046061075409 0 -0.23518593609 -0.0048872968182 0 -0.2354067266 0.00073454907397 0 
-0.23466850817 0.00016844263882 0 -0.23546616733 0.0047461725771 0 -0.23535370827 0.0034187538549 0 
-0.23783485591 0.0046417415142 0 -0.238836959 0.0058849607594 0 -0.24282324314 0.0075918706134 0 
-0.24449114501 0.0090566659346 0 -0.24259926379 0.013749231584 0 -0.24209015071 0.017843646929 0 
-0.24444018304 0.021277915686 0 -0.24946308136 0.021372061223 0 -0.25115999579 0.017813026905 0 
-0.25205749273 0.014068560675 0 -0.25266182423 0.011445456184 0 -0.25351575017 0.0090194363147 0 
-0.25421497226 0.0079573001713 0 -0.25423297286 0.0065314280801 0 -0.25378194451 0.0061929593794 0 
-0.25280490518 0.0040764575824 0 -0.25049772859 0.0043196743354 0 -0.24731311202 0.00095572206192 0 
-0.24270577729 0.0017954547657 0 -0.23742602766 -0.0018170846161 0 -0.23037938774 0.001348564052 0 
-0.22590920329 -0.0022532013245 0 -0.22068010271 0.0023399437778 0 -0.21973600984 -0.00082134216791 0 
-0.2456459254 0.0025671285111 0 -0.24743354321 -0.0029709930532 0 -0.25253483653 0.00030857484671 0 
-0.25203278661 -0.0025791723747 0 -0.25296518207 0.0016382843023 0 -0.2509765029 0.0017488398589 0 
-0.25290709734 0.0035813227296 0 -0.25408327579 0.0041581094265 0 -0.25535184145 0.006696713157 0 
-0.25694403052 0.007892514579 0 -0.25386121869 0.012633291073 0 -0.25136852264 0.018442733213 0 
-0.25123298168 0.0230667945 0 -0.25143301487 0.024162514135 0 -0.25206795335 0.021282689646 0 
-0.25290280581 0.016568012536 0 -0.2533133328 0.012696593069 0 -0.25429469347 0.0095518864691 0 
-0.25509387255 0.0078235073015 0 -0.25501039624 0.0057643894106 0 -0.25444561243 0.005157252308 0 
-0.25368392467 0.0025634558406 0 -0.25151842833 0.0022576984484 0 -0.2484870851 -0.0019016185543 0 
-0.24412964284 -0.0022034239955 0 -0.23916549981 -0.0067384508438 0 -0.23296381533 -0.0031892715488 0 
-0.22910247743 -0.0056605823338 0 -0.22474059463 0.00032925102278 0 -0.22392015159 -0.0027461289428 0 
-0.2677834928 0.0019251949852 0 -0.26688235998 -0.0010166635038 0 -0.26975688338 0.0030962913297 0 
-0.27071082592 -0.0026666868944 0 -0.27323240042 0.000116961819 0 -0.27200016379 -0.00011812683078 0 
-0.27127981186 0.0023276063148 0 -0.27290552855 0.0013733144151 0 -0.27286860347 0.0039281486534 0 
-0.27435156703 0.0052899685688 0 -0.2706797719 0.0093235885724 0 -0.26617160439 0.015831476077 0 
-0.26199185848 0.021874377504 0 -0.25887596607 0.024202924222 0 -0.25546127558 0.022571977228 0 
-0.25451174378 0.018375152722 0 -0.25449499488 0.013953667134 0 -0.25521206856 0.010199799202 0 
-0.25598609447 0.0075403195806 0 -0.25623995066 0.0048167710193 0 -0.25547218323 0.0041107563302 0 
-0.25424444675 0.0013902381761 0 -0.25243332982 0.00048667538795 0 -0.24959160388 -0.0045755426399 0 
-0.24597743154 -0.0057212994434 0 -0.24220347404 -0.010751091875 0 -0.23710271716 -0.0064132320695 0 
-0.23431691527 -0.0081666624174 0 -0.23112049699 -0.00086738303071 0 -0.23225934803 -0.0038661998697 0 
-0.2993260026 0.0020950429607 0 -0.29799026251 -0.0031851767562 0 -0.2965118289 0.0017222627066 0 
-0.29624530673 -0.0023235329427 0 -0.2975974381 -0.00052668584976 0 -0.29716160893 -0.0031991025899 0 
-0.29241207242 -0.00052665109979 0 -0.29280009866 -0.00060277368175 0 -0.29182085395 0.0019188241567 0 
-0.29283431172 0.0031609828584 0 -0.29009288549 0.0055970349349 0 -0.28416910768 0.010671874508 0 
-0.27781927586 0.016706699505 0 -0.2693657577 0.019912723452 0 -0.26098808646 0.020429590717 0 
-0.2562674284 0.018783615902 0 -0.25478193164 0.014577677473 0 -0.25586262345 0.010437492281 0 
-0.25675716996 0.0076989131048 0 -0.25689533353 0.0041833589785 0 -0.25619199872 0.0023895341437 0 
-0.25453037024 -0.00021006529278 0 -0.25224855542 -0.0010360740125 0 -0.2496367842 -0.0064943446778 0 
-0.24743670225 -0.0077813137323 0 -0.24564817548 -0.013570458628 0 -0.24208301306 -0.0087822955102 0 
-0.24027332664 -0.0096283620223 0 -0.23806811869 -0.00038439422497 0 -0.24046745896 -0.0034326973837 0 
-0.33554217219 0.0018474338576 0 -0.33438715339 -0.0043126489036 0 -0.33490070701 -9.5536255685e-05 0 
-0.33338370919 -0.0048579969443 0 -0.33360564709 -0.0024602927733 0 -0.3328782618 -0.0077059264295 0 
-0.32839658856 -0.0062535544857 0 -0.32463884354 -0.0050421282649 0 -0.32113647461 -0.0019108783454 0 
-0.31592336297 0.00074805907207 0 -0.31024947762 0.0014792345464 0 -0.30137524009 0.0047388472594 0 
-0.29228234291 0.008416573517 0 -0.28094395995 0.010062341578 0 -0.26969230175 0.013303708285 0 
-0.2600928545 0.015529242344 0 -0.25561416149 0.01479750406 0 -0.25587055087 0.011563171633 0 
-0.25671485066 0.0074045150541 0 -0.25650137663 0.0031818307471 0 -0.25554794073 0.00096301932354 0 
-0.25396218896 -0.0022673658095 0 -0.25129109621 -0.0030048564076 0 -0.24909195304 -0.0075159571134 0 
-0.24778208137 -0.0078956121579 0 -0.24820137024 -0.014278153889 0 -0.24739839137 -0.0095256455243 0 
-0.24683573842 -0.010409478098 0 -0.24445225298 -2.3100421458e-05 0 -0.24801410735 -0.0036655382719 0 
-0.37058451772 0.0036055196542 0 -0.36957928538 -0.003643688513 0 -0.37223216891 -0.00034933132702 0 
-0.37157961726 -0.0060430159792 0 -0.37131431699 -0.0044549023733 0 -0.36915886402 -0.01072555501 0 
-0.36635658145 -0.012390884571 0 -0.36044168472 -0.012990472838 0 -0.35384753346 -0.011897932738 0 
-0.34274926782 -0.010322977789 0 -0.32925021648 -0.0081383641809 0 -0.31666365266 -0.0059212804772 0 
-0.30274197459 -0.0020017947536 0 -0.29033863544 0.00047613322386 0 -0.28069499135 0.0035735061392 0 
-0.27018129826 0.0082465615124 0 -0.26338723302 0.011689035222 0 -0.25871819258 0.010921630077 0 
-0.25718507171 0.0071377959102 0 -0.25649681687 0.0019533694722 0 -0.25517117977 -0.00092978519388 0 
-0.25307801366 -0.004164124839 0 -0.25137117505 -0.0044594747014 0 -0.24991309643 -0.0081118354574 0 
-0.24955767393 -0.0068372790702 0 -0.25132283568 -0.01231306605 0 -0.25214311481 -0.0079533532262 0 
-0.25312188268 -0.011008056812 0 -0.25088196993 0.00077555590542 0 -0.25381591916 -0.0023534118664 0 
-0.39051535726 0.0048312316649 0 -0.38916948438 -0.0020381119102 0 -0.3907096684 0.00078852928709 0 
-0.38991266489 -0.0078914565966 0 -0.38704583049 -0.007667189464 0 -0.38430520892 -0.015325138345 0 
-0.37984007597 -0.01848125644 0 -0.37488779426 -0.021950365975 0 -0.36666801572 -0.023486033082 0 
-0.35659366846 -0.025162570179 0 -0.34303608537 -0.023395337164 0 -0.32929000258 -0.019914731383 0 
-0.3143388927 -0.015596880578 0 -0.29970514774 -0.0088887140155 0 -0.29055783153 -0.002913336968 0 
-0.28293305635 0.0019339892315 0 -0.27529072762 0.004749646876 0 -0.26766765118 0.0047910246067 0 
-0.2619600296 0.0039674825966 0 -0.25769785047 9.4442788395e-05 0 -0.25681343675 -0.0032361554913 0 
-0.2551060617 -0.0057483264245 0 -0.25393211842 -0.0046814577654 0 -0.25380963087 -0.0074362638406 0 
-0.25484731793 -0.0046591321006 0 -0.25671836734 -0.010184378363 0 -0.2579497695 -0.0057308506221 0 
-0.25994873047 -0.010245837271 0 -0.25813743472 3.1355233659e-05 0 -0.26156502962 -0.0051863556728 0 
-0.3911088109 0.0077006132342 0 -0.3884113431 -0.0019283945439 0 -0.38808834553 -0.0006872760714 0 
-0.38623246551 -0.011357392184 0 -0.38160148263 -0.012126737274 0 -0.37892904878 -0.020161939785 0 
-0.37447834015 -0.024512542412 0 -0.36957654357 -0.029512651265 0 -0.36301553249 -0.032687928528 0 
-0.35624042153 -0.034329123795 0 -0.34857144952 -0.033744681627 0 -0.33702453971 -0.032439794391 0 
-0.32630997896 -0.029196295887 0 -0.31388124824 -0.020394064486 0 -0.30188852549 -0.0094983205199 0 
-0.29335767031 -0.003496513702 0 -0.28479716182 -0.0018458109116 0 -0.27713653445 -0.0026341741905 0 
-0.26974919438 -0.0040481491014 0 -0.26363369823 -0.0042713279836 0 -0.26193293929 -0.0043468321674 0 
-0.26147049665 -0.0067790267058 0 -0.26045075059 -0.00427112123 0 -0.26096245646 -0.0053353351541 0 
-0.26241573691 -0.0021526268683 0 -0.26504182816 -0.0077326549217 0 -0.26631736755 -0.0029865114484 0 
-0.26852011681 -0.0095918672159 0 -0.26667830348 0.0012335064821 0 -0.27015411854 -0.0039976187982 0 
-0.38446885347 0.0079859336838 0 -0.37769427896 -0.0027258987539 0 -0.37724784017 -0.0025656875223 0 
-0.37592315674 -0.015841387212 0 -0.37356993556 -0.016592932865 0 -0.36946567893 -0.024208778515 0 
-0.36721992493 -0.029816042632 0 -0.36235290766 -0.035661675036 0 -0.35665181279 -0.037989709526 0 
-0.35317677259 -0.038529478014 0 -0.3485224843 -0.040159191936 0 -0.34051164985 -0.040008842945 0 
-0.33433690667 -0.036722071469 0 -0.32761496305 -0.030736381188 0 -0.31565847993 -0.019962301478 0 
-0.30275005102 -0.011530332267 0 -0.29300963879 -0.00943125505 0 -0.28605398536 -0.010354766622 0 
-0.28111809492 -0.010558909737 0 -0.27682888508 -0.0087964469567 0 -0.27468806505 -0.0063751614653 0 
-0.27505475283 -0.0070721446536 0 -0.27466094494 -0.003739469219 0 -0.27340751886 -0.0036662216298 0 
-0.27290028334 0.00113735185 0 -0.27528044581 -0.004810649436 0 -0.27720394731 -0.00080893031554 0 
-0.27980878949 -0.0087292594835 0 -0.27903431654 -0.000161460659 0 -0.28316050768 -0.0081872800365 0 
-0.37748882174 0.0041882977821 0 -0.36820203066 -0.0060244142078 0 -0.3655860424 -0.0035868894774 0 
-0.36505490541 -0.01645924896 0 -0.36481812596 -0.020079543814 0 -0.36261677742 -0.028079146519 0 
-0.36071807146 -0.033457696438 0 -0.35796946287 -0.042109344155 0 -0.35604789853 -0.042481217533 0 
-0.35106173158 -0.040719732642 0 -0.34840875864 -0.043468654156 0 -0.34498843551 -0.044332098216 0 
-0.34074267745 -0.040431179106 0 -0.33698832989 -0.036777257919 0 -0.32765623927 -0.030794724822 0 
-0.31265097857 -0.022232986987 0 -0.30215513706 -0.016336092725 0 -0.29699680209 -0.014596494846 0 
-0.29578849673 -0.014556784183 0 -0.29706782103 -0.011965954676 0 -0.29756999016 -0.0071518858895 0 
-0.29961580038 -0.0068721291609 0 -0.29964488745 -0.0045006470755 0 -0.2955738306 -0.0051278639585 0 
-0.29132711887 0.0014073638013 0 -0.28880214691 -0.0019423560007 0 -0.29040247202 0.0027495848481 0 
-0.29341042042 -0.0068309488706 0 -0.29363077879 0.0021961249877 0 -0.30153641105 -0.0066881324165 0 
-0.36580729485 0.0011669737287 0 -0.35789498687 -0.010870003141 0 -0.35586610436 -0.0068821571767 0 
-0.35389375687 -0.017904300243 0 -0.35286387801 -0.020493740216 0 -0.35258844495 -0.030059676617 0 
-0.35172557831 -0.036190859973 0 -0.35279148817 -0.042519938201 0 -0.35504841805 -0.045374829322 0 
-0.35312205553 -0.044097129256 0 -0.35056433082 -0.043175891042 0 -0.3497248292 -0.045530419797 0 
-0.34861686826 -0.043331764638 0 -0.34575504065 -0.041579727083 0 -0.33867070079 -0.040351789445 0 
-0.32536348701 -0.032848395407 0 -0.31531885266 -0.022890796885 0 -0.31145808101 -0.017234999686 0 
-0.31293362379 -0.012497338466 0 -0.3194719553 -0.0086063146591 0 -0.32460615039 -0.0050903004594 0 
-0.32788440585 -0.005366015248 0 -0.32883617282 -0.006366437301 0 -0.32424196601 -0.0095297563821 0 
-0.31622427702 -0.0034396874253 0 -0.30985143781 -0.0040260637179 0 -0.30602547526 0.0047308430076 0 
-0.30885496736 -0.0046149198897 0 -0.31024840474 0.0044182888232 0 -0.31843817234 -0.0055805728771 0 
-0.34802472591 0.002463583136 0 -0.34148210287 -0.011400531977 0 -0.34390196204 -0.0089314645156 0 
-0.34283971786 -0.020866781473 0 -0.34266328812 -0.022662017494 0 -0.34277659655 -0.031033610925 0 
-0.34330296516 -0.034964542836 0 -0.34731027484 -0.040880441666 0 -0.35058251023 -0.042421758175 0 
-0.3530087471 -0.042830318213 0 -0.35180649161 -0.043792966753 0 -0.35218375921 -0.044430069625 0 
-0.3535977602 -0.04327038303 0 -0.35266506672 -0.044713199139 0 -0.34943887591 -0.04716540128 0 
-0.34144112468 -0.041403334588 0 -0.33351427317 -0.028354102746 0 -0.33193290234 -0.017788374797 0 
-0.33515825868 -0.00935583096 0 -0.34057247639 -0.0025974062737 0 -0.34630191326 3.4873909271e-07 0 
-0.34838092327 -0.0032282450702 0 -0.34954053164 -0.0068773068488 0 -0.34871762991 -0.015259844251 0 
-0.34163090587 -0.010073559359 0 -0.33433020115 -0.0097992876545 0 -0.32716992497 0.0027337833308 0 
-0.3280454576 -0.0017947308952 0 -0.33044445515 0.0072316857986 0 -0.34050828218 -0.0049954499118 0 
-0.33389124274 0.0053233057261 0 -0.32420399785 -0.0089110461995 0 -0.32935318351 -0.0069067529403 0 
-0.33070147038 -0.020737132058 0 -0.33308556676 -0.021855572239 0 -0.33597320318 -0.031294148415 0 
-0.33743903041 -0.03323834762 0 -0.34170639515 -0.037273108959 0 -0.34622859955 -0.039570357651 0 
-0.34830537438 -0.040109131485 0 -0.35001382232 -0.040872227401 0 -0.35362941027 -0.042106162757 0 
-0.35572293401 -0.041863452643 0 -0.35678219795 -0.043913025409 0 -0.35785809159 -0.048043433577 0 
-0.35705181956 -0.045090138912 0 -0.35397496819 -0.031073594466 0 -0.35402935743 -0.016819210723 0 
-0.35669308901 -0.0065823579207 0 -0.35843703151 0.00019763718592 0 -0.35898843408 0.0017188867787 0 
-0.35873231292 -0.0023436730262 0 -0.35905256867 -0.0053332308307 0 -0.36130905151 -0.015521640889 0 
-0.36392706633 -0.015071642585 0 -0.35927963257 -0.015938717872 0 -0.35311275721 0.00021272661979 0 
-0.35019654036 -0.00065734778764 0 -0.35054379702 0.011643813923 0 -0.36097440124 -0.00099669117481 0 
-0.32587921619 0.0028239474632 0 -0.31338748336 -0.0085762282833 0 -0.31673061848 -0.0037264262792 0 
-0.31892237067 -0.018745077774 0 -0.32256582379 -0.018542250618 0 -0.32807525992 -0.028659684584 0 
-0.33123317361 -0.030766433105 0 -0.33427083492 -0.034071858972 0 -0.34003850818 -0.035429798067 0 
-0.34350675344 -0.035952385515 0 -0.34690022469 -0.035241082311 0 -0.35272562504 -0.037265986204 0 
-0.35730212927 -0.039235070348 0 -0.3597715795 -0.04080837965 0 -0.3632338047 -0.043977532536 0 
-0.3683206141 -0.04239698872 0 -0.36978882551 -0.03068100661 0 -0.36962169409 -0.016561601311 0 
-0.36924064159 -0.0071785259061 0 -0.36719948053 -0.0018104865449 0 -0.36385017633 -0.0002248447563 0 
-0.36202684045 -0.0031288836617 0 -0.36269533634 -0.0038380799815 0 -0.3649751544 -0.0095009803772 0 
-0.3721447289 -0.010051636957 0 -0.37536424398 -0.018556931987 0 -0.37451776862 -0.004175376147 0 
-0.36800441146 -0.0032024658285 0 -0.3643681705 0.012492345646 0 -0.37119871378 -0.00084669061471 0 
-0.31690254807 0.0022361772135 0 -0.30400452018 -0.0098778074607 0 -0.3060631752 -0.0027573865373 0 
-0.30828809738 -0.016523471102 0 -0.31142684817 -0.013736779802 0 -0.3174854517 -0.024553887546 0 
-0.32356339693 -0.028577139601 0 -0.32754385471 -0.030507992953 0 -0.33309683204 -0.029631074518 0 
-0.33905759454 -0.029778722674 0 -0.34352764487 -0.028374580666 0 -0.34891149402 -0.030472891405 0 
-0.3554545939 -0.034005913883 0 -0.35975337029 -0.036205139011 0 -0.36450690031 -0.036992922425 0 
-0.37185645103 -0.036389444023 0 -0.37574175 -0.029439015314 0 -0.37492024899 -0.018803490326 0 
-0.3705175817 -0.010760043748 0 -0.36676052213 -0.0061618927866 0 -0.36307483912 -0.0036948788911 0 
-0.36146363616 -0.0034023588523 0 -0.3624330759 -0.0019756788388 0 -0.36411288381 -0.005548208952 0 
-0.36841729283 -0.0034434972331 0 -0.37316313386 -0.012453059666 0 -0.37693595886 -0.0046746102162 0 
-0.37429273129 -0.0089750308543 0 -0.36738762259 0.0092060090974 0 -0.37437012792 -0.0050869239494 0 
-0.30614104867 0.001807224704 0 -0.29282060266 -0.01041328162 0 -0.29533132911 -0.0011242150795 0 
-0.29761916399 -0.01503993012 0 -0.29987236857 -0.010461442173 0 -0.30354499817 -0.018340060487 0 
-0.31184384227 -0.02219540067 0 -0.32003456354 -0.026638351381 0 -0.32689905167 -0.022863414139 0 
-0.33419474959 -0.021604495123 0 -0.33857753873 -0.022130312398 0 -0.34352689981 -0.024383950979 0 
-0.34906888008 -0.027669413015 0 -0.35464182496 -0.02993266657 0 -0.36058330536 -0.029503071681 0 
-0.36692738533 -0.029476067051 0 -0.37211000919 -0.027505828068 0 -0.37012675405 -0.023121004924 0 
-0.36644941568 -0.01683094725 0 -0.36120441556 -0.0099965883419 0 -0.35869756341 -0.0056667551398 0 
-0.35769632459 -0.0036525225732 0 -0.35776254535 -0.00082769035362 0 -0.35923543572 -0.0031402616296 0 
-0.36167401075 -0.00020904868143 0 -0.36425408721 -0.0088096205145 0 -0.36715489626 -0.00046252625179 0 
-0.36881417036 -0.010553367436 0 -0.36308631301 0.0061423107982 0 -0.37240156531 -0.0064011472277 0 
-0.29592204094 0.0035205830354 0 -0.28165024519 -0.01057109423 0 -0.28448036313 4.0506976802e-05 0 
-0.28768178821 -0.013681956567 0 -0.2897849679 -0.0094069363549 0 -0.29359820485 -0.014340951107 0 
-0.29797104001 -0.013323212974 0 -0.30968162417 -0.017548890784 0 -0.31888535619 -0.014054634608 0 
-0.32626059651 -0.013827382587 0 -0.33128157258 -0.015940694138 0 -0.33514091372 -0.019320003688 0 
-0.33957087994 -0.022263938561 0 -0.34521490335 -0.022820271552 0 -0.35095667839 -0.022364972159 0 
-0.35679718852 -0.023490870371 0 -0.36120131612 -0.026283053681 0 -0.36213874817 -0.025746099651 0 
-0.35962921381 -0.021074078977 0 -0.35484045744 -0.014508085325 0 -0.351303339 -0.0072437706403 0 
-0.35036146641 -0.0042376602069 0 -0.35019138455 -0.00016267709725 0 -0.35044643283 -0.0014121929416 0 
-0.35241043568 0.0020956611261 0 -0.35368135571 -0.0057929623872 0 -0.35672149062 0.0025460703764 0 
-0.35791701078 -0.010148686357 0 -0.35465976596 0.0052983276546 0 -0.36442992091 -0.0081132091582 0 
-0.28546899557 0.004780956544 0 -0.26939499378 -0.010564775206 0 -0.27367198467 0.0024479690474 0 
-0.27702122927 -0.011308904737 0 -0.28035643697 -0.0064054317772 0 -0.28646099567 -0.012091297656 0 
-0.28955218196 -0.0072569209151 0 -0.29952886701 -0.007599317003 0 -0.3080920279 -0.0046812915243 0 
-0.3141618371 -0.0048780841753 0 -0.31930574775 -0.010365556926 0 -0.3230779469 -0.015743996948 0 
-0.32700285316 -0.017023058608 0 -0.33181586862 -0.016564385965 0 -0.33601287007 -0.015737308189 0 
-0.34187239408 -0.01809233427 0 -0.34558570385 -0.022454893216 0 -0.349196136 -0.025747068226 0 
-0.34999626875 -0.025306608528 0 -0.34776002169 -0.01892481558 0 -0.3428184092 -0.010124524124 0 
-0.34029501677 -0.0047157066874 0 -0.33963981271 -0.00057137518888 0 -0.33840423822 -0.00085590605158 0 
-0.33960062265 0.0033437602688 0 -0.33933752775 -0.0031898231246 0 -0.34230542183 0.0064268722199 0 
-0.34322941303 -0.0092448741198 0 -0.34145948291 0.004206082318 0 -0.35397002101 -0.011093616486 0 
-0.27573114634 0.0065858843736 0 -0.25703677535 -0.0098064513877 0 -0.26295408607 0.0047643114813 0 
-0.2657006979 -0.0083679053932 0 -0.27008339763 -0.0018292063614 0 -0.27722904086 -0.0070415120572 0 
-0.28227299452 -0.0012007637415 0 -0.28844279051 -0.00073976739077 0 -0.29564893246 0.0019317572005 0 
-0.29862317443 0.0015879021958 0 -0.30095502734 -0.0043692593463 0 -0.30609962344 -0.011562692933 0 
-0.31058010459 -0.012878746726 0 -0.31393477321 -0.011812930927 0 -0.31676745415 -0.010424129665 0 
-0.3200160265 -0.013150047511 0 -0.32431471348 -0.01919426769 0 -0.32808253169 -0.022063760087 0 
-0.3317501545 -0.023470114917 0 -0.33340799809 -0.022122111171 0 -0.3304810822 -0.014787998982 0 
-0.32731878757 -0.0074271410704 0 -0.32580655813 -0.0020652937237 0 -0.3238273263 -0.0016086504329 0 
-0.32367798686 0.0031349465717 0 -0.32335710526 -0.001821662765 0 -0.32432475686 0.0090959733352 0 
-0.32452887297 -0.0071492823772 0 -0.32398051023 0.0065744728781 0 -0.34089592099 -0.010255997069 0 
-0.26714575291 0.0064318808727 0 -0.24674990773 -0.0093848407269 0 -0.25274324417 0.0076736137271 0 
-0.25588732958 -0.0053112246096 0 -0.25941082835 0.0032290285453 0 -0.26698517799 -0.0016089848941 0 
-0.27131876349 0.0029951238539 0 -0.27577626705 0.0039284811355 0 -0.28035119176 0.0063109714538 0 
-0.28156244755 0.0040690121241 0 -0.28089335561 -0.00035141789704 0 -0.28519937396 -0.006011178717 0 
-0.28972917795 -0.008400500752 0 -0.29181337357 -0.0085420124233 0 -0.29457396269 -0.0083388555795 0 
-0.29474419355 -0.01024199836 0 -0.29922860861 -0.014851124026 0 -0.30257916451 -0.018525280058 0 
-0.30630871654 -0.020053757355 0 -0.31031301618 -0.020231081173 0 -0.31176167727 -0.016246417537 0 
-0.31002253294 -0.009565057233 0 -0.30851614475 -0.0042514484376 0 -0.30690518022 -0.0034078813624 0 
-0.30655646324 0.002785889199 0 -0.30666777492 -0.0015572980046 0 -0.30624347925 0.010064143687 0 
-0.30388069153 -0.0052286875434 0 -0.30304539204 0.010159281082 0 -0.32105389237 -0.0074007622898 0 
-0.25938928127 0.0083795264363 0 -0.23799926043 -0.0088907666504 0 -0.24253235757 0.0099514368922 0 
-0.24573764205 -0.0026289569214 0 -0.24912013113 0.0071693081409 0 -0.25494915247 0.003386964323 0 
-0.25770533085 0.0062070828862 0 -0.26249271631 0.0059878132306 0 -0.26490110159 0.0079828230664 0 
-0.26396358013 0.0050206165761 0 -0.26234853268 0.0016150133451 0 -0.26340457797 -0.0022070894483 0 
-0.26764023304 -0.0052515980788 0 -0.26883271337 -0.0052339099348 0 -0.2701472342 -0.0070351976901 0 
-0.27182424068 -0.0088838730007 0 -0.27431431413 -0.01169143524 0 -0.27830308676 -0.015048853122 0 
-0.28201198578 -0.015234568156 0 -0.28582933545 -0.015634609386 0 -0.28913137317 -0.014474824071 0 
-0.28980800509 -0.01085812971 0 -0.28897863626 -0.0055391388014 0 -0.28782862425 -0.0042398911901 0 
-0.28820636868 0.002788427053 0 -0.28692275286 -0.0014449203154 0 -0.28723442554 0.0085696876049 0 
-0.28254938126 -0.0056878323667 0 -0.27983155847 0.011969755404 0 -0.29844015837 -0.0077750016935 0 
-0.25365701318 0.01011152938 0 -0.22903057933 -0.0097373286262 0 -0.23362392187 0.010963916779 0 
-0.23589895666 0.00031898068846 0 -0.23782892525 0.010172511451 0 -0.24277728796 0.0054711084813 0 
-0.24519303441 0.0088929114863 0 -0.24817442894 0.0082136970013 0 -0.24963843822 0.0075156367384 0 
-0.24848997593 0.0040393066593 0 -0.24613760412 0.0012274479959 0 -0.24408125877 9.1823611001e-05 0 
-0.24687074125 -0.0018639850896 0 -0.24839740992 -0.0042016878724 0 -0.24859108031 -0.0053715659305 0 
-0.25195923448 -0.0069985240698 0 -0.25265863538 -0.0085689537227 0 -0.25723189116 -0.010675079189 0 
-0.26051324606 -0.011553170159 0 -0.26329037547 -0.011308099143 0 -0.26542183757 -0.010965906084 0 
-0.26710933447 -0.009834209457 0 -0.26809030771 -0.0065722456202 0 -0.26818534732 -0.0049519012682 0 
-0.26862189174 0.0017065327847 0 -0.26626777649 -0.0018786077853 0 -0.26759925485 0.0075718648732 0 
-0.26162049174 -0.0077094249427 0 -0.2568988502 0.012530949898 0 -0.27744862437 -0.0086748274043 0 
-0.24827840924 0.00954373274 0 -0.22096464038 -0.011222941801 0 -0.22510145605 0.012034873478 0 
-0.22755271196 0.00041960613453 0 -0.22770012915 0.011674849316 0 -0.2320934236 0.0088517740369 0 
-0.23263296485 0.0098478188738 0 -0.23605376482 0.0071146059781 0 -0.23659642041 0.007533817552 0 
-0.2343326509 0.0039943391457 0 -0.23149828613 -0.00089363701409 0 -0.23048633337 -0.00068587640999 0 
-0.22944431007 0.00058472377714 0 -0.23084935546 -0.0018174832221 0 -0.23195147514 -0.0035391999409 0 
-0.23448061943 -0.0059976978227 0 -0.23691159487 -0.0065807332285 0 -0.23810212314 -0.00653333636 0 
-0.24132330716 -0.008046827279 0 -0.24288864434 -0.008577180095 0 -0.24340370297 -0.0089183384553 0 
-0.244475618 -0.0080036977306 0 -0.24571181834 -0.0047013126314 0 -0.24743017554 -0.0044594593346 0 
-0.24965538085 0.00039520280552 0 -0.24734778702 -0.0018730021548 0 -0.24945786595 0.0056952955201 0 
-0.24437591434 -0.011075633578 0 -0.23817658424 0.012312268838 0 -0.26014786959 -0.010578241199 0 
-0.2428919971 0.009623169899 0 -0.21480248868 -0.01401977893 0 -0.21658611298 0.012545672245 0 
-0.22020900249 0.0014449418522 0 -0.21884118021 0.012068477459 0 -0.22167091072 0.0083934366703 0 
-0.2201872319 0.010943568312 0 -0.2232709378 0.0082570444793 0 -0.22510659695 0.0047298339196 0 
-0.22169345617 0.0016024335055 0 -0.21900907159 -0.00062604062259 0 -0.21946080029 -0.0013967398554 0 
-0.21750766039 0.00011894272757 0 -0.21680255234 0.00019356119446 0 -0.21733182669 -0.001747576287 0 
-0.21917156875 -0.0032969433814 0 -0.22268810868 -0.0051644085906 0 -0.2236033231 -0.005372740794 0 
-0.22488991916 -0.0055044898763 0 -0.2249968946 -0.0069508897141 0 -0.22548995912 -0.0075254193507 0 
-0.22613856196 -0.0072456900962 0 -0.22735832632 -0.003458534833 0 -0.22777239978 -0.0015796882799 0 
-0.23109823465 0.0008607301861 0 -0.2299144268 -0.001472847187 0 -0.23053374887 0.006252551917 0 
-0.22903086245 -0.012994294055 0 -0.22323383391 0.010792854242 0 -0.24912889302 -0.014246402308 0 
-0.23549208045 0.011475547217 0 -0.20757943392 -0.017769450322 0 -0.20931395888 0.011862589046 0 
-0.21169258654 0.0011319045443 0 -0.20963552594 0.01019987464 0 -0.21112211049 0.0075898878276 0 
-0.20833443105 0.0094061093405 0 -0.20938263834 0.0079193841666 0 -0.21094465256 0.0044301901944 0 
-0.21090440452 0.00060363119701 0 -0.20764663815 -0.00055778183741 0 -0.20760181546 -0.0015946181957 0 
-0.20748755336 -0.00069675751729 0 -0.2052552551 1.7234955521e-05 0 -0.20468096435 -0.0013280193089 0 
-0.20648880303 -0.0017611597432 0 -0.20784421265 -0.002280557761 0 -0.21010875702 -0.0034727470484 0 
-0.21065607667 -0.0053261793219 0 -0.21069820225 -0.0055752494372 0 -0.20944841206 -0.0055610672571 0 
-0.21133860946 -0.0057585262693 0 -0.21230572462 -0.0029781365301 0 -0.21211344004 -0.0010999751976 0 
-0.21408641338 0.0016542559024 0 -0.21396443248 -0.002257256303 0 -0.21428750455 0.0066584018059 0 
-0.21097043157 -0.011428438127 0 -0.20847174525 0.013350727037 0 -0.2363794893 -0.013650907204 0 
-0.22289893031 0.016904676333 0 -0.19346626103 -0.018803110346 0 -0.19699336588 0.010182192549 0 
-0.19873932004 0.00023281417089 0 -0.19630269706 0.0080785434693 0 -0.19830296934 0.0041326819919 0 
-0.19541677833 0.006681708619 0 -0.19686245918 0.0061955857091 0 -0.19773690403 0.0047008832917 0 
-0.19567169249 0.0013221489498 0 -0.19372569025 -0.0010000088951 0 -0.1934106946 -0.00076263694791 0 
-0.19354349375 -0.00093140552053 0 -0.19160762429 -0.00068208819721 0 -0.19092521071 -0.00077997526387 0 
-0.19306123257 -0.0014035352506 0 -0.19400301576 -0.001549444627 0 -0.19462607801 -0.0015705366386 0 
-0.19528241456 -0.0036826746073 0 -0.19606217742 -0.0055602728389 0 -0.19391420484 -0.0043052448891 0 
-0.19511254132 -0.0037117360625 0 -0.19614633918 -0.0026668973733 0 -0.19656525552 -0.00042397339712 0 
-0.19789303839 0.0018458008999 0 -0.19709865749 -0.0015780240064 0 -0.19966743886 0.00513272034 0 
-0.19336535037 -0.010413986631 0 -0.19093517959 0.015674069524 0 -0.22017039359 -0.018647028133 0 
-0.20987437665 0.023318661377 0 -0.17849071324 -0.018944878131 0 -0.18151928484 0.0093937013298 0 
-0.18579542637 -0.0011596238473 0 -0.18174763024 0.0060057546943 0 -0.18574145436 0.0033462829888 0 
-0.18380653858 0.0052210204303 0 -0.18497121334 0.0047775465064 0 -0.18729521334 0.0015266877599 0 
-0.18446873128 0.00011460764654 0 -0.1813659817 0.00040315857041 0 -0.18035545945 -0.00065721297869 0 
-0.18063822389 -0.0011188922217 0 -0.17929133773 -0.00074294343358 0 -0.1784825176 -0.00012002197764 0 
-0.1801237911 -0.00011934262147 0 -0.1814968884 -0.00090870534768 0 -0.18181523681 -0.0012016420951 0 
-0.18157683313 -0.0023949577007 0 -0.18245244026 -0.004214335233 0 -0.18133750558 -0.0036814350169 0 
-0.18107117712 -0.0025627799332 0 -0.18251004815 -0.0015673643211 0 -0.18291337788 -0.00020128246979 0 
-0.18404395878 0.0010840736795 0 -0.18333511055 -0.00071975571336 0 -0.18519261479 0.0045726797543 0 
-0.1785480082 -0.01011128258 0 -0.1755347997 0.017224531621 0 -0.20579206944 -0.022875398397 0 
-0.2164555788 0.032299485058 0 -0.1921081394 -0.018765872344 0 -0.19308403134 0.0086741782725 0 
-0.19920217991 -0.0013900962658 0 -0.19590647519 0.0039242669009 0 -0.19869400561 0.00287137134 0 
-0.19760361314 0.0030306207482 0 -0.19823138416 0.0036559433211 0 -0.20024307072 0.0021011251956 0 
-0.2008485496 -0.00080287788296 0 -0.19735947251 -0.0014479013626 0 -0.19632911682 -0.00036459471448 0 
-0.19654925168 -0.00047315729898 0 -0.19563779235 -0.00084450060967 0 -0.19485369325 -0.0003042886965 0 
-0.19513647258 9.8462754977e-05 0 -0.19529442489 -0.00015577282466 0 -0.195520401 -0.00066538975807 0 
-0.19478861988 -0.0013944962993 0 -0.19519974291 -0.0025905782823 0 -0.19468973577 -0.0026523259003 0 
-0.1946811825 -0.0015376444208 0 -0.19538351893 -0.00075069104787 0 -0.19587309659 5.566123582e-05 0 
-0.19659920037 0.00085765187396 0 -0.19650882483 -0.00075368984835 0 -0.19720311463 0.0021387354936 0 
-0.1907595396 -0.0090396245942 0 -0.18968324363 0.016956284642 0 -0.21252883971 -0.032572198659 0 
-0.24414128065 0.054029036313 0 -0.24848467112 -0.013568821363 0 -0.24232032895 0.0068612894975 0 
-0.2459757179 0.00025779457064 0 -0.24465209246 0.0011610097717 0 -0.2446743995 0.0016564683756 0 
-0.24450904131 0.0020743496716 0 -0.2450825125 0.0015489727957 0 -0.24564066529 0.0012324566487 0 
-0.24620597064 0.00053514080355 0 -0.24708753824 -0.00018786608416 0 -0.24730964005 -0.0005835032789 0 
-0.24677062035 -0.00059655227233 0 -0.24624443054 -0.00059117394267 0 -0.24574317038 -0.00078545010183 0 
-0.24500821531 -0.00082253839355 0 -0.2439647764 -0.00073762494139 0 -0.24309203029 -0.00078213593224 0 
-0.24253877997 -0.00089397345437 0 -0.2420065403 -0.0011312605347 0 -0.24204277992 -0.0012194709852 0 
-0.24206586182 -0.00073416670784 0 -0.2420527041 -0.00011981565331 0 -0.24229127169 0.0001526340202 0 
-0.24241910875 0.00024069624487 0 -0.24236044288 -0.00015786466247 0 -0.24402306974 0.00031562134973 0 
-0.2409004271 -0.0068369805813 0 -0.24747209251 0.01323311124 0 -0.24317269027 -0.053008507937 0 

ManningN 1 9270 double
0.02 0.02 0.02 0.02 0.02 0.02 0.02 0.02 0.02 
0.02 0.02 0.02 0.02 0.02 0.02 0.02 0.02 0.02 
0.02 0.02 0.02 0.02 0.02 0.02 0.02 0.02 0.02 
0.02 0.02 0.02 0.02 0.02 0.02 0.02 0.02 0.02 
0.02 0.02 0.02 0.02 0.02 0.02 0.02 0.02 0.02 
0.02 0.02 0.02 0.02 0.02 0.02 0.02 0.02 0.02 
0.02 0.02 0.02 0.02 0.02 0.02 0.02 0.02 0.02 
0.02 0.02 0.02 0.02 0.02 0.02 0.02 0.02 0.02 
0.02 0.02 0.02 0.02 0.02 0.02 0.02 0.02 0.02 
0.02 0.02 0.02 0.02 0.02 0.02 0.02 0.02 0.02 
0.02 0.02 0.02 0.02 0.02 0.02 0.02 0.02 0.02 
0.02 0.02 0.02 0.02 0.02 0.02 0.02 0.02 0.02 
0.02 0.02 0.02 0.02 0.02 0.02 0.02 0.02 0.02 
0.02 0.02 0.02 0.02 0.02 0.02 0.02 0.02 0.02 
0.02 0.02 0.02 0.02 0.02 0.02 0.02 0.02 0.02 
0.02 0.02 0.02 0.02 0.02 0.02 0.02 0.02 0.02 
0.02 0.02 0.02 0.02 0.02 0.02 0.02 0.02 0.02 
0.02 0.02 0.02 0.02 0.02 0.02 0.02 0.02 0.02 
0.02 0.02 0.02 0.02 0.02 0.02 0.02 0.02 0.02 
0.02 0.02 0.02 0.02 0.02 0.02 0.02 0.02 0.02 
0.02 0.02 0.02 0.02 0.02 0.02 0.02 0.02 0.02 
0.02 0.02 0.02 0.02 0.02 0.02 0.02 0.02 0.02 
0.02 0.02 0.02 0.02 0.02 0.02 0.02 0.02 0.02 
0.02 0.02 0.02 0.02 0.02 0.02 0.02 0.02 0.02 
0.02 0.02 0.02 0.02 0.02 0.02 0.02 0.02 0.02 
0.02 0.02 0.02 0.02 0.02 0.02 0.02 0.02 0.02 
0.02 0.02 0.02 0.02 0.02 0.02 0.02 0.02 0.02 
0.02 0.02 0.02 0.02 0.02 0.02 0.02 0.02 0.02 
0.02 0.02 0.02 0.02 0.02 0.02 0.02 0.02 0.02 
0.02 0.02 0.02 0.02 0.02 0.02 0.02 0.02 0.02 
0.02 0.02 0.02 0.02 0.02 0.02 0.02 0.02 0.02 
0.02 0.02 0.02 0.02 0.02 0.02 0.02 0.02 0.02 
0.02 0.02 0.02 0.02 0.02 0.02 0.02 0.02 0.02 
0.02 0.02 0.02 0.02 0.02 0.02 0.02 0.02 0.02 
0.02 0.02 0.02 0.02 0.02 0.02 0.02 0.02 0.02 
0.02 0.02 0.02 0.02 0.02 0.02 0.02 0.02 0.02 
0.02 0.02 0.02 0.02 0.02 0.02 0.02 0.02 0.02 
0.02 0.02 0.02 0.02 0.02 0.02 0.02 0.02 0.02 
0.02 0.02 0.02 0.02 0.02 0.02 0.02 0.02 0.02 
0.02 0.02 0.02 0.02 0.02 0.02 0.02 0.02 0.02 
0.02 0.02 0.02 0.02 0.02 0.02 0.02 0.02 0.02 
0.02 0.02 0.02 0.02 0.02 0.02 0.02 0.02 0.02 
0.02 0.02 0.02 0.02 0.02 0.02 0.02 0.02 0.02 
0.02 0.02 0.02 0.02 0.02 0.02 0.02 0.02 0.02 
0.02 0.02 0.02 0.02 0.02 0.02 0.02 0.02 0.02 
0.02 0.02 0.02 0.02 0.02 0.02 0.02 0.02 0.02 
0.02 0.02 0.02 0.02 0.02 0.02 0.02 0.02 0.02 
0.02 0.02 0.02 0.02 0.02 0.02 0.02 0.02 0.02 
0.02 0.02 0.02 0.02 0.02 0.02 0.02 0.02 0.02 
0.02 0.02 0.02 0.02 0.02 0.02 0.02 0.02 0.02 
0.02 0.02 0.02 0.02 0.02 0.02 0.02 0.02 0.02 
0.02 0.02 0.02 0.02 0.02 0.02 0.02 0.02 0.02 
0.02 0.02 0.02 0.02 0.02 0.02 0.02 0.02 0.02 
0.02 0.02 0.02 0.02 0.02 0.02 0.02 0.02 0.02 
0.02 0.02 0.02 0.02 0.02 0.02 0.02 0.02 0.02 
0.02 0.02 0.02 0.02 0.02 0.02 0.02 0.02 0.02 
0.02 0.02 0.02 0.02 0.02 0.02 0.02 0.02 0.02 
0.02 0.02 0.02 0.02 0.02 0.02 0.02 0.02 0.02 
0.02 0.02 0.02 0.02 0.02 0.02 0.02 0.02 0.02 
0.02 0.02 0.02 0.02 0.02 0.02 0.02 0.02 0.02 
0.02 0.02 0.02 0.02 0.02 0.02 0.02 0.02 0.02 
0.02 0.02 0.02 0.02 0.02 0.02 0.02 0.02 0.02 
0.02 0.02 0.02 0.02 0.02 0.02 0.02 0.02 0.02 
0.02 0.02 0.02 0.02 0.02 0.02 0.02 0.02 0.02 
0.02 0.02 0.02 0.02 0.02 0.02 0.02 0.02 0.02 
0.02 0.02 0.02 0.02 0.02 0.02 0.02 0.02 0.02 
0.02 0.02 0.02 0.02 0.02 0.02 0.02 0.02 0.02 
0.02 0.02 0.02 0.02 0.02 0.02 0.02 0.02 0.02 
0.02 0.02 0.02 0.02 0.02 0.02 0.02 0.02 0.02 
0.02 0.02 0.02 0.02 0.02 0.02 0.02 0.02 0.02 
0.02 0.02 0.02 0.02 0.02 0.02 0.02 0.02 0.02 
0.02 0.02 0.02 0.02 0.02 0.02 0.02 0.02 0.02 
0.02 0.02 0.02 0.02 0.02 0.02 0.02 0.02 0.02 
0.02 0.02 0.02 0.02 0.02 0.02 0.02 0.02 0.02 
0.02 0.02 0.02 0.02 0.02 0.02 0.02 0.02 0.02 
0.02 0.02 0.02 0.02 0.02 0.02 0.02 0.02 0.02 
0.02 0.02 0.02 0.02 0.02 0.02 0.02 0.02 0.02 
0.02 0.02 0.02 0.02 0.02 0.02 0.02 0.02 0.02 
0.02 0.02 0.02 0.02 0.02 0.02 0.02 0.02 0.02 
0.02 0.02 0.02 0.02 0.02 0.02 0.02 0.02 0.02 
0.02 0.02 0.02 0.02 0.02 0.02 0.02 0.02 0.02 
0.02 0.02 0.02 0.02 0.02 0.02 0.02 0.02 0.02 
0.02 0.02 0.02 0.02 0.02 0.02 0.02 0.02 0.02 
0.02 0.02 0.02 0.02 0.02 0.02 0.02 0.02 0.02 
0.02 0.02 0.02 0.02 0.02 0.02 0.02 0.02 0.02 
0.02 0.02 0.02 0.02 0.02 0.02 0.02 0.02 0.02 
0.02 0.02 0.02 0.02 0.02 0.02 0.02 0.02 0.02 
0.02 0.02 0.02 0.02 0.02 0.02 0.02 0.02 0.02 
0.02 0.02 0.02 0.02 0.02 0.02 0.02 0.02 0.02 
0.02 0.02 0.02 0.02 0.02 0.02 0.02 0.02 0.02 
0.02 0.02 0.02 0.02 0.02 0.02 0.02 0.02 0.02 
0.02 0.02 0.02 0.02 0.02 0.02 0.02 0.02 0.02 
0.02 0.02 0.02 0.02 0.02 0.02 0.02 0.02 0.02 
0.02 0.02 0.02 0.02 0.02 0.02 0.02 0.02 0.02 
0.02 0.02 0.02 0.02 0.02 0.02 0.02 0.02 0.02 
0.02 0.02 0.02 0.02 0.02 0.02 0.02 0.02 0.02 
0.02 0.02 0.02 0.02 0.02 0.02 0.02 0.02 0.02 
0.02 0.02 0.02 0.02 0.02 0.02 0.02 0.02 0.02 
0.02 0.02 0.02 0.02 0.02 0.02 0.02 0.02 0.02 
0.02 0.02 0.02 0.02 0.02 0.02 0.02 0.02 0.02 
0.02 0.02 0.02 0.02 0.02 0.02 0.02 0.02 0.02 
0.02 0.02 0.02 0.02 0.02 0.02 0.02 0.02 0.02 
0.02 0.02 0.02 0.02 0.02 0.02 0.02 0.02 0.02 
0.02 0.02 0.02 0.02 0.02 0.02 0.02 0.02 0.02 
0.02 0.02 0.02 0.02 0.02 0.02 0.02 0.02 0.02 
0.02 0.02 0.02 0.02 0.02 0.02 0.02 0.02 0.02 
0.02 0.02 0.02 0.02 0.02 0.02 0.02 0.02 0.02 
0.02 0.02 0.02 0.02 0.02 0.02 0.02 0.02 0.02 
0.02 0.02 0.02 0.02 0.02 0.02 0.02 0.02 0.02 
0.02 0.02 0.02 0.02 0.02 0.02 0.02 0.02 0.02 
0.02 0.02 0.02 0.02 0.02 0.02 0.02 0.02 0.02 
0.02 0.02 0.02 0.02 0.02 0.02 0.02 0.02 0.02 
0.02 0.02 0.02 0.02 0.02 0.02 0.02 0.02 0.02 
0.02 0.02 0.02 0.02 0.02 0.02 0.02 0.02 0.02 
0.02 0.02 0.02 0.02 0.02 0.02 0.02 0.02 0.02 
0.02 0.02 0.02 0.02 0.02 0.02 0.02 0.02 0.02 
0.02 0.02 0.02 0.02 0.02 0.02 0.02 0.02 0.02 
0.02 0.02 0.02 0.02 0.02 0.02 0.02 0.02 0.02 
0.02 0.02 0.02 0.02 0.02 0.02 0.02 0.02 0.02 
0.02 0.02 0.02 0.02 0.02 0.02 0.02 0.02 0.02 
0.02 0.02 0.02 0.02 0.02 0.02 0.02 0.02 0.02 
0.02 0.02 0.02 0.02 0.02 0.02 0.02 0.02 0.02 
0.02 0.02 0.02 0.02 0.02 0.02 0.02 0.02 0.02 
0.02 0.02 0.02 0.02 0.02 0.02 0.02 0.02 0.02 
0.02 0.02 0.02 0.02 0.02 0.02 0.02 0.02 0.02 
0.02 0.02 0.02 0.02 0.02 0.02 0.02 0.02 0.02 
0.02 0.02 0.02 0.02 0.02 0.02 0.02 0.02 0.02 
0.02 0.02 0.02 0.02 0.02 0.02 0.02 0.02 0.02 
0.02 0.02 0.02 0.02 0.02 0.02 0.02 0.02 0.02 
0.02 0.02 0.02 0.02 0.02 0.02 0.02 0.02 0.02 
0.02 0.02 0.02 0.02 0.02 0.02 0.02 0.02 0.02 
0.02 0.02 0.02 0.02 0.02 0.02 0.02 0.02 0.02 
0.02 0.02 0.02 0.02 0.02 0.02 0.02 0.02 0.02 
0.02 0.02 0.02 0.02 0.02 0.02 0.02 0.02 0.02 
0.02 0.02 0.02 0.02 0.02 0.02 0.02 0.02 0.02 
0.02 0.02 0.02 0.02 0.02 0.02 0.02 0.02 0.02 
0.02 0.02 0.02 0.02 0.02 0.02 0.02 0.02 0.02 
0.02 0.02 0.02 0.02 0.02 0.02 0.02 0.02 0.02 
0.02 0.02 0.02 0.02 0.02 0.02 0.02 0.02 0.02 
0.02 0.02 0.02 0.02 0.02 0.02 0.02 0.02 0.02 
0.02 0.02 0.02 0.02 0.02 0.02 0.02 0.02 0.02 
0.02 0.02 0.02 0.02 0.02 0.02 0.02 0.02 0.02 
0.02 0.02 0.02 0.02 0.02 0.02 0.02 0.02 0.02 
0.02 0.02 0.02 0.02 0.02 0.02 0.02 0.02 0.02 
0.02 0.02 0.02 0.02 0.02 0.02 0.02 0.02 0.02 
0.02 0.02 0.02 0.02 0.02 0.02 0.02 0.02 0.02 
0.02 0.02 0.02 0.02 0.02 0.02 0.02 0.02 0.02 
0.02 0.02 0.02 0.02 0.02 0.02 0.02 0.02 0.02 
0.02 0.02 0.02 0.02 0.02 0.02 0.02 0.02 0.02 
0.02 0.02 0.02 0.02 0.02 0.02 0.02 0.02 0.02 
0.02 0.02 0.02 0.02 0.02 0.02 0.02 0.02 0.02 
0.02 0.02 0.02 0.02 0.02 0.02 0.02 0.02 0.02 
0.02 0.02 0.02 0.02 0.02 0.02 0.02 0.02 0.02 
0.02 0.02 0.02 0.02 0.02 0.02 0.02 0.02 0.02 
0.02 0.02 0.02 0.02 0.02 0.02 0.02 0.02 0.02 
0.02 0.02 0.02 0.02 0.02 0.02 0.02 0.02 0.02 
0.02 0.02 0.02 0.02 0.02 0.02 0.02 0.02 0.02 
0.02 0.02 0.02 0.02 0.02 0.02 0.02 0.02 0.02 
0.02 0.02 0.02 0.02 0.02 0.02 0.02 0.02 0.02 
0.02 0.02 0.02 0.02 0.02 0.02 0.02 0.02 0.02 
0.02 0.02 0.02 0.02 0.02 0.02 0.02 0.02 0.02 
0.02 0.02 0.02 0.02 0.02 0.02 0.02 0.02 0.02 
0.02 0.02 0.02 0.02 0.02 0.02 0.02 0.02 0.02 
0.02 0.02 0.02 0.02 0.02 0.02 0.02 0.02 0.02 
0.02 0.02 0.02 0.02 0.02 0.02 0.02 0.02 0.02 
0.02 0.02 0.02 0.02 0.02 0.02 0.02 0.02 0.02 
0.02 0.02 0.02 0.02 0.02 0.02 0.02 0.02 0.02 
0.02 0.02 0.02 0.02 0.02 0.02 0.02 0.02 0.02 
0.02 0.02 0.02 0.02 0.02 0.02 0.02 0.02 0.02 
0.02 0.02 0.02 0.02 0.02 0.02 0.02 0.02 0.02 
0.02 0.02 0.02 0.02 0.02 0.02 0.02 0.02 0.02 
0.02 0.02 0.02 0.02 0.02 0.02 0.02 0.02 0.02 
0.02 0.02 0.02 0.02 0.02 0.02 0.02 0.02 0.02 
0.02 0.02 0.02 0.02 0.02 0.02 0.02 0.02 0.02 
0.02 0.02 0.02 0.02 0.02 0.02 0.02 0.02 0.02 
0.02 0.02 0.02 0.02 0.02 0.02 0.02 0.02 0.02 
0.02 0.02 0.02 0.02 0.02 0.02 0.02 0.02 0.02 
0.02 0.02 0.02 0.02 0.02 0.02 0.02 0.02 0.02 
0.02 0.02 0.02 0.02 0.02 0.02 0.02 0.02 0.02 
0.02 0.02 0.02 0.02 0.02 0.02 0.02 0.02 0.02 
0.02 0.02 0.02 0.02 0.02 0.02 0.02 0.02 0.02 
0.02 0.02 0.02 0.02 0.02 0.02 0.02 0.02 0.02 
0.02 0.02 0.02 0.02 0.02 0.02 0.02 0.02 0.02 
0.02 0.02 0.02 0.02 0.02 0.02 0.02 0.02 0.02 
0.02 0.02 0.02 0.02 0.02 0.02 0.02 0.02 0.02 
0.02 0.02 0.02 0.02 0.02 0.02 0.02 0.02 0.02 
0.02 0.02 0.02 0.02 0.02 0.02 0.02 0.02 0.02 
0.02 0.02 0.02 0.02 0.02 0.02 0.02 0.02 0.02 
0.02 0.02 0.02 0.02 0.02 0.02 0.02 0.02 0.02 
0.02 0.02 0.02 0.02 0.02 0.02 0.02 0.02 0.02 
0.02 0.02 0.02 0.02 0.02 0.02 0.02 0.02 0.02 
0.02 0.02 0.02 0.02 0.02 0.02 0.02 0.02 0.02 
0.02 0.02 0.02 0.02 0.02 0.02 0.02 0.02 0.02 
0.02 0.02 0.02 0.02 0.02 0.02 0.02 0.02 0.02 
0.02 0.02 0.02 0.02 0.02 0.02 0.02 0.02 0.02 
0.02 0.02 0.02 0.02 0.02 0.02 0.02 0.02 0.02 
0.02 0.02 0.02 0.02 0.02 0.02 0.02 0.02 0.02 
0.02 0.02 0.02 0.02 0.02 0.02 0.02 0.02 0.02 
0.02 0.02 0.02 0.02 0.02 0.02 0.02 0.02 0.02 
0.02 0.02 0.02 0.02 0.02 0.02 0.02 0.02 0.02 
0.02 0.02 0.02 0.02 0.02 0.02 0.02 0.02 0.02 
0.02 0.02 0.02 0.02 0.02 0.02 0.02 0.02 0.02 
0.02 0.02 0.02 0.02 0.02 0.02 0.02 0.02 0.02 
0.02 0.02 0.02 0.02 0.02 0.02 0.02 0.02 0.02 
0.02 0.02 0.02 0.02 0.02 0.02 0.02 0.02 0.02 
0.02 0.02 0.02 0.02 0.02 0.02 0.02 0.02 0.02 
0.02 0.02 0.02 0.02 0.02 0.02 0.02 0.02 0.02 
0.02 0.02 0.02 0.02 0.02 0.02 0.02 0.02 0.02 
0.02 0.02 0.02 0.02 0.02 0.02 0.02 0.02 0.02 
0.02 0.02 0.02 0.02 0.02 0.02 0.02 0.02 0.02 
0.02 0.02 0.02 0.02 0.02 0.02 0.02 0.02 0.02 
0.02 0.02 0.02 0.02 0.02 0.02 0.02 0.02 0.02 
0.02 0.02 0.02 0.02 0.02 0.02 0.02 0.02 0.02 
0.02 0.02 0.02 0.02 0.02 0.02 0.02 0.02 0.02 
0.02 0.02 0.02 0.02 0.02 0.02 0.02 0.02 0.02 
0.02 0.02 0.02 0.02 0.02 0.02 0.02 0.02 0.02 
0.02 0.02 0.02 0.02 0.02 0.02 0.02 0.02 0.02 
0.02 0.02 0.02 0.02 0.02 0.02 0.02 0.02 0.02 
0.02 0.02 0.02 0.02 0.02 0.02 0.02 0.02 0.02 
0.02 0.02 0.02 0.02 0.02 0.02 0.02 0.02 0.02 
0.02 0.02 0.02 0.02 0.02 0.02 0.02 0.02 0.02 
0.02 0.02 0.02 0.02 0.02 0.02 0.02 0.02 0.02 
0.02 0.02 0.02 0.02 0.02 0.02 0.02 0.02 0.02 
0.02 0.02 0.02 0.02 0.02 0.02 0.02 0.02 0.02 
0.02 0.02 0.02 0.02 0.02 0.02 0.02 0.02 0.02 
0.02 0.02 0.02 0.02 0.02 0.02 0.02 0.02 0.02 
0.02 0.02 0.02 0.02 0.02 0.02 0.02 0.02 0.02 
0.02 0.02 0.02 0.02 0.02 0.02 0.02 0.02 0.02 
0.02 0.02 0.02 0.02 0.02 0.02 0.02 0.02 0.02 
0.02 0.02 0.02 0.02 0.02 0.02 0.02 0.02 0.02 
0.02 0.02 0.02 0.02 0.02 0.02 0.02 0.02 0.02 
0.02 0.02 0.02 0.02 0.02 0.02 0.02 0.02 0.02 
0.02 0.02 0.02 0.02 0.02 0.02 0.02 0.02 0.02 
0.02 0.02 0.02 0.02 0.02 0.02 0.02 0.02 0.02 
0.02 0.02 0.02 0.02 0.02 0.02 0.02 0.02 0.02 
0.02 0.02 0.02 0.02 0.02 0.02 0.02 0.02 0.02 
0.02 0.02 0.02 0.02 0.02 0.02 0.02 0.02 0.02 
0.02 0.02 0.02 0.02 0.02 0.02 0.02 0.02 0.02 
0.02 0.02 0.02 0.02 0.02 0.02 0.02 0.02 0.02 
0.02 0.02 0.02 0.02 0.02 0.02 0.02 0.02 0.02 
0.02 0.02 0.02 0.02 0.02 0.02 0.02 0.02 0.02 
0.02 0.02 0.02 0.02 0.02 0.02 0.02 0.02 0.02 
0.02 0.02 0.02 0.02 0.02 0.02 0.02 0.02 0.02 
0.02 0.02 0.02 0.02 0.02 0.02 0.02 0.02 0.02 
0.02 0.02 0.02 0.02 0.02 0.02 0.02 0.02 0.02 
0.02 0.02 0.02 0.02 0.02 0.02 0.02 0.02 0.02 
0.02 0.02 0.02 0.02 0.02 0.02 0.02 0.02 0.02 
0.02 0.02 0.02 0.02 0.02 0.02 0.02 0.02 0.02 
0.02 0.02 0.02 0.02 0.02 0.02 0.02 0.02 0.02 
0.02 0.02 0.02 0.02 0.02 0.02 0.02 0.02 0.02 
0.02 0.02 0.02 0.02 0.02 0.02 0.02 0.02 0.02 
0.02 0.02 0.02 0.02 0.02 0.02 0.02 0.02 0.02 
0.02 0.02 0.02 0.02 0.02 0.02 0.02 0.02 0.02 
0.02 0.02 0.02 0.02 0.02 0.02 0.02 0.02 0.02 
0.02 0.02 0.02 0.02 0.02 0.02 0.02 0.02 0.02 
0.02 0.02 0.02 0.02 0.02 0.02 0.02 0.02 0.02 
0.02 0.02 0.02 0.02 0.02 0.02 0.02 0.02 0.02 
0.02 0.02 0.02 0.02 0.02 0.02 0.02 0.02 0.02 
0.02 0.02 0.02 0.02 0.02 0.02 0.02 0.02 0.02 
0.02 0.02 0.02 0.02 0.02 0.02 0.02 0.02 0.02 
0.02 0.02 0.02 0.02 0.02 0.02 0.02 0.02 0.02 
0.02 0.02 0.02 0.02 0.02 0.02 0.02 0.02 0.02 
0.02 0.02 0.02 0.02 0.02 0.02 0.02 0.02 0.02 
0.02 0.02 0.02 0.02 0.02 0.02 0.02 0.02 0.02 
0.02 0.02 0.02 0.02 0.02 0.02 0.02 0.02 0.02 
0.02 0.02 0.02 0.02 0.02 0.02 0.02 0.02 0.02 
0.02 0.02 0.02 0.02 0.02 0.02 0.02 0.02 0.02 
0.02 0.02 0.02 0.02 0.02 0.02 0.02 0.02 0.02 
0.02 0.02 0.02 0.02 0.02 0.02 0.02 0.02 0.02 
0.02 0.02 0.02 0.02 0.02 0.02 0.02 0.02 0.02 
0.02 0.02 0.02 0.02 0.02 0.02 0.02 0.02 0.02 
0.02 0.02 0.02 0.02 0.02 0.02 0.02 0.02 0.02 
0.02 0.02 0.02 0.02 0.02 0.02 0.02 0.02 0.02 
0.02 0.02 0.02 0.02 0.02 0.02 0.02 0.02 0.02 
0.02 0.02 0.02 0.02 0.02 0.02 0.02 0.02 0.02 
0.02 0.02 0.02 0.02 0.02 0.02 0.02 0.02 0.02 
0.02 0.02 0.02 0.02 0.02 0.02 0.02 0.02 0.02 
0.02 0.02 0.02 0.02 0.02 0.02 0.02 0.02 0.02 
0.02 0.02 0.02 0.02 0.02 0.02 0.02 0.02 0.02 
0.02 0.02 0.02 0.02 0.02 0.02 0.02 0.02 0.02 
0.02 0.02 0.02 0.02 0.02 0.02 0.02 0.02 0.02 
0.02 0.02 0.02 0.02 0.02 0.02 0.02 0.02 0.02 
0.02 0.02 0.02 0.02 0.02 0.02 0.02 0.02 0.02 
0.02 0.02 0.02 0.02 0.02 0.02 0.02 0.02 0.02 
0.02 0.02 0.02 0.02 0.02 0.02 0.02 0.02 0.02 
0.02 0.02 0.02 0.02 0.02 0.02 0.02 0.02 0.02 
0.02 0.02 0.02 0.02 0.02 0.02 0.02 0.02 0.02 
0.02 0.02 0.02 0.02 0.02 0.02 0.02 0.02 0.02 
0.02 0.02 0.02 0.02 0.02 0.02 0.02 0.02 0.02 
0.02 0.02 0.02 0.02 0.02 0.02 0.02 0.02 0.02 
0.02 0.02 0.02 0.02 0.02 0.02 0.02 0.02 0.02 
0.02 0.02 0.02 0.02 0.02 0.02 0.02 0.02 0.02 
0.02 0.02 0.02 0.02 0.02 0.02 0.02 0.02 0.02 
0.02 0.02 0.02 0.02 0.02 0.02 0.02 0.02 0.02 
0.02 0.02 0.02 0.02 0.02 0.02 0.02 0.02 0.02 
0.02 0.02 0.02 0.02 0.02 0.02 0.02 0.02 0.02 
0.02 0.02 0.02 0.02 0.02 0.02 0.02 0.02 0.02 
0.02 0.02 0.02 0.02 0.02 0.02 0.02 0.02 0.02 
0.02 0.02 0.02 0.02 0.02 0.02 0.02 0.02 0.02 
0.02 0.02 0.02 0.02 0.02 0.02 0.02 0.02 0.02 
0.02 0.02 0.02 0.02 0.02 0.02 0.02 0.02 0.02 
0.02 0.02 0.02 0.02 0.02 0.02 0.02 0.02 0.02 
0.02 0.02 0.02 0.02 0.02 0.02 0.02 0.02 0.02 
0.02 0.02 0.02 0.02 0.02 0.02 0.02 0.02 0.02 
0.02 0.02 0.02 0.02 0.02 0.02 0.02 0.02 0.02 
0.02 0.02 0.02 0.02 0.02 0.02 0.02 0.02 0.02 
0.02 0.02 0.02 0.02 0.02 0.02 0.02 0.02 0.02 
0.02 0.02 0.02 0.02 0.02 0.02 0.02 0.02 0.02 
0.02 0.02 0.02 0.02 0.02 0.02 0.02 0.02 0.02 
0.02 0.02 0.02 0.02 0.02 0.02 0.02 0.02 0.02 
0.02 0.02 0.02 0.02 0.02 0.02 0.02 0.02 0.02 
0.02 0.02 0.02 0.02 0.02 0.02 0.02 0.02 0.02 
0.02 0.02 0.02 0.02 0.02 0.02 0.02 0.02 0.02 
0.02 0.02 0.02 0.02 0.02 0.02 0.02 0.02 0.02 
0.02 0.02 0.02 0.02 0.02 0.02 0.02 0.02 0.02 
0.02 0.02 0.02 0.02 0.02 0.02 0.02 0.02 0.02 
0.02 0.02 0.02 0.02 0.02 0.02 0.02 0.02 0.02 
0.02 0.02 0.02 0.02 0.02 0.02 0.02 0.02 0.02 
0.02 0.02 0.02 0.02 0.02 0.02 0.02 0.02 0.02 
0.02 0.02 0.02 0.02 0.02 0.02 0.02 0.02 0.02 
0.02 0.02 0.02 0.02 0.02 0.02 0.02 0.02 0.02 
0.02 0.02 0.02 0.02 0.02 0.02 0.02 0.02 0.02 
0.02 0.02 0.02 0.02 0.02 0.02 0.02 0.02 0.02 
0.02 0.02 0.02 0.02 0.02 0.02 0.02 0.02 0.02 
0.02 0.02 0.02 0.02 0.02 0.02 0.02 0.02 0.02 
0.02 0.02 0.02 0.02 0.02 0.02 0.02 0.02 0.02 
0.02 0.02 0.02 0.02 0.02 0.02 0.02 0.02 0.02 
0.02 0.02 0.02 0.02 0.02 0.02 0.02 0.02 0.02 
0.02 0.02 0.02 0.02 0.02 0.02 0.02 0.02 0.02 
0.02 0.02 0.02 0.02 0.02 0.02 0.02 0.02 0.02 
0.02 0.02 0.02 0.02 0.02 0.02 0.02 0.02 0.02 
0.02 0.02 0.02 0.02 0.02 0.02 0.02 0.02 0.02 
0.02 0.02 0.02 0.02 0.02 0.02 0.02 0.02 0.02 
0.02 0.02 0.02 2.3560327403 2.3560327403 2.3560327403 2.3560327403 2.3560327403 2.3560327403 
2.3560327403 2.3560327403 2.3560327403 2.3560327403 2.3560327403 2.3560327403 2.3560327403 2.3560327403 2.3560327403 
2.3560327403 2.3560327403 2.3560327403 2.3560327403 2.3560327403 2.3560327403 2.3560327403 2.3560327403 2.3560327403 
2.3560327403 2.3560327403 2.3560327403 2.3560327403 2.3560327403 2.3560327403 2.3560327403 2.3560327403 2.3560327403 
2.3560327403 2.3560327403 2.3560327403 2.3560327403 2.3560327403 2.3560327403 2.3560327403 2.3560327403 2.3560327403 
2.3560327403 2.3560327403 2.3560327403 2.3560327403 2.3560327403 2.3560327403 2.3560327403 2.3560327403 2.3560327403 
2.3560327403 2.3560327403 2.3560327403 2.3560327403 2.3560327403 2.3560327403 2.3560327403 2.3560327403 2.3560327403 
2.3560327403 2.3560327403 2.3560327403 2.3560327403 2.3560327403 2.3560327403 2.3560327403 2.3560327403 2.3560327403 
2.3560327403 2.3560327403 2.3560327403 2.3560327403 2.3560327403 2.3560327403 2.3560327403 2.3560327403 2.3560327403 
2.3560327403 2.3560327403 2.3560327403 2.3560327403 2.3560327403 2.3560327403 2.3560327403 2.3560327403 2.3560327403 
2.3560327403 2.3560327403 2.3560327403 2.3560327403 2.3560327403 2.3560327403 2.3560327403 2.3560327403 2.3560327403 
2.3560327403 2.3560327403 2.3560327403 2.3560327403 2.3560327403 2.3560327403 2.3560327403 2.3560327403 2.3560327403 
2.3560327403 2.3560327403 2.3560327403 2.3560327403 2.3560327403 2.3560327403 2.3560327403 2.3560327403 2.3560327403 
2.3560327403 2.3560327403 2.3560327403 2.3560327403 2.3560327403 2.3560327403 2.3560327403 2.3560327403 2.3560327403 
2.3560327403 2.3560327403 2.3560327403 2.3560327403 2.3560327403 2.3560327403 2.3560327403 2.3560327403 2.3560327403 
2.3560327403 2.3560327403 2.3560327403 2.3560327403 2.3560327403 2.3560327403 2.3560327403 2.3560327403 2.3560327403 
2.3560327403 2.3560327403 2.3560327403 2.3560327403 2.3560327403 2.3560327403 2.3560327403 2.3560327403 2.3560327403 
2.3560327403 2.3560327403 2.3560327403 2.3560327403 2.3560327403 2.3560327403 2.3560327403 2.3560327403 2.3560327403 
2.3560327403 2.3560327403 2.3560327403 2.3560327403 2.3560327403 2.3560327403 2.3560327403 2.3560327403 2.3560327403 
2.3560327403 2.3560327403 2.3560327403 2.3560327403 2.3560327403 2.3560327403 2.3560327403 2.3560327403 2.3560327403 
2.3560327403 2.3560327403 2.3560327403 2.3560327403 2.3560327403 2.3560327403 2.3560327403 2.3560327403 2.3560327403 
2.3560327403 2.3560327403 2.3560327403 2.3560327403 2.3560327403 2.3560327403 2.3560327403 2.3560327403 2.3560327403 
2.3560327403 2.3560327403 2.3560327403 2.3560327403 2.3560327403 2.3560327403 2.3560327403 2.3560327403 2.3560327403 
2.3560327403 2.3560327403 2.3560327403 2.3560327403 2.3560327403 2.3560327403 2.3560327403 2.3560327403 2.3560327403 
2.3560327403 2.3560327403 2.3560327403 2.3560327403 2.3560327403 2.3560327403 2.3560327403 2.3560327403 2.3560327403 
2.3560327403 2.3560327403 2.3560327403 2.3560327403 2.3560327403 2.3560327403 2.3560327403 2.3560327403 2.3560327403 
2.3560327403 2.3560327403 2.3560327403 2.3560327403 2.3560327403 2.3560327403 2.3560327403 2.3560327403 2.3560327403 
0.02 0.02 0.02 0.02 0.02 0.02 0.02 0.02 0.02 
0.02 0.02 0.02 0.02 0.02 0.02 0.02 0.02 0.02 
0.02 0.02 0.02 0.02 0.02 0.02 0.02 0.02 0.02 
0.02 0.02 0.02 0.02 0.02 0.02 0.02 0.02 0.02 
0.02 0.02 0.02 0.02 0.02 0.02 0.02 0.02 0.02 
0.02 0.02 0.02 0.02 0.02 0.02 0.02 0.02 0.02 
0.02 0.02 0.02 0.02 0.02 0.02 0.02 0.02 0.02 
0.02 0.02 0.02 0.02 0.02 0.02 0.02 0.02 0.02 
0.02 0.02 0.02 0.02 0.02 0.02 0.02 0.02 0.02 
0.02 0.02 0.02 0.02 0.02 0.02 0.02 0.02 0.02 
0.02 0.02 0.02 0.02 0.02 0.02 0.02 0.02 0.02 
0.02 0.02 0.02 0.02 0.02 0.02 0.02 0.02 0.02 
0.02 0.02 0.02 0.02 0.02 0.02 0.02 0.02 0.02 
0.02 0.02 0.02 0.02 0.02 0.02 0.02 0.02 0.02 
0.02 0.02 0.02 0.02 0.02 0.02 0.02 0.02 0.02 
0.02 0.02 0.02 0.02 0.02 0.02 0.02 0.02 0.02 
0.02 0.02 0.02 0.02 0.02 0.02 0.02 0.02 0.02 
0.02 0.02 0.02 0.02 0.02 0.02 0.02 0.02 0.02 
0.02 0.02 0.02 0.02 0.02 0.02 0.02 0.02 0.02 
0.02 0.02 0.02 0.02 0.02 0.02 0.02 0.02 0.02 
0.02 0.02 0.02 0.02 0.02 0.02 0.02 0.02 0.02 
0.02 0.02 0.02 0.02 0.02 0.02 0.02 0.02 0.02 
0.02 0.02 0.02 0.02 0.02 0.02 0.02 0.02 0.02 
0.02 0.02 0.02 0.02 0.02 0.02 0.02 0.02 0.02 
0.02 0.02 0.02 0.02 0.02 0.02 0.02 0.02 0.02 
0.02 0.02 0.02 0.02 0.02 0.02 0.02 0.02 0.02 
0.02 0.02 0.02 0.02 0.02 0.02 0.02 0.02 0.02 
0.02 0.02 0.02 0.02 0.02 0.02 0.02 0.02 0.02 
0.02 0.02 0.02 0.02 0.02 0.02 0.02 0.02 0.02 
0.02 0.02 0.02 0.02 0.02 0.02 0.02 0.02 0.02 
0.02 0.02 0.02 0.02 0.02 0.02 0.02 0.02 0.02 
0.02 0.02 0.02 0.02 0.02 0.02 0.02 0.02 0.02 
0.02 0.02 0.02 0.02 0.02 0.02 0.02 0.02 0.02 
0.02 0.02 0.02 0.02 0.02 0.02 0.02 0.02 0.02 
0.02 0.02 0.02 0.02 0.02 0.02 0.02 0.02 0.02 
0.02 0.02 0.02 0.02 0.02 0.02 0.02 0.02 0.02 
0.02 0.02 0.02 0.02 0.02 0.02 0.02 0.02 0.02 
0.02 0.02 0.02 0.02 0.02 0.02 0.02 0.02 0.02 
0.02 0.02 0.02 0.02 0.02 0.02 0.02 0.02 0.02 
0.02 0.02 0.02 0.02 0.02 0.02 0.02 0.02 0.02 
0.02 0.02 0.02 0.02 0.02 0.02 0.02 0.02 0.02 
0.02 0.02 0.02 0.02 0.02 0.02 0.02 0.02 0.02 
0.02 0.02 0.02 0.02 0.02 0.02 0.02 0.02 0.02 
0.02 0.02 0.02 0.02 0.02 0.02 0.02 0.02 0.02 
0.02 0.02 0.02 0.02 0.02 0.02 0.02 0.02 0.02 
0.02 0.02 0.02 0.02 0.02 0.02 0.02 0.02 0.02 
0.02 0.02 0.02 0.02 0.02 0.02 0.02 0.02 0.02 
0.02 0.02 0.02 0.02 0.02 0.02 0.02 0.02 0.02 
0.02 0.02 0.02 0.02 0.02 0.02 0.02 0.02 0.02 
0.02 0.02 0.02 0.02 0.02 0.02 0.02 0.02 0.02 
0.02 0.02 0.02 0.02 0.02 0.02 0.02 0.02 0.02 
0.02 0.02 0.02 0.02 0.02 0.02 0.02 0.02 0.02 
0.02 0.02 0.02 0.02 0.02 0.02 0.02 0.02 0.02 
0.02 0.02 0.02 0.02 0.02 0.02 0.02 0.02 0.02 
0.02 0.02 0.02 0.02 0.02 0.02 0.02 0.02 0.02 
0.02 0.02 0.02 0.02 0.02 0.02 0.02 0.02 0.02 
0.02 0.02 0.02 0.02 0.02 0.02 0.02 0.02 0.02 
0.02 0.02 0.02 0.02 0.02 0.02 0.02 0.02 0.02 
0.02 0.02 0.02 0.02 0.02 0.02 0.02 0.02 0.02 
0.02 0.02 0.02 0.02 0.02 0.02 0.02 0.02 0.02 
0.02 0.02 0.02 0.02 0.02 0.02 0.02 0.02 0.02 
0.02 0.02 0.02 0.02 0.02 0.02 0.02 0.02 0.02 
0.02 0.02 0.02 0.02 0.02 0.02 0.02 0.02 0.02 
0.02 0.02 0.02 0.02 0.02 0.02 0.02 0.02 0.02 
0.02 0.02 0.02 0.02 0.02 0.02 0.02 0.02 0.02 
0.02 0.02 0.02 0.02 0.02 0.02 0.02 0.02 0.02 
0.02 0.02 0.02 0.02 0.02 0.02 0.02 0.02 0.02 
0.02 0.02 0.02 0.02 0.02 0.02 0.02 0.02 0.02 
0.02 0.02 0.02 0.02 0.02 0.02 0.02 0.02 0.02 
0.02 0.02 0.02 0.02 0.02 0.02 0.02 0.02 0.02 
0.02 0.02 0.02 0.02 0.02 0.02 0.02 0.02 0.02 
0.02 0.02 0.02 0.02 0.02 0.02 0.02 0.02 0.02 
0.02 0.02 0.02 0.02 0.02 0.02 0.02 0.02 0.02 
0.02 0.02 0.02 0.02 0.02 0.02 0.02 0.02 0.02 
0.02 0.02 0.02 0.02 0.02 0.02 0.02 0.02 0.02 
0.02 0.02 0.02 0.02 0.02 0.02 0.02 0.02 0.02 
0.02 0.02 0.02 0.02 0.02 0.02 0.02 0.02 0.02 
0.02 0.02 0.02 0.02 0.02 0.02 0.02 0.02 0.02 
0.02 0.02 0.02 0.02 0.02 0.02 0.02 0.02 0.02 
0.02 0.02 0.02 0.02 0.02 0.02 0.02 0.02 0.02 
0.02 0.02 0.02 0.02 0.02 0.02 0.02 0.02 0.02 
0.02 0.02 0.02 0.02 0.02 0.02 0.02 0.02 0.02 
0.02 0.02 0.02 0.02 0.02 0.02 0.02 0.02 0.02 
0.02 0.02 0.02 0.02 0.02 0.02 0.02 0.02 0.02 
0.02 0.02 0.02 0.02 0.02 0.02 0.02 0.02 0.02 
0.02 0.02 0.02 0.02 0.02 0.02 0.02 0.02 0.02 
0.02 0.02 0.02 0.02 0.02 0.02 0.02 0.02 0.02 
0.02 0.02 0.02 0.02 0.02 0.02 0.02 0.02 0.02 
0.02 0.02 0.02 0.02 0.02 0.02 0.02 0.02 0.02 
0.02 0.02 0.02 0.02 0.02 0.02 0.02 0.02 0.02 
0.02 0.02 0.02 0.02 0.02 0.02 0.02 0.02 0.02 
0.02 0.02 0.02 0.02 0.02 0.02 0.02 0.02 0.02 
0.02 0.02 0.02 0.02 0.02 0.02 0.02 0.02 0.02 
0.02 0.02 0.02 0.02 0.02 0.02 0.02 0.02 0.02 
0.02 0.02 0.02 0.02 0.02 0.02 0.02 0.02 0.02 
0.02 0.02 0.02 0.02 0.02 0.02 0.02 0.02 0.02 
0.02 0.02 0.02 0.02 0.02 0.02 0.02 0.02 0.02 
0.02 0.02 0.02 0.02 0.02 0.02 0.02 0.02 0.02 
0.02 0.02 0.02 0.02 0.02 0.02 0.02 0.02 0.02 
0.02 0.02 0.02 0.02 0.02 0.02 0.02 0.02 0.02 
0.02 0.02 0.02 0.02 0.02 0.02 0.02 0.02 0.02 
0.02 0.02 0.02 0.02 0.02 0.02 0.02 0.02 0.02 
0.02 0.02 0.02 0.02 0.02 0.02 0.02 0.02 0.02 
0.02 0.02 0.02 0.02 0.02 0.02 0.02 0.02 0.02 
0.02 0.02 0.02 0.02 0.02 0.02 0.02 0.02 0.02 
0.02 0.02 0.02 0.02 0.02 0.02 0.02 0.02 0.02 
0.02 0.02 0.02 0.02 0.02 0.02 0.02 0.02 0.02 
0.02 0.02 0.02 0.02 0.02 0.02 0.02 0.02 0.02 
0.02 0.02 0.02 0.02 0.02 0.02 0.02 0.02 0.02 
0.02 0.02 0.02 0.02 0.02 0.02 0.02 0.02 0.02 
0.02 0.02 0.02 0.02 0.02 0.02 0.02 0.02 0.02 
0.02 0.02 0.02 0.02 0.02 0.02 0.02 0.02 0.02 
0.02 0.02 0.02 0.02 0.02 0.02 0.02 0.02 0.02 
0.02 0.02 0.02 0.02 0.02 0.02 0.02 0.02 0.02 
0.02 0.02 0.02 0.02 0.02 0.02 0.02 0.02 0.02 
0.02 0.02 0.02 0.02 0.02 0.02 0.02 0.02 0.02 
0.02 0.02 0.02 0.02 0.02 0.02 0.02 0.02 0.02 
0.02 0.02 0.02 0.02 0.02 0.02 0.02 0.02 0.02 
0.02 0.02 0.02 0.02 0.02 0.02 0.02 0.02 0.02 
0.02 0.02 0.02 0.02 0.02 0.02 0.02 0.02 0.02 
0.02 0.02 0.02 0.02 0.02 0.02 0.02 0.02 0.02 
0.02 0.02 0.02 0.02 0.02 0.02 0.02 0.02 0.02 
0.02 0.02 0.02 0.02 0.02 0.02 0.02 0.02 0.02 
0.02 0.02 0.02 0.02 0.02 0.02 0.02 0.02 0.02 
0.02 0.02 0.02 0.02 0.02 0.02 0.02 0.02 0.02 
0.02 0.02 0.02 0.02 0.02 0.02 0.02 0.02 0.02 
0.02 0.02 0.02 0.02 0.02 0.02 0.02 0.02 0.02 
0.02 0.02 0.02 0.02 0.02 0.02 0.02 0.02 0.02 
0.02 0.02 0.02 0.02 0.02 0.02 0.02 0.02 0.02 
0.02 0.02 0.02 0.02 0.02 0.02 0.02 0.02 0.02 
0.02 0.02 0.02 0.02 0.02 0.02 0.02 0.02 0.02 
0.02 0.02 0.02 0.02 0.02 0.02 0.02 0.02 0.02 
0.02 0.02 0.02 0.02 0.02 0.02 0.02 0.02 0.02 
0.02 0.02 0.02 0.02 0.02 0.02 0.02 0.02 0.02 
0.02 0.02 0.02 0.02 0.02 0.02 0.02 0.02 0.02 
0.02 0.02 0.02 0.02 0.02 0.02 0.02 0.02 0.02 
0.02 0.02 0.02 0.02 0.02 0.02 0.02 0.02 0.02 
0.02 0.02 0.02 0.02 0.02 0.02 0.02 0.02 0.02 
0.02 0.02 0.02 0.02 0.02 0.02 0.02 0.02 0.02 
0.02 0.02 0.02 0.02 0.02 0.02 0.02 0.02 0.02 
0.02 0.02 0.02 0.02 0.02 0.02 0.02 0.02 0.02 
0.02 0.02 0.02 0.02 0.02 0.02 0.02 0.02 0.02 
0.02 0.02 0.02 0.02 0.02 0.02 0.02 0.02 0.02 
0.02 0.02 0.02 0.02 0.02 0.02 0.02 0.02 0.02 
0.02 0.02 0.02 0.02 0.02 0.02 0.02 0.02 0.02 
0.02 0.02 0.02 0.02 0.02 0.02 0.02 0.02 0.02 
0.02 0.02 0.02 0.02 0.02 0.02 0.02 0.02 0.02 
0.02 0.02 0.02 0.02 0.02 0.02 0.02 0.02 0.02 
0.02 0.02 0.02 0.02 0.02 0.02 0.02 0.02 0.02 
0.02 0.02 0.02 0.02 0.02 0.02 0.02 0.02 0.02 
0.02 0.02 0.02 0.02 0.02 0.02 0.02 0.02 0.02 
0.02 0.02 0.02 0.02 0.02 0.02 0.02 0.02 0.02 
0.02 0.02 0.02 0.02 0.02 0.02 0.02 0.02 0.02 
0.02 0.02 0.02 0.02 0.02 0.02 0.02 0.02 0.02 
0.02 0.02 0.02 0.02 0.02 0.02 0.02 0.02 0.02 
0.02 0.02 0.02 0.02 0.02 0.02 0.02 0.02 0.02 
0.02 0.02 0.02 0.02 0.02 0.02 0.02 0.02 0.02 
0.02 0.02 0.02 0.02 0.02 0.02 0.02 0.02 0.02 
0.02 0.02 0.02 0.02 0.02 0.02 0.02 0.02 0.02 
0.02 0.02 0.02 0.02 0.02 0.02 0.02 0.02 0.02 
0.02 0.02 0.02 0.02 0.02 0.02 0.02 0.02 0.02 
0.02 0.02 0.02 0.02 0.02 0.02 0.02 0.02 0.02 
0.02 0.02 0.02 0.02 0.02 0.02 0.02 0.02 0.02 
0.02 0.02 0.02 0.02 0.02 0.02 0.02 0.02 0.02 
0.02 0.02 0.02 0.02 0.02 0.02 0.02 0.02 0.02 
0.02 0.02 0.02 0.02 0.02 0.02 0.02 0.02 0.02 
0.02 0.02 0.02 0.02 0.02 0.02 0.02 0.02 0.02 
0.02 0.02 0.02 0.02 0.02 0.02 0.02 0.02 0.02 
0.02 0.02 0.02 0.02 0.02 0.02 0.02 0.02 0.02 
0.02 0.02 0.02 0.02 0.02 0.02 0.02 0.02 0.02 
0.02 0.02 0.02 0.02 0.02 0.02 0.02 0.02 0.02 
0.02 0.02 0.02 0.02 0.02 0.02 0.02 0.02 0.02 
0.02 0.02 0.02 0.02 0.02 0.02 0.02 0.02 0.02 
0.02 0.02 0.02 0.02 0.02 0.02 0.02 0.02 0.02 
0.02 0.02 0.02 0.02 0.02 0.02 0.02 0.02 0.02 
0.02 0.02 0.02 0.02 0.02 0.02 0.02 0.02 0.02 
0.02 0.02 0.02 0.02 0.02 0.02 0.02 0.02 0.02 
0.02 0.02 0.02 0.02 0.02 0.02 0.02 0.02 0.02 
0.02 0.02 0.02 0.02 0.02 0.02 0.02 0.02 0.02 
0.02 0.02 0.02 0.02 0.02 0.02 0.02 0.02 0.02 
0.02 0.02 0.02 0.02 0.02 0.02 0.02 0.02 0.02 
0.02 0.02 0.02 0.02 0.02 0.02 0.02 0.02 0.02 
0.02 0.02 0.02 0.02 0.02 0.02 0.02 0.02 0.02 
0.02 0.02 0.02 0.02 0.02 0.02 0.02 0.02 0.02 
0.02 0.02 0.02 0.02 0.02 0.02 0.02 0.02 0.02 
0.02 0.02 0.02 0.02 0.02 0.02 0.02 0.02 0.02 
0.02 0.02 0.02 0.02 0.02 0.02 0.02 0.02 0.02 
0.02 0.02 0.02 0.02 0.02 0.02 0.02 0.02 0.02 
0.02 0.02 0.02 0.02 0.02 0.02 0.02 0.02 0.02 
0.02 0.02 0.02 0.02 0.02 0.02 0.02 0.02 0.02 
0.02 0.02 0.02 0.02 0.02 0.02 0.02 0.02 0.02 
0.02 0.02 0.02 0.02 0.02 0.02 0.02 0.02 0.02 
0.02 0.02 0.02 0.02 0.02 0.02 0.02 0.02 0.02 
0.02 0.02 0.02 0.02 0.02 0.02 0.02 0.02 0.02 
0.02 0.02 0.02 0.02 0.02 0.02 0.02 0.02 0.02 
0.02 0.02 0.02 0.02 0.02 0.02 0.02 0.02 0.02 
0.02 0.02 0.02 0.02 0.02 0.02 0.02 0.02 0.02 
0.02 0.02 0.02 0.02 0.02 0.02 0.02 0.02 0.02 
0.02 0.02 0.02 0.02 0.02 0.02 0.02 0.02 0.02 
0.02 0.02 0.02 0.02 0.02 0.02 0.02 0.02 0.02 
0.02 0.02 0.02 0.02 0.02 0.02 0.02 0.02 0.02 
0.02 0.02 0.02 0.02 0.02 0.02 0.02 0.02 0.02 
0.02 0.02 0.02 0.02 0.02 0.02 0.02 0.02 0.02 
0.02 0.02 0.02 0.02 0.02 0.02 0.02 0.02 0.02 
0.02 0.02 0.02 0.02 0.02 0.02 0.02 0.02 0.02 
0.02 0.02 0.02 0.02 0.02 0.02 0.02 0.02 0.02 
0.02 0.02 0.02 0.02 0.02 0.02 0.02 0.02 0.02 
0.02 0.02 0.02 0.02 0.02 0.02 0.02 0.02 0.02 
0.02 0.02 0.02 0.02 0.02 0.02 0.02 0.02 0.02 
0.02 0.02 0.02 0.02 0.02 0.02 0.02 0.02 0.02 
0.02 0.02 0.02 0.02 0.02 0.02 0.02 0.02 0.02 
0.02 0.02 0.02 0.02 0.02 0.02 0.02 0.02 0.02 
0.02 0.02 0.02 0.02 0.02 0.02 0.02 0.02 0.02 
0.02 0.02 0.02 0.02 0.02 0.02 0.02 0.02 0.02 
0.02 0.02 0.02 0.02 0.02 0.02 0.02 0.02 0.02 
0.02 0.02 0.02 0.02 0.02 0.02 0.02 0.02 0.02 
0.02 0.02 0.02 0.02 0.02 0.02 0.02 0.02 0.02 
0.02 0.02 0.02 0.02 0.02 0.02 0.02 0.02 0.02 
0.02 0.02 0.02 0.02 0.02 0.02 0.02 0.02 0.02 
0.02 0.02 0.02 0.02 0.02 0.02 0.02 0.02 0.02 
0.02 0.02 0.02 0.02 0.02 0.02 0.02 0.02 0.02 
0.02 0.02 0.02 0.02 0.02 0.02 0.02 0.02 0.02 
0.02 0.02 0.02 0.02 0.02 0.02 0.02 0.02 0.02 
0.02 0.02 0.02 0.02 0.02 0.02 0.02 0.02 0.02 
0.02 0.02 0.02 0.02 0.02 0.02 0.02 0.02 0.02 
0.02 0.02 0.02 0.02 0.02 0.02 0.02 0.02 0.02 
0.02 0.02 0.02 0.02 0.02 0.02 0.02 0.02 0.02 
0.02 0.02 0.02 0.02 0.02 0.02 0.02 0.02 0.02 
0.02 0.02 0.02 0.02 0.02 0.02 0.02 0.02 0.02 
0.02 0.02 0.02 0.02 0.02 0.02 0.02 0.02 0.02 
0.02 0.02 0.02 0.02 0.02 0.02 0.02 0.02 0.02 
0.02 0.02 0.02 0.02 0.02 0.02 0.02 0.02 0.02 
0.02 0.02 0.02 0.02 0.02 0.02 0.02 0.02 0.02 
0.02 0.02 0.02 0.02 0.02 0.02 0.02 0.02 0.02 
0.02 0.02 0.02 0.02 0.02 0.02 0.02 0.02 0.02 
0.02 0.02 0.02 0.02 0.02 0.02 0.02 0.02 0.02 
0.02 0.02 0.02 0.02 0.02 0.02 0.02 0.02 0.02 
0.02 0.02 0.02 0.02 0.02 0.02 0.02 0.02 0.02 
0.02 0.02 0.02 0.02 0.02 0.02 0.02 0.02 0.02 
0.02 0.02 0.02 0.02 0.02 0.02 0.02 0.02 0.02 
0.02 0.02 0.02 0.02 0.02 0.02 0.02 0.02 0.02 
0.02 0.02 0.02 0.02 0.02 0.02 0.02 0.02 0.02 
0.02 0.02 0.02 0.02 0.02 0.02 0.02 0.02 0.02 
0.02 0.02 0.02 0.02 0.02 0.02 0.02 0.02 0.02 
0.02 0.02 0.02 0.02 0.02 0.02 0.02 0.02 0.02 
0.02 0.02 0.02 0.02 0.02 0.02 0.02 0.02 0.02 
0.02 0.02 0.02 0.02 0.02 0.02 0.02 0.02 0.02 
0.02 0.02 0.02 0.02 0.02 0.02 0.02 0.02 0.02 
0.02 0.02 0.02 0.02 0.02 0.02 0.02 0.02 0.02 
0.02 0.02 0.02 0.02 0.02 0.02 0.02 0.02 0.02 
0.02 0.02 0.02 0.02 0.02 0.02 0.02 0.02 0.02 
0.02 0.02 0.02 0.02 0.02 0.02 0.02 0.02 0.02 
0.02 0.02 0.02 0.02 0.02 0.02 0.02 0.02 0.02 
0.02 0.02 0.02 0.02 0.02 0.02 0.02 0.02 0.02 
0.02 0.02 0.02 0.02 0.02 0.02 0.02 0.02 0.02 
0.02 0.02 0.02 0.02 0.02 0.02 0.02 0.02 0.02 
0.02 0.02 0.02 0.02 0.02 0.02 0.02 0.02 0.02 
0.02 0.02 0.02 0.02 0.02 0.02 0.02 0.02 0.02 
0.02 0.02 0.02 0.02 0.02 0.02 0.02 0.02 0.02 
0.02 0.02 0.02 0.02 0.02 0.02 0.02 0.02 0.02 
0.02 0.02 0.02 0.02 0.02 0.02 0.02 0.02 0.02 
0.02 0.02 0.02 0.02 0.02 0.02 0.02 0.02 0.02 
0.02 0.02 0.02 0.02 0.02 0.02 0.02 0.02 0.02 
0.02 0.02 0.02 0.02 0.02 0.02 0.02 0.02 0.02 
0.02 0.02 0.02 0.02 0.02 0.02 0.02 0.02 0.02 
0.02 0.02 0.02 0.02 0.02 0.02 0.02 0.02 0.02 
0.02 0.02 0.02 0.02 0.02 0.02 0.02 0.02 0.02 
0.02 0.02 0.02 0.02 0.02 0.02 0.02 0.02 0.02 
0.02 0.02 0.02 0.02 0.02 0.02 0.02 0.02 0.02 
0.02 0.02 0.02 0.02 0.02 0.02 0.02 0.02 0.02 
0.02 0.02 0.02 0.02 0.02 0.02 0.02 0.02 0.02 
0.02 0.02 0.02 0.02 0.02 0.02 0.02 0.02 0.02 
0.02 0.02 0.02 0.02 0.02 0.02 0.02 0.02 0.02 
0.02 0.02 0.02 0.02 0.02 0.02 0.02 0.02 0.02 
0.02 0.02 0.02 0.02 0.02 0.02 0.02 0.02 0.02 
0.02 0.02 0.02 0.02 0.02 0.02 0.02 0.02 0.02 
0.02 0.02 0.02 0.02 0.02 0.02 0.02 0.02 0.02 
0.02 0.02 0.02 0.02 0.02 0.02 0.02 0.02 0.02 
0.02 0.02 0.02 0.02 0.02 0.02 0.02 0.02 0.02 
0.02 0.02 0.02 0.02 0.02 0.02 0.02 0.02 0.02 
0.02 0.02 0.02 0.02 0.02 0.02 0.02 0.02 0.02 
0.02 0.02 0.02 0.02 0.02 0.02 0.02 0.02 0.02 
0.02 0.02 0.02 0.02 0.02 0.02 0.02 0.02 0.02 
0.02 0.02 0.02 0.02 0.02 0.02 0.02 0.02 0.02 
0.02 0.02 0.02 0.02 0.02 0.02 0.02 0.02 0.02 
0.02 0.02 0.02 0.02 0.02 0.02 0.02 0.02 0.02 
0.02 0.02 0.02 0.02 0.02 0.02 0.02 0.02 0.02 
0.02 0.02 0.02 0.02 0.02 0.02 0.02 0.02 0.02 
0.02 0.02 0.02 0.02 0.02 0.02 0.02 0.02 0.02 
0.02 0.02 0.02 0.02 0.02 0.02 0.02 0.02 0.02 
0.02 0.02 0.02 0.02 0.02 0.02 0.02 0.02 0.02 
0.02 0.02 0.02 0.02 0.02 0.02 0.02 0.02 0.02 
0.02 0.02 0.02 0.02 0.02 0.02 0.02 0.02 0.02 
0.02 0.02 0.02 0.02 0.02 0.02 0.02 0.02 0.02 
0.02 0.02 0.02 0.02 0.02 0.02 0.02 0.02 0.02 
0.02 0.02 0.02 0.02 0.02 0.02 0.02 0.02 0.02 
0.02 0.02 0.02 0.02 0.02 0.02 0.02 0.02 0.02 
0.02 0.02 0.02 0.02 0.02 0.02 0.02 0.02 0.02 
0.02 0.02 0.02 0.02 0.02 0.02 0.02 0.02 0.02 
0.02 0.02 0.02 0.02 0.02 0.02 0.02 0.02 0.02 
0.02 0.02 0.02 0.02 0.02 0.02 0.02 0.02 0.02 
0.02 0.02 0.02 0.02 0.02 0.02 0.02 0.02 0.02 
0.02 0.02 0.02 0.02 0.02 0.02 0.02 0.02 0.02 
0.02 0.02 0.02 0.02 0.02 0.02 0.02 0.02 0.02 
0.02 0.02 0.02 0.02 0.02 0.02 0.02 0.02 0.02 
0.02 0.02 0.02 0.02 0.02 0.02 0.02 0.02 0.02 
0.02 0.02 0.02 0.02 0.02 0.02 0.02 0.02 0.02 
0.02 0.02 0.02 0.02 0.02 0.02 0.02 0.02 0.02 
0.02 0.02 0.02 0.02 0.02 0.02 0.02 0.02 0.02 
0.02 0.02 0.02 0.02 0.02 0.02 0.02 0.02 0.02 
0.02 0.02 0.02 0.02 0.02 0.02 0.02 0.02 0.02 
0.02 0.02 0.02 0.02 0.02 0.02 0.02 0.02 0.02 
0.02 0.02 0.02 0.02 0.02 0.02 0.02 0.02 0.02 
0.02 0.02 0.02 0.02 0.02 0.02 0.02 0.02 0.02 
0.02 0.02 0.02 0.02 0.02 0.02 0.02 0.02 0.02 
0.02 0.02 0.02 0.02 0.02 0.02 0.02 0.02 0.02 
0.02 0.02 0.02 0.02 0.02 0.02 0.02 0.02 0.02 
0.02 0.02 0.02 0.02 0.02 0.02 0.02 0.02 0.02 
0.02 0.02 0.02 0.02 0.02 0.02 0.02 0.02 0.02 
0.02 0.02 0.02 0.02 0.02 0.02 0.02 0.02 0.02 
0.02 0.02 0.02 0.02 0.02 0.02 0.02 0.02 0.02 
0.02 0.02 0.02 0.02 0.02 0.02 0.02 0.02 0.02 
0.02 0.02 0.02 0.02 0.02 0.02 0.02 0.02 0.02 
0.02 0.02 0.02 0.02 0.02 0.02 0.02 0.02 0.02 
0.02 0.02 0.02 0.02 0.02 0.02 0.02 0.02 0.02 
0.02 0.02 0.02 0.02 0.02 0.02 0.02 0.02 0.02 
0.02 0.02 0.02 0.02 0.02 0.02 0.02 0.02 0.02 
0.02 0.02 0.02 0.02 0.02 0.02 0.02 0.02 0.02 
0.02 0.02 0.02 0.02 0.02 0.02 0.02 0.02 0.02 
0.02 0.02 0.02 0.02 0.02 0.02 0.02 0.02 0.02 
0.02 0.02 0.02 0.02 0.02 0.02 0.02 0.02 0.02 
0.02 0.02 0.02 0.02 0.02 0.02 0.02 0.02 0.02 
0.02 0.02 0.02 0.02 0.02 0.02 0.02 0.02 0.02 
0.02 0.02 0.02 0.02 0.02 0.02 0.02 0.02 0.02 
0.02 0.02 0.02 0.02 0.02 0.02 0.02 0.02 0.02 
0.02 0.02 0.02 0.02 0.02 0.02 0.02 0.02 0.02 
0.02 0.02 0.02 0.02 0.02 0.02 0.02 0.02 0.02 
0.02 0.02 0.02 0.02 0.02 0.02 0.02 0.02 0.02 
0.02 0.02 0.02 0.02 0.02 0.02 0.02 0.02 0.02 
0.02 0.02 0.02 0.02 0.02 0.02 0.02 0.02 0.02 
0.02 0.02 0.02 0.02 0.02 0.02 0.02 0.02 0.02 
0.02 0.02 0.02 0.02 0.02 0.02 0.02 0.02 0.02 
0.02 0.02 0.02 0.02 0.02 0.02 0.02 0.02 0.02 
0.02 0.02 0.02 0.02 0.02 0.02 0.02 0.02 0.02 
0.02 0.02 0.02 0.02 0.02 0.02 0.02 0.02 0.02 
0.02 0.02 0.02 0.02 0.02 0.02 0.02 0.02 0.02 
0.02 0.02 0.02 0.02 0.02 0.02 0.02 0.02 0.02 
0.02 0.02 0.02 0.02 0.02 0.02 0.02 0.02 0.02 
0.02 0.02 0.02 0.02 0.02 0.02 0.02 0.02 0.02 
0.02 0.02 0.02 0.02 0.02 0.02 0.02 0.02 0.02 
0.02 0.02 0.02 0.02 0.02 0.02 0.02 0.02 0.02 
0.02 0.02 0.02 0.02 0.02 0.02 0.02 0.02 0.02 
0.02 0.02 0.02 0.02 0.02 0.02 0.02 0.02 0.02 
0.02 0.02 0.02 0.02 0.02 0.02 0.02 0.02 0.02 
0.02 0.02 0.02 0.02 0.02 0.02 0.02 0.02 0.02 
0.02 0.02 0.02 0.02 0.02 0.02 0.02 0.02 0.02 
0.02 0.02 0.02 0.02 0.02 0.02 0.02 0.02 0.02 
0.02 0.02 0.02 0.02 0.02 0.02 0.02 0.02 0.02 
0.02 0.02 0.02 0.02 0.02 0.02 0.02 0.02 0.02 
0.02 0.02 0.02 0.02 0.02 0.02 0.02 0.02 0.02 
0.02 0.02 0.02 0.02 0.02 0.02 0.02 0.02 0.02 
0.02 0.02 0.02 0.02 0.02 0.02 0.02 0.02 0.02 
0.02 0.02 0.02 0.02 0.02 0.02 0.02 0.02 0.02 
0.02 0.02 0.02 0.02 0.02 0.02 0.02 0.02 0.02 
0.02 0.02 0.02 0.02 0.02 0.02 0.02 0.02 0.02 
0.02 0.02 0.02 0.02 0.02 0.02 0.02 0.02 0.02 
0.02 0.02 0.02 0.02 0.02 0.02 0.02 0.02 0.02 
0.02 0.02 0.02 0.02 0.02 0.02 0.02 0.02 0.02 
0.02 0.02 0.02 0.02 0.02 0.02 0.02 0.02 0.02 
0.02 0.02 0.02 0.02 0.02 0.02 0.02 0.02 0.02 
0.02 0.02 0.02 0.02 0.02 0.02 0.02 0.02 0.02 
0.02 0.02 0.02 0.02 0.02 0.02 0.02 0.02 0.02 
0.02 0.02 0.02 0.02 0.02 0.02 0.02 0.02 0.02 
0.02 0.02 0.02 0.02 0.02 0.02 0.02 0.02 0.02 
0.02 0.02 0.02 0.02 0.02 0.02 0.02 0.02 0.02 
0.02 0.02 0.02 0.02 0.02 0.02 0.02 0.02 0.02 
0.02 0.02 0.02 0.02 0.02 0.02 0.02 0.02 0.02 
0.02 0.02 0.02 0.02 0.02 0.02 0.02 0.02 0.02 
0.02 0.02 0.02 0.02 0.02 0.02 0.02 0.02 0.02 
0.02 0.02 0.02 0.02 0.02 0.02 0.02 0.02 0.02 
0.02 0.02 0.02 0.02 0.02 0.02 0.02 0.02 0.02 
0.02 0.02 0.02 0.02 0.02 0.02 0.02 0.02 0.02 
0.02 0.02 0.02 0.02 0.02 0.02 0.02 0.02 0.02 
0.02 0.02 0.02 0.02 0.02 0.02 0.02 0.02 0.02 
0.02 0.02 0.02 0.02 0.02 0.02 0.02 0.02 0.02 
0.02 0.02 0.02 0.02 0.02 0.02 0.02 0.02 0.02 
0.02 0.02 0.02 0.02 0.02 0.02 0.02 0.02 0.02 
0.02 0.02 0.02 0.02 0.02 0.02 0.02 0.02 0.02 
0.02 0.02 0.02 0.02 0.02 0.02 0.02 0.02 0.02 
0.02 0.02 0.02 0.02 0.02 0.02 0.02 0.02 0.02 
0.02 0.02 0.02 0.02 0.02 0.02 0.02 0.02 0.02 
0.02 0.02 0.02 0.02 0.02 0.02 0.02 0.02 0.02 
0.02 0.02 0.02 0.02 0.02 0.02 0.02 0.02 0.02 
0.02 0.02 0.02 0.02 0.02 0.02 0.02 0.02 0.02 
0.02 0.02 0.02 0.02 0.02 0.02 0.02 0.02 0.02 
0.02 0.02 0.02 0.02 0.02 0.02 0.02 0.02 0.02 
0.02 0.02 0.02 0.02 0.02 0.02 0.02 0.02 0.02 
0.02 0.02 0.02 0.02 0.02 0.02 0.02 0.02 0.02 
0.02 0.02 0.02 0.02 0.02 0.02 0.02 0.02 0.02 
0.02 0.02 0.02 0.02 0.02 0.02 0.02 0.02 0.02 
0.02 0.02 0.02 0.02 0.02 0.02 0.02 0.02 0.02 
0.02 0.02 0.02 0.02 0.02 0.02 0.02 0.02 0.02 
0.02 0.02 0.02 0.02 0.02 0.02 0.02 0.02 0.02 
0.02 0.02 0.02 0.02 0.02 0.02 0.02 0.02 0.02 
0.02 0.02 0.02 0.02 0.02 0.02 0.02 0.02 0.02 
0.02 0.02 0.02 0.02 0.02 0.02 0.02 0.02 0.02 
0.02 0.02 0.02 0.02 0.02 0.02 0.02 0.02 0.02 
0.02 0.02 0.02 0.02 0.02 0.02 0.02 0.02 0.02 
0.02 0.02 0.02 0.02 0.02 0.02 0.02 0.02 0.02 
0.02 0.02 0.02 0.02 0.02 0.02 0.02 0.02 0.02 
0.02 0.02 0.02 0.02 0.02 0.02 0.02 0.02 0.02 
0.02 0.02 0.02 0.02 0.02 0.02 0.02 0.02 0.02 
0.02 0.02 0.02 0.02 0.02 0.02 0.02 0.02 0.02 
0.02 0.02 0.02 0.02 0.02 0.02 0.02 0.02 0.02 
0.02 0.02 0.02 0.02 0.02 0.02 0.02 0.02 0.02 
0.02 0.02 0.02 0.02 0.02 0.02 0.02 0.02 0.02 
0.02 0.02 0.02 0.02 0.02 0.02 0.02 0.02 0.02 
0.02 0.02 0.02 0.02 0.02 0.02 0.02 0.02 0.02 
0.02 0.02 0.02 0.02 0.02 0.02 0.02 0.02 0.02 
0.02 0.02 0.02 0.02 0.02 0.02 0.02 0.02 0.02 
0.02 0.02 0.02 0.02 0.02 0.02 0.02 0.02 0.02 
0.02 0.02 0.02 0.02 0.02 0.02 0.02 0.02 0.02 
0.02 0.02 0.02 0.02 0.02 0.02 0.02 0.02 0.02 
0.02 0.02 0.02 0.02 0.02 0.02 0.02 0.02 0.02 
0.02 0.02 0.02 0.02 0.02 0.02 0.02 0.02 0.02 
0.02 0.02 0.02 0.02 0.02 0.02 0.02 0.02 0.02 
0.02 0.02 0.02 0.02 0.02 0.02 0.02 0.02 0.02 
0.02 0.02 0.02 0.02 0.02 0.02 0.02 0.02 0.02 
0.02 0.02 0.02 0.02 0.02 0.02 0.02 0.02 0.02 
0.02 0.02 0.02 0.02 0.02 0.02 0.02 0.02 0.02 
0.02 0.02 0.02 0.02 0.02 0.02 0.02 0.02 0.02 
0.02 0.02 0.02 0.02 0.02 0.02 0.02 0.02 0.02 
0.02 0.02 0.02 0.02 0.02 0.02 0.02 0.02 0.02 
0.02 0.02 0.02 0.02 0.02 0.02 0.02 0.02 0.02 
0.02 0.02 0.02 0.02 0.02 0.02 0.02 0.02 0.02 
0.02 0.02 0.02 0.02 0.02 0.02 0.02 0.02 0.02 
0.02 0.02 0.02 0.02 0.02 0.02 0.02 0.02 0.02 
0.02 0.02 0.02 0.02 0.02 0.02 0.02 0.02 0.02 
0.02 0.02 0.02 0.02 0.02 0.02 0.02 0.02 0.02 
0.02 0.02 0.02 0.02 0.02 0.02 0.02 0.02 0.02 
0.02 0.02 0.02 0.02 0.02 0.02 0.02 0.02 0.02 
0.02 0.02 0.02 0.02 0.02 0.02 0.02 0.02 0.02 
0.02 0.02 0.02 0.02 0.02 0.02 0.02 0.02 0.02 
0.02 0.02 0.02 0.02 0.02 0.02 0.02 0.02 0.02 
0.02 0.02 0.02 0.02 0.02 0.02 0.02 0.02 0.02 
0.02 0.02 0.02 0.02 0.02 0.02 0.02 0.02 0.02 
0.02 0.02 0.02 0.02 0.02 0.02 0.02 0.02 0.02 
0.02 0.02 0.02 0.02 0.02 0.02 0.02 0.02 0.02 
0.02 0.02 0.02 0.02 0.02 0.02 0.02 0.02 0.02 
0.02 0.02 0.02 0.02 0.02 0.02 0.02 0.02 0.02 
0.02 0.02 0.02 0.02 0.02 0.02 0.02 0.02 0.02 
0.02 0.02 0.02 0.02 0.02 0.02 0.02 0.02 0.02 
0.02 0.02 0.02 0.02 0.02 0.02 0.02 0.02 0.02 
0.02 0.02 0.02 0.02 0.02 0.02 0.02 0.02 0.02 
0.02 0.02 0.02 0.02 0.02 0.02 0.02 0.02 0.02 
0.02 0.02 0.02 0.02 0.02 0.02 0.02 0.02 0.02 
0.02 0.02 0.02 0.02 0.02 0.02 0.02 0.02 0.02 
0.02 0.02 0.02 0.02 0.02 0.02 0.02 0.02 0.02 
0.02 0.02 0.02 0.02 0.02 0.02 0.02 0.02 0.02 
0.02 0.02 0.02 0.02 0.02 0.02 0.02 0.02 0.02 
0.02 0.02 0.02 0.02 0.02 0.02 0.02 0.02 0.02 
0.02 0.02 0.02 0.02 0.02 0.02 0.02 0.02 0.02 
0.02 0.02 0.02 0.02 0.02 0.02 0.02 0.02 0.02 
0.02 0.02 0.02 0.02 0.02 0.02 0.02 0.02 0.02 
0.02 0.02 0.02 0.02 0.02 0.02 0.02 0.02 0.02 
0.02 0.02 0.02 0.02 0.02 0.02 0.02 0.02 0.02 
0.02 0.02 0.02 0.02 0.02 0.02 0.02 0.02 0.02 
0.02 0.02 0.02 0.02 0.02 0.02 0.02 0.02 0.02 
0.02 0.02 0.02 0.02 0.02 0.02 0.02 0.02 0.02 
0.02 0.02 0.02 0.02 0.02 0.02 0.02 0.02 0.02 
0.02 0.02 0.02 0.02 0.02 0.02 0.02 0.02 0.02 
0.02 0.02 0.02 0.02 0.02 0.02 0.02 0.02 0.02 
0.02 0.02 0.02 0.02 0.02 0.02 0.02 0.02 0.02 
0.02 0.02 0.02 0.02 0.02 0.02 0.02 0.02 0.02 
0.02 0.02 0.02 0.02 0.02 0.02 0.02 0.02 0.02 
0.02 0.02 0.02 0.02 0.02 0.02 0.02 0.02 0.02 
0.02 0.02 0.02 0.02 0.02 0.02 0.02 0.02 0.02 
0.02 0.02 0.02 0.02 0.02 0.02 0.02 0.02 0.02 
0.02 0.02 0.02 0.02 0.02 0.02 0.02 0.02 0.02 
0.02 0.02 0.02 0.02 0.02 0.02 0.02 0.02 0.02 
0.02 0.02 0.02 0.02 0.02 0.02 0.02 0.02 0.02 
0.02 0.02 0.02 0.02 0.02 0.02 0.02 0.02 0.02 
0.02 0.02 0.02 0.02 0.02 0.02 0.02 0.02 0.02 
0.02 0.02 0.02 0.02 0.02 0.02 0.02 0.02 0.02 
0.02 0.02 0.02 0.02 0.02 0.02 0.02 0.02 0.02 
0.02 0.02 0.02 0.02 0.02 0.02 0.02 0.02 0.02 
0.02 0.02 0.02 0.02 0.02 0.02 0.02 0.02 0.02 
0.02 0.02 0.02 0.02 0.02 0.02 0.02 0.02 0.02 
0.02 0.02 0.02 0.02 0.02 0.02 0.02 0.02 0.02 
0.02 0.02 0.02 0.02 0.02 0.02 0.02 0.02 0.02 
0.02 0.02 0.02 0.02 0.02 0.02 0.02 0.02 0.02 
0.02 0.02 0.02 0.02 0.02 0.02 0.02 0.02 0.02 
0.02 0.02 0.02 0.02 0.02 0.02 0.02 0.02 0.02 
0.02 0.02 0.02 0.02 0.02 0.02 0.02 0.02 0.02 
0.02 0.02 0.02 0.02 0.02 0.02 0.02 0.02 0.02 
0.02 0.02 0.02 0.02 0.02 0.02 0.02 0.02 0.02 
0.02 0.02 0.02 0.02 0.02 0.02 0.02 0.02 0.02 
0.02 0.02 0.02 0.02 0.02 0.02 0.02 0.02 0.02 
0.02 0.02 0.02 0.02 0.02 0.02 0.02 0.02 0.02 
0.02 0.02 0.02 0.02 0.02 0.02 0.02 0.02 0.02 
0.02 0.02 0.02 0.02 0.02 0.02 0.02 0.02 0.02 
0.02 0.02 0.02 0.02 0.02 0.02 0.02 0.02 0.02 
0.02 0.02 0.02 0.02 0.02 0.02 0.02 0.02 0.02 
0.02 0.02 0.02 0.02 0.02 0.02 0.02 0.02 0.02 
0.02 0.02 0.02 0.02 0.02 0.02 0.02 0.02 0.02 
0.02 0.02 0.02 0.02 0.02 0.02 0.02 0.02 0.02 
0.02 0.02 0.02 0.02 0.02 0.02 0.02 0.02 0.02 
0.02 0.02 0.02 0.02 0.02 0.02 0.02 0.02 0.02 
0.02 0.02 0.02 0.02 0.02 0.02 0.02 0.02 0.02 
0.02 0.02 0.02 0.02 0.02 0.02 0.02 0.02 0.02 
0.02 0.02 0.02 0.02 0.02 0.02 0.02 0.02 0.02 
0.02 0.02 0.02 0.02 0.02 0.02 0.02 0.02 0.02 
0.02 0.02 0.02 0.02 0.02 0.02 0.02 0.02 0.02 
0.02 0.02 0.02 0.02 0.02 0.02 0.02 0.02 0.02 
0.02 0.02 0.02 0.02 0.02 0.02 0.02 0.02 0.02 
0.02 0.02 0.02 0.02 0.02 0.02 0.02 0.02 0.02 
0.02 0.02 0.02 0.02 0.02 0.02 0.02 0.02 0.02 
0.02 0.02 0.02 0.02 0.02 0.02 0.02 0.02 0.02 
0.02 0.02 0.02 0.02 0.02 0.02 0.02 0.02 0.02 
0.02 0.02 0.02 0.02 0.02 0.02 0.02 0.02 0.02 
0.02 0.02 0.02 0.02 0.02 0.02 0.02 0.02 0.02 
0.02 0.02 0.02 0.02 0.02 0.02 0.02 0.02 0.02 
0.02 0.02 0.02 0.02 0.02 0.02 0.02 0.02 0.02 
0.02 0.02 0.02 0.02 0.02 0.02 0.02 0.02 0.02 
0.02 0.02 0.02 0.02 0.02 0.02 0.02 0.02 0.02 
0.02 0.02 0.02 0.02 0.02 0.02 0.02 0.02 0.02 
0.02 0.02 0.02 0.02 0.02 0.02 0.02 0.02 0.02 
0.02 0.02 0.02 0.02 0.02 0.02 0.02 0.02 0.02 
0.02 0.02 0.02 0.02 0.02 0.02 0.02 0.02 0.02 
0.02 0.02 0.02 0.02 0.02 0.02 0.02 0.02 0.02 
0.02 0.02 0.02 0.02 0.02 0.02 0.02 0.02 0.02 
0.02 0.02 0.02 0.02 0.02 0.02 0.02 0.02 0.02 
0.02 0.02 0.02 0.02 0.02 0.02 0.02 0.02 0.02 
0.02 0.02 0.02 0.02 0.02 0.02 0.02 0.02 0.02 
0.02 0.02 0.02 0.02 0.02 0.02 0.02 0.02 0.02 
0.02 0.02 0.02 0.02 0.02 0.02 0.02 0.02 0.02 
0.02 0.02 0.02 0.02 0.02 0.02 0.02 0.02 0.02 
0.02 0.02 0.02 0.02 0.02 0.02 0.02 0.02 0.02 
0.02 0.02 0.02 0.02 0.02 0.02 0.02 0.02 0.02 
0.02 0.02 0.02 0.02 0.02 0.02 0.02 0.02 0.02 
0.02 0.02 0.02 0.02 0.02 0.02 0.02 0.02 0.02 
0.02 0.02 0.02 0.02 0.02 0.02 0.02 0.02 0.02 
0.02 0.02 0.02 0.02 0.02 0.02 0.02 0.02 0.02 
0.02 0.02 0.02 0.02 0.02 0.02 0.02 0.02 0.02 
0.02 0.02 0.02 0.02 0.02 0.02 0.02 0.02 0.02 
0.02 0.02 0.02 0.02 0.02 0.02 0.02 0.02 0.02 
0.02 0.02 0.02 0.02 0.02 0.02 0.02 0.02 0.02 
0.02 0.02 0.02 0.02 0.02 0.02 0.02 0.02 0.02 
0.02 0.02 0.02 0.02 0.02 0.02 0.02 0.02 0.02 
0.02 0.02 0.02 0.02 0.02 0.02 0.02 0.02 0.02 
0.02 0.02 0.02 0.02 0.02 0.02 0.02 0.02 0.02 
0.02 0.02 0.02 0.02 0.02 0.02 0.02 0.02 0.02 
0.02 0.02 0.02 0.02 0.02 0.02 0.02 0.02 0.02 
0.02 0.02 0.02 0.02 0.02 0.02 0.02 0.02 0.02 
0.02 0.02 0.02 0.02 0.02 0.02 0.02 0.02 0.02 
0.02 0.02 0.02 0.02 0.02 0.02 0.02 0.02 0.02 
0.02 0.02 0.02 0.02 0.02 0.02 0.02 0.02 0.02 
0.02 0.02 0.02 0.02 0.02 0.02 0.02 0.02 0.02 
0.02 0.02 0.02 0.02 0.02 0.02 0.02 0.02 0.02 
0.02 0.02 0.02 0.02 0.02 0.02 0.02 0.02 0.02 
0.02 0.02 0.02 0.02 0.02 0.02 0.02 0.02 0.02 
0.02 0.02 0.02 0.02 0.02 0.02 0.02 0.02 0.02 
0.02 0.02 0.02 0.02 0.02 0.02 0.02 0.02 0.02 
0.02 0.02 0.02 0.02 0.02 0.02 0.02 0.02 0.02 
0.02 0.02 0.02 0.02 0.02 0.02 0.02 0.02 0.02 
0.02 0.02 0.02 0.02 0.02 0.02 0.02 0.02 0.02 
0.02 0.02 0.02 0.02 0.02 0.02 0.02 0.02 0.02 
0.02 0.02 0.02 0.02 0.02 0.02 0.02 0.02 0.02 
0.02 0.02 0.02 0.02 0.02 0.02 0.02 0.02 0.02 
0.02 0.02 0.02 0.02 0.02 0.02 0.02 0.02 0.02 
0.02 0.02 0.02 0.02 0.02 0.02 0.02 0.02 0.02 
0.02 0.02 0.02 0.02 0.02 0.02 0.02 0.02 0.02 
0.02 0.02 0.02 0.02 0.02 0.02 0.02 0.02 0.02 
0.02 0.02 0.02 0.02 0.02 0.02 0.02 0.02 0.02 
0.02 0.02 0.02 0.02 0.02 0.02 0.02 0.02 0.02 
0.02 0.02 0.02 0.02 0.02 0.02 0.02 0.02 0.02 
0.02 0.02 0.02 0.02 0.02 0.02 0.02 0.02 0.02 
0.02 0.02 0.02 0.02 0.02 0.02 0.02 0.02 0.02 
0.02 0.02 0.02 0.02 0.02 0.02 0.02 0.02 0.02 
0.02 0.02 0.02 0.02 0.02 0.02 0.02 0.02 0.02 
0.02 0.02 0.02 0.02 0.02 0.02 0.02 0.02 0.02 
0.02 0.02 0.02 0.02 0.02 0.02 0.02 0.02 0.02 
0.02 0.02 0.02 0.02 0.02 0.02 0.02 0.02 0.02 
0.02 0.02 0.02 0.02 0.02 0.02 0.02 0.02 0.02 
0.02 0.02 0.02 0.02 0.02 0.02 0.02 0.02 0.02 
0.02 0.02 0.02 0.02 0.02 0.02 0.02 0.02 0.02 
0.02 0.02 0.02 0.02 0.02 0.02 0.02 0.02 0.02 
0.02 0.02 0.02 0.02 0.02 0.02 0.02 0.02 0.02 
0.02 0.02 0.02 0.02 0.02 0.02 0.02 0.02 0.02 
0.02 0.02 0.02 0.02 0.02 0.02 0.02 0.02 0.02 
0.02 0.02 0.02 0.02 0.02 0.02 0.02 0.02 0.02 
0.02 0.02 0.02 0.02 0.02 0.02 0.02 0.02 0.02 
0.02 0.02 0.02 0.02 0.02 0.02 0.02 0.02 0.02 
0.02 0.02 0.02 0.02 0.02 0.02 0.02 0.02 0.02 
0.02 0.02 0.02 0.02 0.02 0.02 0.02 0.02 0.02 
0.02 0.02 0.02 0.02 0.02 0.02 0.02 0.02 0.02 
0.02 0.02 0.02 0.02 0.02 0.02 0.02 0.02 0.02 
0.02 0.02 0.02 0.02 0.02 0.02 0.02 0.02 0.02 
0.02 0.02 0.02 0.02 0.02 0.02 0.02 0.02 0.02 
0.02 0.02 0.02 0.02 0.02 0.02 0.02 0.02 0.02 
0.02 0.02 0.02 0.02 0.02 0.02 0.02 0.02 0.02 
0.02 0.02 0.02 0.02 0.02 0.02 0.02 0.02 0.02 
0.02 0.02 0.02 0.02 0.02 0.02 0.02 0.02 0.02 
0.02 0.02 0.02 0.02 0.02 0.02 0.02 0.02 0.02 
0.02 0.02 0.02 0.02 0.02 0.02 0.02 0.02 0.02 
0.02 0.02 0.02 0.02 0.02 0.02 0.02 0.02 0.02 
0.02 0.02 0.02 0.02 0.02 0.02 0.02 0.02 0.02 
0.02 0.02 0.02 0.02 0.02 0.02 0.02 0.02 0.02 
0.02 0.02 0.02 0.02 0.02 0.02 0.02 0.02 0.02 
0.02 0.02 0.02 0.02 0.02 0.02 0.02 0.02 0.02 
0.02 0.02 0.02 0.02 0.02 0.02 0.02 0.02 0.02 
0.02 0.02 0.02 0.02 0.02 0.02 0.02 0.02 0.02 
0.02 0.02 0.02 0.02 0.02 0.02 0.02 0.02 0.02 
0.02 0.02 0.02 0.02 0.02 0.02 0.02 0.02 0.02 
0.02 0.02 0.02 0.02 0.02 0.02 0.02 0.02 0.02 
0.02 0.02 0.02 0.02 0.02 0.02 0.02 0.02 0.02 
0.02 0.02 0.02 0.02 0.02 0.02 0.02 0.02 0.02 
0.02 0.02 0.02 0.02 0.02 0.02 0.02 0.02 0.02 
0.02 0.02 0.02 0.02 0.02 0.02 0.02 0.02 0.02 
0.02 0.02 0.02 0.02 0.02 0.02 0.02 0.02 0.02 
0.02 0.02 0.02 0.02 0.02 0.02 0.02 0.02 0.02 
0.02 0.02 0.02 0.02 0.02 0.02 0.02 0.02 0.02 
0.02 0.02 0.02 0.02 0.02 0.02 0.02 0.02 0.02 
0.02 0.02 0.02 0.02 0.02 0.02 0.02 0.02 0.02 
0.02 0.02 0.02 0.02 0.02 0.02 0.02 0.02 0.02 
0.02 0.02 0.02 0.02 0.02 0.02 0.02 0.02 0.02 
0.02 0.02 0.02 0.02 0.02 0.02 0.02 0.02 0.02 
0.02 0.02 0.02 0.02 0.02 0.02 0.02 0.02 0.02 
0.02 0.02 0.02 0.02 0.02 0.02 0.02 0.02 0.02 
0.02 0.02 0.02 0.02 0.02 0.02 0.02 0.02 0.02 
0.02 0.02 0.02 0.02 0.02 0.02 0.02 0.02 0.02 
0.02 0.02 0.02 0.02 0.02 0.02 0.02 0.02 0.02 
0.02 0.02 0.02 0.02 0.02 0.02 0.02 0.02 0.02 
0.02 0.02 0.02 0.02 0.02 0.02 0.02 0.02 0.02 
0.02 0.02 0.02 0.02 0.02 0.02 0.02 0.02 0.02 
0.02 0.02 0.02 0.02 0.02 0.02 0.02 0.02 0.02 
0.02 0.02 0.02 0.02 0.02 0.02 0.02 0.02 0.02 
0.02 0.02 0.02 0.02 0.02 0.02 0.02 0.02 0.02 
0.02 0.02 0.02 0.02 0.02 0.02 0.02 0.02 0.02 
0.02 0.02 0.02 0.02 0.02 0.02 0.02 0.02 0.02 
0.02 0.02 0.02 0.02 0.02 0.02 0.02 0.02 0.02 
0.02 0.02 0.02 0.02 0.02 0.02 0.02 0.02 0.02 
0.02 0.02 0.02 0.02 0.02 0.02 0.02 0.02 0.02 
0.02 0.02 0.02 0.02 0.02 0.02 0.02 0.02 0.02 
0.02 0.02 0.02 0.02 0.02 0.02 0.02 0.02 0.02 
0.02 0.02 0.02 0.02 0.02 0.02 0.02 0.02 0.02 
0.02 0.02 0.02 0.02 0.02 0.02 0.02 0.02 0.02 
0.02 0.02 0.02 0.02 0.02 0.02 0.02 0.02 0.02 
0.02 0.02 0.02 0.02 0.02 0.02 0.02 0.02 0.02 
0.02 0.02 0.02 0.02 0.02 0.02 0.02 0.02 0.02 
0.02 0.02 0.02 0.02 0.02 0.02 0.02 0.02 0.02 
0.02 0.02 0.02 0.02 0.02 0.02 0.02 0.02 0.02 
0.02 0.02 0.02 0.02 0.02 0.02 0.02 0.02 0.02 
0.02 0.02 0.02 0.02 0.02 0.02 0.02 0.02 0.02 
0.02 0.02 0.02 0.02 0.02 0.02 0.02 0.02 0.02 
0.02 0.02 0.02 0.02 0.02 0.02 0.02 0.02 0.02 
0.02 0.02 0.02 0.02 0.02 0.02 0.02 0.02 0.02 
0.02 0.02 0.02 0.02 0.02 0.02 0.02 0.02 0.02 
0.02 0.02 0.02 0.02 0.02 0.02 0.02 0.02 0.02 
0.02 0.02 0.02 0.02 0.02 0.02 0.02 0.02 0.02 
0.02 0.02 0.02 0.02 0.02 0.02 0.02 0.02 0.02 
0.02 0.02 0.02 0.02 0.02 0.02 0.02 0.02 0.02 
0.02 0.02 0.02 0.02 0.02 0.02 0.02 0.02 0.02 
0.02 0.02 0.02 0.02 0.02 0.02 0.02 0.02 0.02 
0.02 0.02 0.02 0.02 0.02 0.02 0.02 0.02 0.02 
0.02 0.02 0.02 0.02 0.02 0.02 0.02 0.02 0.02 
0.02 0.02 0.02 0.02 0.02 0.02 0.02 0.02 0.02 
0.02 0.02 0.02 0.02 0.02 0.02 0.02 0.02 0.02 
0.02 0.02 0.02 0.02 0.02 0.02 0.02 0.02 0.02 
0.02 0.02 0.02 0.02 0.02 0.02 0.02 0.02 0.02 

POINT_DATA 9610
FIELD FieldData 1
Bed_Elev_m 1 9610 double
0.07553717494 0.072586730123 0.075662434101 0.07241269201 0.073299214244 0.083241671324 0.08569123596 0.077467411757 0.068724192679 
0.058219458908 0.047355044633 0.05262138322 0.054255034775 0.049980182201 0.054412789643 0.072089999914 0.091008931398 0.09657767415 
0.089469343424 0.089980430901 0.096735879779 0.10385231674 0.094612747431 0.082164645195 0.08035415411 0.089107640088 0.091087311506 
0.081848211586 0.075282156467 0.069869413972 0.067057110369 0.28700000048 0.28700000048 0.28700000048 0.28700000048 0.28700000048 
0.28700000048 0.28700000048 0.28700000048 0.28700000048 0.28700000048 0.28700000048 0.28700000048 0.28700000048 0.28700000048 
0.28700000048 0.28700000048 0.28700000048 0.28700000048 0.28700000048 0.28700000048 0.28700000048 0.28700000048 0.28700000048 
0.28700000048 0.28700000048 0.28700000048 0.28700000048 0.28700000048 0.28700000048 0.28700000048 0.28700000048 0.090614773333 
0.090539246798 0.10428993404 0.091513998806 0.087625131011 0.10741644353 0.10945007205 0.094590209424 0.08657322824 0.080418519676 
0.054744616151 0.070542007685 0.073492459953 0.065512552857 0.066590674222 0.086605943739 0.11054953188 0.1184823364 0.097780004144 
0.10460165888 0.11066024005 0.13039319217 0.11354082078 0.096594825387 0.090717747808 0.10659813136 0.11055461317 0.088837958872 
0.090591408312 0.086541190743 0.080604672432 0.11777001619 0.12939123809 0.14341463149 0.12747333944 0.12244204432 0.14342571795 
0.13782611489 0.12563630939 0.11473683268 0.11732920259 0.10000197589 0.091014869511 0.10942294449 0.11205178499 0.11109313369 
0.11571389437 0.13586455584 0.14760138094 0.12570586801 0.13646830618 0.14355620742 0.15392751992 0.14757317305 0.13431586325 
0.11874909699 0.12991766632 0.13107007742 0.12015999854 0.12344000489 0.11064000428 0.12508000433 0.15376405418 0.16291598976 
0.16549560428 0.16194143891 0.16829551756 0.17509652674 0.16629597545 0.15710483491 0.15832109749 0.15463031828 0.13882249594 
0.13247841597 0.14482088387 0.13861592114 0.14133302867 0.148092255 0.17184633017 0.18749898672 0.17037445307 0.17554911971 
0.18078650534 0.18977843225 0.17453044653 0.16892449558 0.15387426317 0.16555188596 0.16206766665 0.1557200104 0.1606400013 
0.14460000396 0.16728000343 0.18724030256 0.20370472968 0.22031629086 0.19358682632 0.20051541924 0.20549027622 0.19645866752 
0.18840691447 0.18611766398 0.20321129262 0.16406552494 0.16627067327 0.17730879784 0.17571769655 0.17230536044 0.17951102555 
0.19351065159 0.21399375796 0.20090480149 0.21114248037 0.21706022322 0.21125163138 0.20263709128 0.19942955673 0.1920542717 
0.2021445781 0.1996023953 0.16139999032 0.19028000534 0.17623999715 0.22164000571 0.22863642871 0.23421537876 0.23869735003 
0.22763724625 0.23437358439 0.23680537939 0.23051658273 0.22239938378 0.22033679485 0.20613434911 0.21358257532 0.20753590763 
0.20705078542 0.21589924395 0.2091076225 0.20697136223 0.22184735537 0.237454772 0.23198954761 0.24127683043 0.25274798274 
0.24195557833 0.23832948506 0.22985157371 0.22743009031 0.22639991343 0.22194777429 0.23019999266 0.22540000081 0.21899999678 
0.24699999392 0.26592051983 0.26706492901 0.26453712583 0.26389077306 0.26394101977 0.26242849231 0.25733023882 0.25559693575 
0.25228962302 0.2324526459 0.2511395216 0.24434675276 0.23334616423 0.24857497215 0.24607524276 0.24556060135 0.2518030107 
0.25358602405 0.25407192111 0.25518795848 0.25752818584 0.25806760788 0.25932464004 0.25990742445 0.2613530755 0.26162454486 
0.25546893477 0.26715999842 0.25872001052 0.26227998734 0.26355999708 0.28612622619 0.28484910727 0.28075128794 0.27819865942 
0.27499672771 0.2712584734 0.26769369841 0.2664282918 0.26186415553 0.25313535333 0.25865450501 0.25493007898 0.24891191721 
0.25599470735 0.25854167342 0.25905948877 0.25931295753 0.25713437796 0.25578075647 0.2537766397 0.25315022469 0.25639021397 
0.26148712635 0.26712396741 0.27195706964 0.27371785045 0.2730948925 0.27913853526 0.27514895797 0.27415531874 0.27383312583 
0.29312691092 0.28690880537 0.28001990914 0.27505648136 0.27107337117 0.26741027832 0.26432609558 0.26172086596 0.25753954053 
0.25316652656 0.25230500102 0.25012046099 0.24785016477 0.24975381792 0.25204750896 0.25268420577 0.25191059709 0.25041997433 
0.24901908636 0.24742048979 0.24678272009 0.24896767735 0.25348797441 0.25895187259 0.26410961151 0.26733443141 0.26953750849 
0.27266132832 0.27402433753 0.27542313933 0.27720424533 0.29478025436 0.28194713593 0.27354833484 0.26854613423 0.26540139318 
0.26271036267 0.26012045145 0.25750741363 0.25404635072 0.25025397539 0.24849590659 0.24716900289 0.24565604329 0.24559685588 
0.24699191749 0.24764293432 0.2468572706 0.24708242714 0.24750550091 0.24712203443 0.24601733685 0.24675409496 0.24925287068 
0.25236439705 0.25670140982 0.2600440383 0.26218295097 0.26437482238 0.26884609461 0.27404668927 0.27760261297 0.29526519775 
0.27798950672 0.2758385241 0.27246806026 0.27185976505 0.27056837082 0.26922178268 0.26787272096 0.266310215 0.26302695274 
0.26263484359 0.26242727041 0.26126891375 0.26032009721 0.26140961051 0.2623540163 0.26057526469 0.26239901781 0.26355689764 
0.26437866688 0.26244387031 0.2624656558 0.26362404227 0.26329267025 0.26658922434 0.26815634966 0.26933547854 0.26895016432 
0.27344289422 0.27901953459 0.28081145883 0.28700000048 0.28700000048 0.28700000048 0.28700000048 0.28700000048 0.28700000048 
0.28700000048 0.28700000048 0.28700000048 0.28700000048 0.28700000048 0.28700000048 0.28700000048 0.28700000048 0.28700000048 
0.28700000048 0.28700000048 0.28700000048 0.28700000048 0.28700000048 0.28700000048 0.28700000048 0.28700000048 0.28700000048 
0.28700000048 0.28700000048 0.28700000048 0.28700000048 0.28700000048 0.28700000048 0.28700000048 0.28700000048 0.28700000048 
0.28700000048 0.28700000048 0.28700000048 0.28700000048 0.28700000048 0.28700000048 0.28700000048 0.28700000048 0.28700000048 
0.28700000048 0.28700000048 0.28700000048 0.28700000048 0.28700000048 0.28700000048 0.28700000048 0.28700000048 0.28700000048 
0.28700000048 0.28700000048 0.28700000048 0.28700000048 0.28700000048 0.28700000048 0.28700000048 0.28700000048 0.28700000048 
0.28700000048 0.28700000048 0.28700000048 0.28700000048 0.28700000048 0.28700000048 0.28700000048 0.28700000048 0.28700000048 
0.28700000048 0.28700000048 0.28700000048 0.28700000048 0.28700000048 0.28700000048 0.28700000048 0.28700000048 0.28700000048 
0.28700000048 0.28700000048 0.28700000048 0.28700000048 0.28700000048 0.28700000048 0.28700000048 0.28700000048 0.28700000048 
0.28700000048 0.28700000048 0.28700000048 0.28700000048 0.28700000048 0.28700000048 0.28700000048 0.28700000048 0.28700000048 
0.28700000048 0.28700000048 0.28700000048 0.28700000048 0.28700000048 0.28700000048 0.28700000048 0.28700000048 0.28700000048 
0.28700000048 0.28700000048 0.28700000048 0.28700000048 0.28700000048 0.28700000048 0.28700000048 0.28700000048 0.28700000048 
0.28700000048 0.28700000048 0.28700000048 0.28700000048 0.28700000048 0.28700000048 0.28700000048 0.28700000048 0.28700000048 
0.28700000048 0.28700000048 0.28700000048 0.28700000048 0.28700000048 0.28700000048 0.28700000048 0.28700000048 0.28700000048 
0.28700000048 0.28700000048 0.28700000048 0.28700000048 0.28700000048 0.28700000048 0.28700000048 0.28700000048 0.28700000048 
0.28700000048 0.28700000048 0.28700000048 0.28700000048 0.28700000048 0.28700000048 0.28700000048 0.28700000048 0.28700000048 
0.28700000048 0.28700000048 0.28700000048 0.28700000048 0.28700000048 0.28700000048 0.28700000048 0.28700000048 0.28700000048 
0.28700000048 0.28700000048 0.28700000048 0.28700000048 0.28700000048 0.28700000048 0.28700000048 0.28700000048 0.28700000048 
0.28700000048 0.28700000048 0.28700000048 0.28700000048 0.28700000048 0.28700000048 0.28700000048 0.28700000048 0.28700000048 
0.28700000048 0.28700000048 0.28700000048 0.28700000048 0.28700000048 0.28700000048 0.28700000048 0.28700000048 0.28700000048 
0.28700000048 0.28700000048 0.28700000048 0.28700000048 0.28700000048 0.28700000048 0.28700000048 0.28700000048 0.28700000048 
0.28700000048 0.28700000048 0.28700000048 0.28700000048 0.28700000048 0.28700000048 0.28700000048 0.28700000048 0.28700000048 
0.28700000048 0.28700000048 0.28700000048 0.28700000048 0.28700000048 0.28700000048 0.28700000048 0.28700000048 0.28700000048 
0.28700000048 0.28700000048 0.28700000048 0.28700000048 0.28700000048 0.28700000048 0.28700000048 0.28700000048 0.28700000048 
0.28700000048 0.28700000048 0.28700000048 0.28700000048 0.28700000048 0.28700000048 0.28700000048 0.28700000048 0.28700000048 
0.28700000048 0.28700000048 0.28700000048 0.28700000048 0.28700000048 0.28700000048 0.28700000048 0.28700000048 0.28700000048 
0.28700000048 0.28700000048 0.28700000048 0.28700000048 0.28700000048 0.28700000048 0.28700000048 0.28700000048 0.28700000048 
0.28700000048 0.28700000048 0.28700000048 0.28700000048 0.28700000048 0.28700000048 0.28700000048 0.28700000048 0.28700000048 
0.28700000048 0.28700000048 0.28700000048 0.28700000048 0.28700000048 0.28700000048 0.28700000048 0.28700000048 0.28700000048 
0.28700000048 0.28700000048 0.28700000048 0.28700000048 0.28700000048 0.28700000048 0.28700000048 0.28700000048 0.28700000048 
0.28700000048 0.28700000048 0.28700000048 0.28700000048 0.28700000048 0.28700000048 0.28700000048 0.28700000048 0.28700000048 
0.28700000048 0.28700000048 0.28700000048 0.28700000048 0.28700000048 0.28700000048 0.28700000048 0.28700000048 0.28700000048 
0.28700000048 0.28700000048 0.28700000048 0.28700000048 0.28700000048 0.28700000048 0.28700000048 0.28700000048 0.28700000048 
0.28700000048 0.28700000048 0.28700000048 0.28700000048 0.28700000048 0.28700000048 0.28700000048 0.28700000048 0.28700000048 
0.28700000048 0.28700000048 0.28700000048 0.28700000048 0.28700000048 0.28700000048 0.28700000048 0.28700000048 0.28700000048 
0.28700000048 0.28700000048 0.28700000048 0.28700000048 0.28700000048 0.28700000048 0.28700000048 0.28700000048 0.28700000048 
0.28700000048 0.28700000048 0.28700000048 0.28700000048 0.28700000048 0.28700000048 0.28700000048 0.28700000048 0.28700000048 
0.28700000048 0.28700000048 0.28700000048 0.28700000048 0.28700000048 0.28700000048 0.28700000048 0.28700000048 0.28700000048 
0.28700000048 0.28700000048 0.28700000048 0.28700000048 0.28700000048 0.28700000048 0.28700000048 0.28700000048 0.28700000048 
0.28700000048 0.28700000048 0.28700000048 0.28700000048 0.28700000048 0.28700000048 0.28700000048 0.28700000048 0.28700000048 
0.28700000048 0.28700000048 0.28700000048 0.28700000048 0.28700000048 0.28700000048 0.28700000048 0.28700000048 0.28700000048 
0.28700000048 0.28700000048 0.28700000048 0.28700000048 0.28700000048 0.28700000048 0.28700000048 0.28700000048 0.28700000048 
0.28700000048 0.28700000048 0.28700000048 0.28700000048 0.28700000048 0.28700000048 0.28700000048 0.28700000048 0.28700000048 
0.28700000048 0.28700000048 0.28700000048 0.28700000048 0.28700000048 0.28700000048 0.28700000048 0.28700000048 0.28700000048 
0.28700000048 0.28700000048 0.28700000048 0.28700000048 0.28700000048 0.28700000048 0.28700000048 0.28700000048 0.28700000048 
0.28700000048 0.28700000048 0.28700000048 0.28700000048 0.28700000048 0.28700000048 0.28700000048 0.28700000048 0.28700000048 
0.28700000048 0.28700000048 0.28700000048 0.28700000048 0.28700000048 0.28700000048 0.28700000048 0.28700000048 0.28700000048 
0.28700000048 0.28700000048 0.28700000048 0.28700000048 0.28700000048 0.28700000048 0.28700000048 0.28700000048 0.28700000048 
0.28700000048 0.28700000048 0.28700000048 0.28700000048 0.28700000048 0.28700000048 0.28700000048 0.28700000048 0.28700000048 
0.28700000048 0.28700000048 0.28700000048 0.28700000048 0.28700000048 0.28700000048 0.28700000048 0.28700000048 0.28700000048 
0.28700000048 0.28700000048 0.28700000048 0.28700000048 0.28700000048 0.28700000048 0.28700000048 0.28700000048 0.28700000048 
0.28700000048 0.28700000048 0.28700000048 0.28700000048 0.28700000048 0.28700000048 0.28700000048 0.28700000048 0.28700000048 
0.28700000048 0.28700000048 0.28700000048 0.28700000048 0.28700000048 0.28700000048 0.28700000048 0.28700000048 0.28700000048 
0.28700000048 0.28700000048 0.28700000048 0.28700000048 0.28700000048 0.28700000048 0.28700000048 0.28700000048 0.28700000048 
0.28700000048 0.28700000048 0.28700000048 0.28700000048 0.28700000048 0.28700000048 0.28700000048 0.28700000048 0.28700000048 
0.28700000048 0.28700000048 0.28700000048 0.28700000048 0.28700000048 0.28700000048 0.28700000048 0.28700000048 0.28700000048 
0.28700000048 0.28700000048 0.28700000048 0.28700000048 0.28700000048 0.28700000048 0.28700000048 0.28700000048 0.28700000048 
0.28700000048 0.28700000048 0.28700000048 0.28700000048 0.28700000048 0.28700000048 0.28700000048 0.28700000048 0.28700000048 
0.28700000048 0.28700000048 0.28700000048 0.28700000048 0.28700000048 0.28700000048 0.28700000048 0.28700000048 0.28700000048 
0.28700000048 0.28700000048 0.28700000048 0.28700000048 0.28700000048 0.28700000048 0.28700000048 0.28700000048 0.28700000048 
0.28700000048 0.28700000048 0.28700000048 0.28700000048 0.28700000048 0.28700000048 0.28700000048 0.28700000048 0.28700000048 
0.28700000048 0.28700000048 0.28700000048 0.28700000048 0.28700000048 0.28700000048 0.28700000048 0.28700000048 0.28700000048 
0.28700000048 0.28700000048 0.28700000048 0.28700000048 0.28700000048 0.28700000048 0.28700000048 0.28700000048 0.28700000048 
0.28700000048 0.28700000048 0.28700000048 0.28700000048 0.28700000048 0.28700000048 0.28700000048 0.28700000048 0.28700000048 
0.28700000048 0.28700000048 0.28700000048 0.28700000048 0.28700000048 0.28700000048 0.28700000048 0.28700000048 0.28700000048 
0.28700000048 0.28700000048 0.28700000048 0.28700000048 0.28700000048 0.28700000048 0.28700000048 0.28700000048 0.28700000048 
0.28700000048 0.28700000048 0.28700000048 0.28700000048 0.28700000048 0.28700000048 0.28700000048 0.28700000048 0.28700000048 
0.28700000048 0.28700000048 0.28700000048 0.28700000048 0.28700000048 0.28700000048 0.28700000048 0.28700000048 0.28700000048 
0.28700000048 0.28700000048 0.28700000048 0.28700000048 0.28700000048 0.28700000048 0.28700000048 0.28700000048 0.28700000048 
0.28700000048 0.28700000048 0.28700000048 0.28700000048 0.28700000048 0.28700000048 0.28700000048 0.28700000048 0.28700000048 
0.28700000048 0.28700000048 0.28700000048 0.28700000048 0.28700000048 0.28700000048 0.28700000048 0.28700000048 0.28700000048 
0.28700000048 0.28700000048 0.28700000048 0.28700000048 0.28700000048 0.28700000048 0.28700000048 0.28700000048 0.28700000048 
0.28700000048 0.28700000048 0.28700000048 0.28700000048 0.28700000048 0.28700000048 0.28700000048 0.28700000048 0.28700000048 
0.28700000048 0.28700000048 0.28700000048 0.28700000048 0.28700000048 0.28700000048 0.28700000048 0.28700000048 0.28700000048 
0.28700000048 0.28700000048 0.28700000048 0.28700000048 0.28700000048 0.28700000048 0.28700000048 0.28700000048 0.28700000048 
0.28700000048 0.28700000048 0.28700000048 0.28700000048 0.28700000048 0.28700000048 0.28700000048 0.28700000048 0.28700000048 
0.28700000048 0.28700000048 0.28700000048 0.28700000048 0.28700000048 0.28700000048 0.28700000048 0.28700000048 0.28700000048 
0.28700000048 0.28700000048 0.28700000048 0.28700000048 0.28700000048 0.28700000048 0.28700000048 0.28700000048 0.28700000048 
0.28700000048 0.28700000048 0.28700000048 0.28700000048 0.28700000048 0.28700000048 0.28700000048 0.28700000048 0.28700000048 
0.28700000048 0.28700000048 0.28700000048 0.28700000048 0.28700000048 0.28700000048 0.28700000048 0.28700000048 0.28700000048 
0.28700000048 0.28700000048 0.28700000048 0.28700000048 0.28700000048 0.28700000048 0.28700000048 0.28700000048 0.28700000048 
0.28700000048 0.28700000048 0.28700000048 0.28700000048 0.28700000048 0.28700000048 0.28700000048 0.28700000048 0.28700000048 
0.28700000048 0.28700000048 0.28700000048 0.28700000048 0.28700000048 0.28700000048 0.28700000048 0.28700000048 0.28700000048 
0.28700000048 0.28700000048 0.28700000048 0.28700000048 0.28700000048 0.28700000048 0.28700000048 0.28700000048 0.28700000048 
0.28700000048 0.28700000048 0.28700000048 0.28700000048 0.28700000048 0.28700000048 0.28700000048 0.28700000048 0.28700000048 
0.28700000048 0.28700000048 0.28700000048 0.28700000048 0.28700000048 0.28700000048 0.28700000048 0.28700000048 0.28700000048 
0.28700000048 0.28700000048 0.28700000048 0.28700000048 0.28700000048 0.28700000048 0.28700000048 0.28700000048 0.28700000048 
0.28700000048 0.28700000048 0.28700000048 0.28700000048 0.28700000048 0.28700000048 0.28700000048 0.28700000048 0.28700000048 
0.28700000048 0.28700000048 0.28700000048 0.28700000048 0.28700000048 0.28700000048 0.28700000048 0.28700000048 0.28700000048 
0.28700000048 0.28700000048 0.28700000048 0.28700000048 0.28700000048 0.28700000048 0.28700000048 0.28700000048 0.28700000048 
0.28700000048 0.28700000048 0.28700000048 0.28700000048 0.28700000048 0.28700000048 0.28700000048 0.28700000048 0.28700000048 
0.28700000048 0.28700000048 0.28700000048 0.28700000048 0.28700000048 0.28700000048 0.28700000048 0.28700000048 0.28700000048 
0.28700000048 0.28700000048 0.28700000048 0.28700000048 0.28700000048 0.28700000048 0.28700000048 0.28700000048 0.28700000048 
0.28700000048 0.28700000048 0.28700000048 0.28700000048 0.28700000048 0.28700000048 0.28700000048 0.28700000048 0.28700000048 
0.28700000048 0.28700000048 0.28700000048 0.28700000048 0.28700000048 0.28700000048 0.28700000048 0.28700000048 0.28700000048 
0.28700000048 0.28700000048 0.28700000048 0.28700000048 0.28700000048 0.28700000048 0.28700000048 0.28700000048 0.28700000048 
0.28700000048 0.28700000048 0.28700000048 0.28700000048 0.28700000048 0.28700000048 0.28700000048 0.28700000048 0.28700000048 
0.28700000048 0.28700000048 0.28700000048 0.28700000048 0.28700000048 0.28700000048 0.28700000048 0.28700000048 0.28700000048 
0.28700000048 0.28700000048 0.28700000048 0.28700000048 0.28700000048 0.28700000048 0.28700000048 0.28700000048 0.28700000048 
0.28700000048 0.28700000048 0.28700000048 0.28700000048 0.28700000048 0.28700000048 0.28700000048 0.28700000048 0.28700000048 
0.28700000048 0.28700000048 0.28700000048 0.28700000048 0.28700000048 0.28700000048 0.28700000048 0.28700000048 0.28700000048 
0.28700000048 0.28700000048 0.28700000048 0.28700000048 0.28700000048 0.28700000048 0.28700000048 0.28700000048 0.28700000048 
0.28700000048 0.28700000048 0.28700000048 0.28700000048 0.28700000048 0.28700000048 0.28700000048 0.28700000048 0.28700000048 
0.28700000048 0.28700000048 0.28700000048 0.28700000048 0.28700000048 0.28700000048 0.28700000048 0.28700000048 0.28700000048 
0.28700000048 0.28700000048 0.28700000048 0.28700000048 0.28700000048 0.28700000048 0.28700000048 0.28700000048 0.28700000048 
0.28700000048 0.28700000048 0.28700000048 0.28700000048 0.28700000048 0.28700000048 0.28700000048 0.28700000048 0.28700000048 
0.28700000048 0.28700000048 0.28700000048 0.28700000048 0.28700000048 0.28700000048 0.28700000048 0.28700000048 0.28700000048 
0.28700000048 0.28700000048 0.28700000048 0.28700000048 0.28700000048 0.28700000048 0.28700000048 0.28700000048 0.28700000048 
0.28700000048 0.28700000048 0.28700000048 0.28700000048 0.28700000048 0.28700000048 0.28700000048 0.28700000048 0.28700000048 
0.28700000048 0.28700000048 0.28700000048 0.28700000048 0.28700000048 0.28700000048 0.28700000048 0.28700000048 0.28700000048 
0.28700000048 0.28700000048 0.28700000048 0.28700000048 0.28700000048 0.28700000048 0.28700000048 0.28700000048 0.28700000048 
0.28700000048 0.28700000048 0.28700000048 0.28700000048 0.28700000048 0.28700000048 0.28700000048 0.28700000048 0.28700000048 
0.28700000048 0.28700000048 0.28700000048 0.28700000048 0.28700000048 0.28700000048 0.28700000048 0.28700000048 0.28700000048 
0.28700000048 0.28700000048 0.28700000048 0.28700000048 0.28700000048 0.28700000048 0.28700000048 0.28700000048 0.28700000048 
0.28700000048 0.28700000048 0.28700000048 0.28700000048 0.28700000048 0.28700000048 0.28700000048 0.28700000048 0.28700000048 
0.28700000048 0.28700000048 0.28700000048 0.28700000048 0.28700000048 0.28700000048 0.28700000048 0.28700000048 0.28700000048 
0.28700000048 0.28700000048 0.28700000048 0.28700000048 0.28700000048 0.28700000048 0.28700000048 0.28700000048 0.28700000048 
0.28700000048 0.28700000048 0.28700000048 0.28700000048 0.28700000048 0.28700000048 0.28700000048 0.28700000048 0.28700000048 
0.28700000048 0.28700000048 0.28700000048 0.28700000048 0.28700000048 0.28700000048 0.28700000048 0.28700000048 0.28700000048 
0.28700000048 0.28700000048 0.28700000048 0.28700000048 0.28700000048 0.28700000048 0.28700000048 0.28700000048 0.28700000048 
0.28700000048 0.28700000048 0.28700000048 0.28700000048 0.28700000048 0.28700000048 0.28700000048 0.28700000048 0.28700000048 
0.28700000048 0.28700000048 0.28700000048 0.28700000048 0.28700000048 0.28700000048 0.28700000048 0.28700000048 0.28700000048 
0.28700000048 0.28700000048 0.28700000048 0.28700000048 0.28700000048 0.28700000048 0.28700000048 0.28700000048 0.28700000048 
0.28700000048 0.28700000048 0.28700000048 0.28700000048 0.28700000048 0.28700000048 0.28700000048 0.28700000048 0.28700000048 
0.28700000048 0.28700000048 0.28700000048 0.28700000048 0.28700000048 0.28700000048 0.28700000048 0.28700000048 0.28700000048 
0.28700000048 0.28700000048 0.28700000048 0.28700000048 0.28700000048 0.28700000048 0.28700000048 0.28700000048 0.28700000048 
0.28700000048 0.28700000048 0.28700000048 0.28700000048 0.28700000048 0.28700000048 0.28700000048 0.28700000048 0.28700000048 
0.28700000048 0.28700000048 0.28700000048 0.28700000048 0.28700000048 0.28700000048 0.28700000048 0.28700000048 0.28700000048 
0.28700000048 0.28700000048 0.28700000048 0.28700000048 0.28700000048 0.28700000048 0.28700000048 0.28700000048 0.28700000048 
0.28700000048 0.28700000048 0.28700000048 0.28700000048 0.28700000048 0.28700000048 0.28700000048 0.28700000048 0.28700000048 
0.28700000048 0.28700000048 0.28700000048 0.28700000048 0.28700000048 0.28700000048 0.28700000048 0.28700000048 0.28700000048 
0.28700000048 0.28700000048 0.28700000048 0.28700000048 0.28700000048 0.28700000048 0.28700000048 0.28700000048 0.28700000048 
0.28700000048 0.28700000048 0.28700000048 0.28700000048 0.28700000048 0.28700000048 0.28700000048 0.28700000048 0.28700000048 
0.28700000048 0.28700000048 0.28700000048 0.28700000048 0.28700000048 0.28700000048 0.28700000048 0.28700000048 0.28700000048 
0.28700000048 0.28700000048 0.28700000048 0.28700000048 0.28700000048 0.28700000048 0.28700000048 0.28700000048 0.28700000048 
0.28700000048 0.28700000048 0.28700000048 0.28700000048 0.28700000048 0.28700000048 0.28700000048 0.28700000048 0.28700000048 
0.28700000048 0.28700000048 0.28700000048 0.28700000048 0.28700000048 0.28700000048 0.28700000048 0.28700000048 0.28700000048 
0.28700000048 0.28700000048 0.28700000048 0.28700000048 0.28700000048 0.28700000048 0.28700000048 0.28700000048 0.28700000048 
0.28700000048 0.28700000048 0.28700000048 0.28700000048 0.28700000048 0.28700000048 0.28700000048 0.28700000048 0.28700000048 
0.28700000048 0.28700000048 0.28700000048 0.28700000048 0.28700000048 0.28700000048 0.28700000048 0.28700000048 0.28700000048 
0.28700000048 0.28700000048 0.28700000048 0.28700000048 0.28700000048 0.28700000048 0.28700000048 0.28700000048 0.28700000048 
0.28700000048 0.28700000048 0.28700000048 0.28700000048 0.28700000048 0.28700000048 0.28700000048 0.28700000048 0.28700000048 
0.28700000048 0.28700000048 0.28700000048 0.28700000048 0.28700000048 0.28700000048 0.28700000048 0.28700000048 0.28700000048 
0.28700000048 0.28700000048 0.28700000048 0.28700000048 0.28700000048 0.28700000048 0.28700000048 0.28700000048 0.28700000048 
0.28700000048 0.28700000048 0.28700000048 0.28700000048 0.28700000048 0.28700000048 0.28700000048 0.28700000048 0.28700000048 
0.28700000048 0.28700000048 0.28700000048 0.28700000048 0.28700000048 0.28700000048 0.28700000048 0.28700000048 0.28700000048 
0.28700000048 0.28700000048 0.28700000048 0.28700000048 0.28700000048 0.28700000048 0.28700000048 0.28700000048 0.28700000048 
0.28700000048 0.28700000048 0.28700000048 0.28700000048 0.28700000048 0.28700000048 0.28700000048 0.28700000048 0.28700000048 
0.28700000048 0.28700000048 0.28700000048 0.28700000048 0.28700000048 0.28700000048 0.28700000048 0.28700000048 0.28700000048 
0.28700000048 0.28700000048 0.28700000048 0.28700000048 0.28700000048 0.28700000048 0.28700000048 0.28700000048 0.28700000048 
0.28700000048 0.28700000048 0.28700000048 0.28700000048 0.28700000048 0.28700000048 0.28700000048 0.28700000048 0.28700000048 
0.28700000048 0.28700000048 0.28700000048 0.28700000048 0.28700000048 0.28700000048 0.28700000048 0.28700000048 0.28700000048 
0.28700000048 0.28700000048 0.28700000048 0.28700000048 0.28700000048 0.28700000048 0.28700000048 0.28700000048 0.28700000048 
0.28700000048 0.28700000048 0.28700000048 0.28700000048 0.28700000048 0.28700000048 0.28700000048 0.28700000048 0.28700000048 
0.28700000048 0.28700000048 0.28700000048 0.28700000048 0.28700000048 0.28700000048 0.28700000048 0.28700000048 0.28700000048 
0.28700000048 0.28700000048 0.28700000048 0.28700000048 0.28700000048 0.28700000048 0.28700000048 0.28700000048 0.28700000048 
0.28700000048 0.28700000048 0.28700000048 0.28700000048 0.28700000048 0.28700000048 0.28700000048 0.28700000048 0.28700000048 
0.28700000048 0.28700000048 0.28700000048 0.28700000048 0.28700000048 0.28700000048 0.28700000048 0.28700000048 0.28700000048 
0.28700000048 0.28700000048 0.28700000048 0.28700000048 0.28700000048 0.28700000048 0.28700000048 0.28700000048 0.28700000048 
0.28700000048 0.28700000048 0.28700000048 0.28700000048 0.28700000048 0.28700000048 0.28700000048 0.28700000048 0.28700000048 
0.28700000048 0.28700000048 0.28700000048 0.28700000048 0.28700000048 0.28700000048 0.28700000048 0.28700000048 0.28700000048 
0.28700000048 0.28700000048 0.28700000048 0.28700000048 0.28700000048 0.28700000048 0.28700000048 0.28700000048 0.28700000048 
0.28700000048 0.28700000048 0.28700000048 0.28700000048 0.28700000048 0.28700000048 0.28700000048 0.28700000048 0.28700000048 
0.28700000048 0.28700000048 0.28700000048 0.28700000048 0.28700000048 0.28700000048 0.28700000048 0.28700000048 0.28700000048 
0.28700000048 0.28700000048 0.28700000048 0.28700000048 0.28700000048 0.28700000048 0.28700000048 0.28700000048 0.28700000048 
0.28700000048 0.28700000048 0.28700000048 0.28700000048 0.28700000048 0.28700000048 0.28700000048 0.28700000048 0.28700000048 
0.28700000048 0.28700000048 0.28700000048 0.28700000048 0.28700000048 0.28700000048 0.28700000048 0.28700000048 0.28700000048 
0.28700000048 0.28700000048 0.28700000048 0.28700000048 0.28700000048 0.28700000048 0.28700000048 0.28700000048 0.28700000048 
0.28700000048 0.28700000048 0.28700000048 0.28700000048 0.28700000048 0.28700000048 0.28700000048 0.28700000048 0.28700000048 
0.28700000048 0.28700000048 0.28700000048 0.28700000048 0.28700000048 0.28700000048 0.28700000048 0.28700000048 0.28700000048 
0.28700000048 0.28700000048 0.28700000048 0.28700000048 0.28700000048 0.28700000048 0.28700000048 0.28700000048 0.28700000048 
0.28700000048 0.28700000048 0.28700000048 0.28700000048 0.28700000048 0.28700000048 0.28700000048 0.28700000048 0.28700000048 
0.28700000048 0.28700000048 0.28700000048 0.28700000048 0.28700000048 0.28700000048 0.28700000048 0.28700000048 0.28700000048 
0.28700000048 0.28700000048 0.28700000048 0.28700000048 0.28700000048 0.28700000048 0.28700000048 0.28700000048 0.28700000048 
0.28700000048 0.28700000048 0.28700000048 0.28700000048 0.28700000048 0.28700000048 0.28700000048 0.28700000048 0.28700000048 
0.28700000048 0.28700000048 0.28700000048 0.28700000048 0.28700000048 0.28700000048 0.28700000048 0.28700000048 0.28700000048 
0.28700000048 0.28700000048 0.28700000048 0.28700000048 0.28700000048 0.28700000048 0.28700000048 0.28700000048 0.28700000048 
0.28700000048 0.28700000048 0.28700000048 0.28700000048 0.28700000048 0.28700000048 0.28700000048 0.28700000048 0.28700000048 
0.28700000048 0.28700000048 0.28700000048 0.28700000048 0.28700000048 0.28700000048 0.28700000048 0.28700000048 0.28700000048 
0.28700000048 0.28700000048 0.28700000048 0.28700000048 0.28700000048 0.28700000048 0.28700000048 0.28700000048 0.28700000048 
0.28700000048 0.28700000048 0.28700000048 0.28700000048 0.28700000048 0.28700000048 0.28700000048 0.28700000048 0.28700000048 
0.28700000048 0.28700000048 0.28700000048 0.28700000048 0.28700000048 0.28700000048 0.28700000048 0.28700000048 0.28700000048 
0.28700000048 0.28700000048 0.28700000048 0.28700000048 0.28700000048 0.28700000048 0.28700000048 0.28700000048 0.28700000048 
0.28700000048 0.28700000048 0.28700000048 0.28700000048 0.28700000048 0.28700000048 0.28700000048 0.28700000048 0.28700000048 
0.28700000048 0.28700000048 0.28700000048 0.28700000048 0.28700000048 0.28700000048 0.28700000048 0.28700000048 0.28700000048 
0.28700000048 0.28700000048 0.28700000048 0.28700000048 0.28700000048 0.28700000048 0.28700000048 0.28700000048 0.28700000048 
0.28700000048 0.28700000048 0.28700000048 0.28700000048 0.28700000048 0.28700000048 0.28700000048 0.28700000048 0.28700000048 
0.28700000048 0.28700000048 0.28700000048 0.28700000048 0.28700000048 0.28700000048 0.28700000048 0.28700000048 0.28700000048 
0.28700000048 0.28700000048 0.28700000048 0.28700000048 0.28700000048 0.28700000048 0.28700000048 0.28700000048 0.28700000048 
0.28700000048 0.28700000048 0.28700000048 0.28700000048 0.28700000048 0.28700000048 0.28700000048 0.28700000048 0.28700000048 
0.28700000048 0.28700000048 0.28700000048 0.28700000048 0.28700000048 0.28700000048 0.28700000048 0.28700000048 0.28700000048 
0.28700000048 0.28700000048 0.28700000048 0.28700000048 0.28700000048 0.28700000048 0.28700000048 0.28700000048 0.28700000048 
0.28700000048 0.28700000048 0.28700000048 0.28700000048 0.28700000048 0.28700000048 0.28700000048 0.28700000048 0.28700000048 
0.28700000048 0.28700000048 0.28700000048 0.28700000048 0.28700000048 0.28700000048 0.28700000048 0.28700000048 0.28700000048 
0.28700000048 0.28700000048 0.28700000048 0.28700000048 0.28700000048 0.28700000048 0.28700000048 0.28700000048 0.28700000048 
0.28700000048 0.28700000048 0.28700000048 0.28700000048 0.28700000048 0.28700000048 0.28700000048 0.28700000048 0.28700000048 
0.28700000048 0.28700000048 0.28700000048 0.28700000048 0.28700000048 0.28700000048 0.28700000048 0.28700000048 0.28700000048 
0.28700000048 0.28700000048 0.28700000048 0.28700000048 0.28700000048 0.28700000048 0.28700000048 0.28700000048 0.28700000048 
0.28700000048 0.28700000048 0.28700000048 0.28700000048 0.28700000048 0.28700000048 0.28700000048 0.28700000048 0.28700000048 
0.28700000048 0.28700000048 0.28700000048 0.28700000048 0.28700000048 0.28700000048 0.28700000048 0.28700000048 0.28700000048 
0.28700000048 0.28700000048 0.28700000048 0.28700000048 0.28700000048 0.28700000048 0.28700000048 0.28700000048 0.28700000048 
0.28700000048 0.28700000048 0.28700000048 0.28700000048 0.28700000048 0.28700000048 0.28700000048 0.28700000048 0.28700000048 
0.28700000048 0.28700000048 0.28700000048 0.28700000048 0.28700000048 0.28700000048 0.28700000048 0.28700000048 0.28700000048 
0.28700000048 0.28700000048 0.28700000048 0.28700000048 0.28700000048 0.28700000048 0.28700000048 0.28700000048 0.28700000048 
0.28700000048 0.28700000048 0.28700000048 0.28700000048 0.28700000048 0.28700000048 0.28700000048 0.28700000048 0.28700000048 
0.28700000048 0.28700000048 0.28700000048 0.28700000048 0.28700000048 0.28700000048 0.28700000048 0.28700000048 0.28700000048 
0.28700000048 0.28700000048 0.28700000048 0.28700000048 0.28700000048 0.28700000048 0.28700000048 0.28700000048 0.28700000048 
0.28700000048 0.28700000048 0.28700000048 0.28700000048 0.28700000048 0.28700000048 0.28700000048 0.28700000048 0.28700000048 
0.28700000048 0.28700000048 0.28700000048 0.28700000048 0.28700000048 0.28700000048 0.28700000048 0.28700000048 0.28700000048 
0.28700000048 0.28700000048 0.28700000048 0.28700000048 0.28700000048 0.28700000048 0.28700000048 0.28700000048 0.28700000048 
0.28700000048 0.28700000048 0.28700000048 0.28700000048 0.28700000048 0.28700000048 0.28700000048 0.28700000048 0.28700000048 
0.28700000048 0.28700000048 0.28700000048 0.28700000048 0.28700000048 0.28700000048 0.28700000048 0.28700000048 0.28700000048 
0.28700000048 0.28700000048 0.28700000048 0.28700000048 0.28700000048 0.28700000048 0.28700000048 0.28700000048 0.28700000048 
0.28700000048 0.28700000048 0.28700000048 0.28700000048 0.28700000048 0.28700000048 0.28700000048 0.28700000048 0.28700000048 
0.28700000048 0.28700000048 0.28700000048 0.28700000048 0.28700000048 0.28700000048 0.28700000048 0.28700000048 0.28700000048 
0.28700000048 0.28700000048 0.28700000048 0.28700000048 0.28700000048 0.28700000048 0.28700000048 0.28700000048 0.28700000048 
0.28700000048 0.28700000048 0.28700000048 0.28700000048 0.28700000048 0.28700000048 0.28700000048 0.28700000048 0.28700000048 
0.28700000048 0.28700000048 0.28700000048 0.28700000048 0.28700000048 0.28700000048 0.28700000048 0.28700000048 0.28700000048 
0.28700000048 0.28700000048 0.28700000048 0.28700000048 0.28700000048 0.28700000048 0.28700000048 0.28700000048 0.28700000048 
0.28700000048 0.28700000048 0.28700000048 0.28700000048 0.28700000048 0.28700000048 0.28700000048 0.28700000048 0.28700000048 
0.28700000048 0.28700000048 0.28700000048 0.28700000048 0.28700000048 0.28700000048 0.28700000048 0.28700000048 0.28700000048 
0.28700000048 0.28700000048 0.28700000048 0.28700000048 0.28700000048 0.28700000048 0.28700000048 0.28700000048 0.28700000048 
0.28700000048 0.28700000048 0.28700000048 0.28700000048 0.28700000048 0.28700000048 0.28700000048 0.28700000048 0.28700000048 
0.28700000048 0.28700000048 0.28700000048 0.28700000048 0.28700000048 0.28700000048 0.28700000048 0.28700000048 0.28700000048 
0.28700000048 0.28700000048 0.28700000048 0.28700000048 0.28700000048 0.28700000048 0.28700000048 0.28700000048 0.28700000048 
0.28700000048 0.28700000048 0.28700000048 0.28700000048 0.28700000048 0.28700000048 0.28700000048 0.28700000048 0.28700000048 
0.28700000048 0.28700000048 0.28700000048 0.28700000048 0.28700000048 0.28700000048 0.28700000048 0.28700000048 0.28700000048 
0.28700000048 0.28700000048 0.28700000048 0.28700000048 0.28700000048 0.28700000048 0.28700000048 0.28700000048 0.28700000048 
0.28700000048 0.28700000048 0.28700000048 0.28700000048 0.28700000048 0.28700000048 0.28700000048 0.28700000048 0.28700000048 
0.28700000048 0.28700000048 0.28700000048 0.28700000048 0.28700000048 0.28700000048 0.28700000048 0.28700000048 0.28700000048 
0.28700000048 0.28700000048 0.28700000048 0.28700000048 0.28700000048 0.28700000048 0.28700000048 0.28700000048 0.28700000048 
0.28700000048 0.28700000048 0.28700000048 0.28700000048 0.28700000048 0.28700000048 0.28700000048 0.28700000048 0.28700000048 
0.28700000048 0.28700000048 0.28700000048 0.28700000048 0.28700000048 0.28700000048 0.28700000048 0.28700000048 0.28700000048 
0.28700000048 0.28700000048 0.28700000048 0.28700000048 0.28700000048 0.28700000048 0.28700000048 0.28700000048 0.28700000048 
0.28700000048 0.28700000048 0.28700000048 0.28700000048 0.28700000048 0.28700000048 0.28700000048 0.28700000048 0.28700000048 
0.28700000048 0.28700000048 0.28700000048 0.28700000048 0.28700000048 0.28700000048 0.28700000048 0.28700000048 0.28700000048 
0.28700000048 0.28700000048 0.28700000048 0.28700000048 0.28700000048 0.28700000048 0.28700000048 0.28700000048 0.28700000048 
0.28700000048 0.28700000048 0.28700000048 0.28700000048 0.28700000048 0.28700000048 0.28700000048 0.28700000048 0.28700000048 
0.28700000048 0.28700000048 0.28700000048 0.28700000048 0.28700000048 0.28700000048 0.28700000048 0.28700000048 0.28700000048 
0.28700000048 0.28700000048 0.28700000048 0.28700000048 0.28700000048 0.28700000048 0.28700000048 0.28700000048 0.28700000048 
0.28700000048 0.28700000048 0.28700000048 0.28700000048 0.28700000048 0.28700000048 0.28700000048 0.28700000048 0.28700000048 
0.28700000048 0.28700000048 0.28700000048 0.28700000048 0.28700000048 0.28700000048 0.28700000048 0.28700000048 0.28700000048 
0.28700000048 0.28700000048 0.28700000048 0.28700000048 0.28700000048 0.28700000048 0.28700000048 0.28700000048 0.28700000048 
0.28700000048 0.28700000048 0.28700000048 0.28700000048 0.28700000048 0.28700000048 0.28700000048 0.28700000048 0.28700000048 
0.28700000048 0.28700000048 0.28700000048 0.28700000048 0.28700000048 0.28700000048 0.28700000048 0.28700000048 0.28700000048 
0.28700000048 0.28700000048 0.28700000048 0.28700000048 0.28700000048 0.28700000048 0.28700000048 0.28700000048 0.28700000048 
0.28700000048 0.28700000048 0.28700000048 0.28700000048 0.28700000048 0.28700000048 0.28700000048 0.28700000048 0.28700000048 
0.28700000048 0.28700000048 0.28700000048 0.28700000048 0.28700000048 0.28700000048 0.28700000048 0.28700000048 0.28700000048 
0.28700000048 0.28700000048 0.28700000048 0.28700000048 0.28700000048 0.28700000048 0.28700000048 0.28700000048 0.28700000048 
0.28700000048 0.28700000048 0.28700000048 0.28700000048 0.28700000048 0.28700000048 0.28700000048 0.28700000048 0.28700000048 
0.28700000048 0.28700000048 0.28700000048 0.28700000048 0.28700000048 0.28700000048 0.28700000048 0.28700000048 0.28700000048 
0.28700000048 0.28700000048 0.28700000048 0.28700000048 0.28700000048 0.28700000048 0.28700000048 0.28700000048 0.28700000048 
0.28700000048 0.28700000048 0.28700000048 0.28700000048 0.28700000048 0.28700000048 0.28700000048 0.28700000048 0.28700000048 
0.28700000048 0.28700000048 0.28700000048 0.28700000048 0.28700000048 0.28700000048 0.28700000048 0.28700000048 0.28700000048 
0.28700000048 0.28700000048 0.28700000048 0.28700000048 0.28700000048 0.28700000048 0.28700000048 0.28700000048 0.28700000048 
0.28700000048 0.28700000048 0.28700000048 0.28700000048 0.28700000048 0.28700000048 0.28700000048 0.28700000048 0.28700000048 
0.28700000048 0.28700000048 0.28700000048 0.28700000048 0.28700000048 0.28700000048 0.28700000048 0.28700000048 0.28700000048 
0.28700000048 0.28700000048 0.28700000048 0.28700000048 0.28700000048 0.28700000048 0.28700000048 0.28700000048 0.28700000048 
0.28700000048 0.28700000048 0.28700000048 0.28700000048 0.28700000048 0.28700000048 0.28700000048 0.28700000048 0.28700000048 
0.28700000048 0.28700000048 0.28700000048 0.28700000048 0.28700000048 0.28700000048 0.28700000048 0.28700000048 0.28700000048 
0.28700000048 0.28700000048 0.28700000048 0.28700000048 0.28700000048 0.28700000048 0.28700000048 0.28700000048 0.28700000048 
0.28700000048 0.28700000048 0.28700000048 0.28700000048 0.28700000048 0.28700000048 0.28700000048 0.28700000048 0.28700000048 
0.28700000048 0.28700000048 0.28700000048 0.28700000048 0.28700000048 0.28700000048 0.28700000048 0.28700000048 0.28700000048 
0.28700000048 0.28700000048 0.28700000048 0.28700000048 0.28700000048 0.28700000048 0.28700000048 0.28700000048 0.28700000048 
0.28700000048 0.28700000048 0.28700000048 0.28700000048 0.28700000048 0.28700000048 0.28700000048 0.28700000048 0.28700000048 
0.28700000048 0.28700000048 0.28700000048 0.28700000048 0.28700000048 0.28700000048 0.28700000048 0.28700000048 0.28700000048 
0.28700000048 0.28700000048 0.28700000048 0.28700000048 0.28700000048 0.28700000048 0.28700000048 0.28700000048 0.28700000048 
0.28700000048 0.28700000048 0.28700000048 0.28700000048 0.28700000048 0.28700000048 0.28700000048 0.28700000048 0.28700000048 
0.28700000048 0.28700000048 0.28700000048 0.28700000048 0.28700000048 0.28700000048 0.28700000048 0.28700000048 0.28700000048 
0.28700000048 0.28700000048 0.28700000048 0.28700000048 0.28700000048 0.28700000048 0.28700000048 0.28700000048 0.28700000048 
0.28700000048 0.28700000048 0.28700000048 0.28700000048 0.28700000048 0.28700000048 0.28700000048 0.28700000048 0.28700000048 
0.28700000048 0.28700000048 0.28700000048 0.28700000048 0.28700000048 0.28700000048 0.28700000048 0.28700000048 0.28700000048 
0.28700000048 0.28700000048 0.28700000048 0.28700000048 0.28700000048 0.28700000048 0.28700000048 0.28700000048 0.28700000048 
0.28700000048 0.28700000048 0.28700000048 0.28700000048 0.28700000048 0.28700000048 0.28700000048 0.28700000048 0.28700000048 
0.28700000048 0.28700000048 0.28700000048 0.28700000048 0.28700000048 0.28700000048 0.28700000048 0.28700000048 0.28700000048 
0.28700000048 0.28700000048 0.28700000048 0.28700000048 0.28700000048 0.28700000048 0.28700000048 0.28700000048 0.28700000048 
0.28700000048 0.28700000048 0.28700000048 0.28700000048 0.28700000048 0.28700000048 0.28700000048 0.28700000048 0.28700000048 
0.28700000048 0.28700000048 0.28700000048 0.28700000048 0.28700000048 0.28700000048 0.28700000048 0.28700000048 0.28700000048 
0.28700000048 0.28700000048 0.28700000048 0.28700000048 0.28700000048 0.28700000048 0.28700000048 0.28700000048 0.28700000048 
0.28700000048 0.28700000048 0.28700000048 0.28700000048 0.28700000048 0.28700000048 0.28700000048 0.28700000048 0.28700000048 
0.28700000048 0.28700000048 0.28700000048 0.28700000048 0.28700000048 0.28700000048 0.28700000048 0.28700000048 0.28700000048 
0.28700000048 0.28700000048 0.28700000048 0.28700000048 0.28700000048 0.28700000048 0.28700000048 0.28700000048 0.28700000048 
0.28700000048 0.28700000048 0.28700000048 0.28700000048 0.28700000048 0.28700000048 0.28700000048 0.28700000048 0.28700000048 
0.28700000048 0.28700000048 0.28700000048 0.28700000048 0.28700000048 0.28700000048 0.28700000048 0.28700000048 0.28700000048 
0.28700000048 0.28700000048 0.28700000048 0.28700000048 0.28700000048 0.28700000048 0.28700000048 0.28700000048 0.28700000048 
0.28700000048 0.28700000048 0.28700000048 0.28700000048 0.28700000048 0.28700000048 0.28700000048 0.28700000048 0.28700000048 
0.28700000048 0.28700000048 0.28700000048 0.28700000048 0.28700000048 0.28700000048 0.28700000048 0.28700000048 0.28700000048 
0.28700000048 0.28700000048 0.28700000048 0.28700000048 0.28700000048 0.28700000048 0.28700000048 0.28700000048 0.28700000048 
0.28700000048 0.28700000048 0.28700000048 0.28700000048 0.28700000048 0.28700000048 0.28700000048 0.28700000048 0.28700000048 
0.28700000048 0.28700000048 0.28700000048 0.28700000048 0.28700000048 0.28700000048 0.28700000048 0.28700000048 0.28700000048 
0.28700000048 0.28700000048 0.28700000048 0.28700000048 0.28700000048 0.28700000048 0.28700000048 0.28700000048 0.28700000048 
0.28700000048 0.28700000048 0.28700000048 0.28700000048 0.28700000048 0.28700000048 0.28700000048 0.28700000048 0.28700000048 
0.28700000048 0.28700000048 0.28700000048 0.28700000048 0.28700000048 0.28700000048 0.28700000048 0.28700000048 0.28700000048 
0.28700000048 0.28700000048 0.28700000048 0.28700000048 0.28700000048 0.28700000048 0.28700000048 0.28700000048 0.28700000048 
0.28700000048 0.28700000048 0.28700000048 0.28700000048 0.28700000048 0.28700000048 0.28700000048 0.28700000048 0.28700000048 
0.28700000048 0.28700000048 0.28700000048 0.28700000048 0.28700000048 0.28700000048 0.28700000048 0.28700000048 0.28700000048 
0.28700000048 0.28700000048 0.28700000048 0.28700000048 0.28700000048 0.28700000048 0.28700000048 0.28700000048 0.28700000048 
0.28700000048 0.28700000048 0.28700000048 0.28700000048 0.28700000048 0.28700000048 0.28700000048 0.28700000048 0.28700000048 
0.28700000048 0.28700000048 0.28700000048 0.28700000048 0.28700000048 0.28700000048 0.28700000048 0.28700000048 0.28700000048 
0.28700000048 0.28700000048 0.28700000048 0.28700000048 0.28700000048 0.28700000048 0.28700000048 0.28700000048 0.28700000048 
0.28700000048 0.28700000048 0.28700000048 0.28700000048 0.28700000048 0.28700000048 0.28700000048 0.28700000048 0.28700000048 
0.28700000048 0.28700000048 0.28700000048 0.28700000048 0.28700000048 0.28700000048 0.28700000048 0.28700000048 0.28700000048 
0.28700000048 0.28700000048 0.28700000048 0.28700000048 0.28700000048 0.28700000048 0.28700000048 0.28700000048 0.28700000048 
0.28700000048 0.28700000048 0.28700000048 0.28700000048 0.28700000048 0.28700000048 0.28700000048 0.28700000048 0.28700000048 
0.28700000048 0.28700000048 0.28700000048 0.28700000048 0.28700000048 0.28700000048 0.28700000048 0.28700000048 0.28700000048 
0.28700000048 0.28700000048 0.28700000048 0.28700000048 0.28700000048 0.28700000048 0.28700000048 0.28700000048 0.1160915792 
0.11451849341 0.11634581536 0.11724532396 0.11357600242 0.10954142362 0.11729095131 0.1104593873 0.097332336009 0.098348386586 
0.10968960077 0.11770316213 0.12366381288 0.13197147846 0.13618977368 0.13155791163 0.12597556412 0.12274619937 0.12366847694 
0.12845523655 0.12948125601 0.12450997531 0.12146220356 0.11839369684 0.11446168274 0.11130096018 0.11261065304 0.11501403898 
0.11592453718 0.12115393579 0.12771977484 0.10475361347 0.10245766491 0.10407715291 0.10550159961 0.10386436433 0.10251642019 
0.10526592284 0.099424794316 0.089574284852 0.089498251677 0.098003670573 0.10595984012 0.11235741526 0.11928457767 0.12304712087 
0.12093673646 0.1171367839 0.11478222907 0.11548889428 0.11865933239 0.11953098327 0.11642342061 0.11304684728 0.10947015882 
0.10560438037 0.10303290933 0.10353410989 0.10486523807 0.10583431274 0.10950435698 0.11467251182 0.095024935901 0.092018440366 
0.09303291887 0.094586052001 0.094554841518 0.094558604062 0.095008015633 0.089808344841 0.082140535116 0.080964796245 0.086614258587 
0.093485146761 0.099614456296 0.10551571101 0.10934607685 0.1096503213 0.10827337205 0.10721731931 0.10784299672 0.10995634645 
0.11074052006 0.1086614579 0.1052222997 0.10132876784 0.097791649401 0.095805160701 0.095782950521 0.096156567335 0.096516117454 
0.098738059402 0.10269084573 0.086867339909 0.083219662309 0.083581633866 0.085075221956 0.08612742275 0.087035767734 0.086675100029 
0.081906959414 0.075299821794 0.072894327343 0.075933210552 0.081274010241 0.086617156863 0.091648384929 0.095874771476 0.098609812558 
0.099951937795 0.10038558394 0.1010184586 0.10248803347 0.10334660858 0.10192619264 0.098425000906 0.094260185957 0.091130666435 
0.089816689491 0.089573018253 0.089033007622 0.088355086744 0.089118972421 0.091971315444 0.080383352935 0.076239593327 0.076081670821 
0.077378600836 0.079124286771 0.080910429358 0.080538414419 0.0759768188 0.069560699165 0.065715461969 0.066368550062 0.070148147643 
0.074443712831 0.078553885221 0.083304226398 0.088583998382 0.092847369611 0.094784259796 0.095346532762 0.096421651542 0.097617015243 
0.096797525883 0.09308372438 0.088483765721 0.0857732445 0.085346333683 0.085149042308 0.083666689694 0.081681363285 0.080941639841 
0.082731544971 0.075753979385 0.071349427104 0.070935755968 0.071870163083 0.07402522862 0.076897218823 0.076958909631 0.072316773236 
0.065488040447 0.059972312301 0.058361303061 0.060884494334 0.064099043608 0.067031234503 0.072246298194 0.080268524587 0.087688803673 
0.090992301702 0.091149441898 0.09193251282 0.093842558563 0.093818962574 0.089617177844 0.084185957909 0.081877686083 0.082703597844 
0.082792006433 0.080238886178 0.076785080135 0.074523195624 0.075233675539 0.073208130896 0.068877793849 0.068650685251 0.068930931389 
0.071203835309 0.075584582984 0.076349742711 0.071229614317 0.063647501171 0.056277662516 0.052337992936 0.054282709956 0.056587077677 
0.057854387909 0.063290476799 0.074322454631 0.085225731134 0.089622296393 0.088694609702 0.089190892875 0.092312678695 0.093561939895 
0.088447012007 0.08153616637 0.079586915672 0.082221642137 0.08280339092 0.078875765204 0.073921523988 0.070221945643 0.069807805121 
0.073017992079 0.069179452956 0.069910407066 0.068965613842 0.070912621915 0.077516041696 0.079137094319 0.072934351861 0.064577914774 
0.05535921827 0.048625711352 0.051208291203 0.052958533168 0.051840424538 0.057069219649 0.071385353804 0.086166381836 0.091288648546 
0.088141329587 0.088400781155 0.093260362744 0.096668183804 0.089994229376 0.080733478069 0.079028248787 0.084251068532 0.085480958223 
0.079540431499 0.073321923614 0.068475157022 0.06688901037 -7.5036878445e-23 -4.3131368368e-24 -1.84795132e-23 0 0 
-1.4013323543e-23 -1.3833286551e-23 -1.3664659644e-23 1.5635325693e-23 0 0 -2.6756391701e-23 0 -5.3679190139e-22 
0 -1.3579639371e-23 -5.484443236e-22 0 -6.3819034035e-22 0 0 0 0 
-1.5804504803e-23 -1.6566658034e-23 0 0 2.0375833842e-23 -1.3392232842e-22 0 0 1.0633537031e-22 
-2.7967937785e-21 -2.4704297852e-23 0 0 1.2432148983e-21 -1.289093231e-21 0 -2.6105949064e-23 -1.2426511593e-21 
6.208812932e-22 -3.109697577e-23 1.3214533245e-23 0 -1.3359936876e-23 -1.3082363229e-21 6.4535743828e-22 6.5455416804e-22 6.6625101889e-22 
0 -6.9611514706e-22 0 -7.0500625317e-24 3.4823937757e-22 3.6263425893e-22 0 0 -3.842560402e-22 
2.3628958953e-22 2.6372932726e-22 0 -7.6476972426e-23 1.978960606e-23 -5.1456690817e-24 -1.0407417941e-22 -2.826663435e-23 9.2165208007e-26 
1.8286385457e-24 0 -2.0118097799e-26 2.0860460284e-24 0 1.2759060933e-26 -2.4136875725e-25 -5.3475894689e-26 9.6628262534e-25 
5.3257419661e-25 -6.0277552021e-25 -9.7436056101e-25 -6.1489242372e-25 5.0584029218e-25 0 2.3878375867e-25 0 -3.1253535077e-25 
3.5567959335e-24 -1.2699395241e-23 0 -1.0530287129e-22 -6.4542352589e-23 2.3065267981e-22 0 -7.6763335246e-23 2.006516464e-23 
-5.2478549679e-24 0 0 1.1003764068e-25 7.3651383104e-24 1.1385851312e-26 1.4818973972e-26 1.2310766072e-25 0 
0 -6.3654172518e-26 0 0 -2.4081137771e-25 -3.0389190044e-25 -2.1164152011e-26 7.1086228322e-27 3.8871022497e-25 
0 5.5737953335e-27 0 0 2.1976832571e-24 3.9438335761e-24 0 5.4872091716e-23 -1.5776719544e-22 
1.6862100011e-22 0 1.512648485e-22 -3.978641117e-23 1.0429268915e-23 0 0 -1.8897522902e-25 1.9891593153e-24 
0 0 1.9580908174e-25 0 -1.5501560522e-26 2.5203119846e-26 3.1003121044e-25 -2.5542428643e-25 -2.0186802653e-26 
0 -3.685153858e-25 1.8078423973e-25 -2.5348566075e-25 0 0 0 1.6204336981e-25 9.4233157566e-26 
0 0 -4.8659225175e-23 3.6662162264e-23 2.776114869e-22 0 -7.5250640818e-23 1.9691762064e-23 4.0811919618e-22 
0 0 -2.827645409e-23 2.020085621e-24 -3.2554070887e-27 0 -1.2097517247e-24 1.201997222e-25 9.3663673948e-27 
-2.9791430693e-25 0 -7.3670733862e-26 3.000872736e-25 4.1100540631e-25 4.9986269867e-25 -1.2900871007e-25 -1.1616075437e-25 2.0695667241e-25 
2.1051098382e-25 1.3175111105e-25 2.097839992e-26 -7.898605399e-26 0 0 -5.024366177e-23 -3.1679691543e-23 -3.6111023015e-22 
0 -1.4919932035e-22 1.9529597505e-23 -5.1367833525e-24 0 0 -3.5353489256e-25 2.2753483882e-24 -1.1786759299e-24 
0 0 -1.7407941507e-27 0 -1.888621754e-25 0 3.1003121044e-25 -2.369702414e-25 -1.4233318705e-25 
0 3.0696549974e-27 3.685153858e-25 1.6107405697e-25 -1.8934683181e-25 0 1.1559523971e-25 -7.0201298949e-26 4.8476137659e-24 
0 -4.4685638132e-23 -2.8252627336e-23 0 0 1.4817746149e-22 -3.878050623e-23 4.1749028313e-22 0 
2.8605907648e-23 6.9132267191e-24 2.9413459823e-24 1.6204336981e-26 0 -2.969449941e-25 0 0 -1.6252802623e-25 
0 2.3329082158e-25 4.5903673094e-25 -6.5592798193e-26 -3.732002335e-26 2.0905701457e-25 1.1406041221e-25 2.4718463427e-26 1.5800440197e-25 
-2.4232820932e-29 -2.5320290342e-26 -9.7100021077e-25 2.2232094155e-24 -9.0162289182e-24 3.3852369093e-23 7.7110301516e-23 -9.8021255997e-23 0 
-1.4738360236e-22 1.9274334738e-23 4.0054905974e-22 0 0 9.5093459687e-26 -1.789666549e-26 1.323020515e-24 -3.2505605245e-25 
-3.6156847945e-25 0 2.8448062201e-25 2.8369706127e-25 0 -5.8484175361e-26 -2.2682881817e-26 -1.3829421922e-25 -3.5639848229e-25 
0 -9.0472485068e-27 0 -3.1827086259e-26 0 5.4444882121e-25 -6.4041873001e-26 3.9363216482e-24 0 
-3.7468810405e-23 -2.3756247971e-23 0 0 -1.4676180327e-22 3.8392361421e-23 0 0 -1.0602096191e-22 
8.7722343389e-26 -6.5277796173e-26 5.6238189756e-25 0 2.604325671e-25 1.7270630406e-25 -3.9812917488e-25 1.7901105297e-25 1.2359231714e-27 
1.7232664009e-25 -1.6838864645e-25 2.1713495024e-25 -1.3425525138e-25 -6.8856315758e-25 -4.9265724316e-25 0 -7.1781338039e-26 0 
5.9275895887e-25 0 -5.4488506129e-25 0 -3.6590208683e-23 -2.217802129e-23 0 0 1.463308454e-22 
-3.8289973587e-23 1.0063742326e-23 0 0 -1.7160766733e-25 2.618430504e-24 0 0 5.8484175361e-26 
0 -4.5963473681e-27 -5.4622997053e-25 0 -3.7255435363e-25 -2.2799169775e-25 3.3022604961e-25 0 5.7159480686e-25 
-1.9290114323e-25 2.1761960666e-25 0 0 -1.290046425e-26 4.7785027467e-26 0 -1.7556988886e-24 -2.7379919982e-23 
2.0844959956e-23 3.9771791999e-23 0 -7.2979529204e-23 1.9104496141e-23 -5.0181386723e-24 -1.0607750746e-22 -2.8000062473e-23 -7.2012816452e-24 
2.1477170046e-24 -3.9622264598e-27 0 2.0388701741e-25 0 2.6615994379e-25 0 -4.2651490474e-27 6.3654172518e-26 
3.3857855818e-25 1.1616075437e-25 -3.3281055515e-26 1.7270630406e-25 0 -1.0582076005e-26 3.0696549974e-27 0 1.2320471526e-25 
-1.0989062165e-24 4.6371388724e-25 0 -3.1130458182e-23 3.9463640842e-23 -2.2595707678e-22 0 -7.294671259e-23 1.5474151124e-21 
-5.0152104206e-24 1.0474464807e-22 1.3142558759e-24 8.8833059543e-26 1.9243620833e-24 3.4973026571e-25 0 0 6.3201760789e-25 
-4.833916281e-25 -7.1732108188e-26 -4.1358991185e-26 3.942036551e-26 -7.5819541664e-26 0 1.1147590667e-26 -2.7158015776e-25 -3.2618708178e-25 
0 0 1.1664541079e-25 8.5302980948e-26 8.9309654789e-25 -3.3417612268e-25 0 -6.3141586479e-24 -1.8766507108e-23 
-2.7491509091e-23 0 1.4587524983e-22 0 0 0 0 0 6.9935532697e-24 
1.6013698882e-24 -1.5541940339e-25 0 -1.0598247654e-25 0 -5.7514862524e-26 1.056270947e-24 0 -7.8275216359e-27 
4.2716127764e-25 -3.7061572796e-25 1.2178296604e-24 0 0 0 0 9.225812103e-26 4.5361646766e-26 
0 0 -6.300022655e-24 1.7956896006e-23 0 0 -7.2978721411e-23 1.9108434134e-23 -5.0156143174e-24 
0 0 7.7019078627e-26 2.9081294162e-24 -1.2242110521e-26 3.2069414469e-27 -5.7159480686e-25 -2.3522944725e-25 -4.9364667195e-25 
0 0 0 -1.4488589164e-25 1.7674527189e-25 3.988885028e-25 1.0194350871e-25 3.3281055515e-26 1.0000488303e-25 
0 0 0 1.7013747713e-24 0 0 -5.9516616792e-24 -1.7222207757e-23 0 
0 1.4614707236e-22 -1.5687297554e-21 1.0047788403e-23 0 0 -1.5908686705e-25 2.2541156053e-24 -1.7710065373e-24 
0 5.9162792955e-25 0 2.1730450603e-25 -2.2925185374e-25 0 -2.924208768e-26 7.96616394e-27 5.7256411969e-25 
3.5042088878e-25 -2.0291770457e-25 -2.6156359642e-25 9.0392119863e-26 -2.7416515634e-25 0 1.8676183323e-25 3.011454319e-26 2.8801878643e-25 
0 5.6457098657e-24 -7.4630955867e-23 1.266025575e-22 0 -1.4644918716e-22 3.8322083381e-23 3.9247806605e-22 0 
2.7983906601e-23 7.3484981771e-26 3.0656491618e-24 -6.5875555524e-27 -4.8709942226e-27 2.0388701741e-25 0 -5.6787877896e-27 -2.3522944725e-25 
2.924208768e-26 -5.9615204684e-26 -2.24566513e-27 5.3217444135e-25 4.7562889166e-25 0 -2.7771946776e-25 0 0 
0 1.4790698239e-25 -4.2938266065e-26 -2.9257475398e-25 0 5.3054268256e-24 -5.5959766822e-23 6.1069345122e-23 0 
-1.4678320979e-22 3.8403064686e-23 -1.0075253384e-23 0 0 9.1054491852e-26 2.5537099887e-24 -5.2910380027e-28 0 
7.2087490026e-25 0 -2.9129034052e-26 -5.9065861671e-25 0 0 -4.631084365e-26 2.009790789e-25 1.4847249705e-25 
-1.4443352921e-25 5.3120512851e-25 5.2021925433e-26 -7.1732108188e-26 0 5.6743479818e-26 -4.1524627323e-26 1.062054678e-24 0 
-5.5717584946e-24 -1.548262431e-23 0 1.4540423045e-23 1.4721396571e-22 -3.8523829824e-23 4.1541203223e-22 0 0 
-1.5080698299e-25 2.2375558371e-24 1.5800440197e-26 -2.2812082442e-25 8.2588806396e-25 0 7.1166593526e-27 -6.1101221414e-26 1.9694011106e-25 
1.3021628355e-25 -4.4851934153e-25 -1.2617731571e-25 0 -3.5235951446e-25 9.6931283729e-28 -1.888621754e-25 0 0 
5.9332447353e-27 7.9856044309e-25 0 0 1.9397909799e-23 8.1244715209e-23 0 -1.4317169097e-23 -1.4769541068e-22 
3.8662972266e-23 -1.0135635953e-23 0 2.9203674887e-23 8.1966814224e-26 2.3870258488e-24 1.0578057745e-26 0 6.562514149e-25 
-7.3670733862e-26 -6.89047814e-27 -9.5965915196e-26 0 5.7256411969e-25 5.4639119397e-26 -1.6656699406e-25 8.3849011692e-26 3.0696549974e-27 
-5.846810232e-25 4.5963473681e-26 -2.0445253207e-25 0 3.4088486699e-25 -4.5967491941e-26 -2.6955263733e-25 0 -2.2777064906e-23 
-1.4583146173e-23 0 -1.3703245987e-23 -7.4290578163e-23 -1.5361614373e-21 -5.1078037583e-24 -1.0678028786e-22 -2.7733490596e-23 9.3376898357e-26 
2.3152331955e-24 8.3566254361e-27 0 1.1005378767e-24 0 3.0905366386e-25 2.9177499694e-25 0 0 
-9.8841658322e-26 1.6866733622e-25 -8.5787637367e-26 7.5771076023e-26 0 0 0 0 1.2386708725e-25 
-3.9703455641e-25 -2.8348707636e-25 0 -2.22003003e-23 -1.4161074035e-23 0 0 1.4889558997e-22 1.5191107326e-21 
1.0242264704e-23 0 0 -1.9059081616e-25 2.6101506199e-24 5.0217302574e-25 0 7.2087490026e-25 8.0973219262e-25 
-6.1484395807e-25 -7.1086228322e-27 0 7.1732108188e-26 -3.941232899e-26 3.4848226311e-25 -4.4735611682e-25 -4.2102196765e-25 8.6126946164e-25 
0 -1.3579007888e-25 0 1.873273479e-25 3.0922336757e-26 0 0 3.6536017095e-23 1.3787065613e-23 
2.6336066101e-23 0 -7.4786462439e-23 1.9564635551e-23 4.066035735e-22 0 0 9.256910479e-26 -2.8809391557e-24 
-1.538845759e-27 -2.3619876009e-25 0 0 3.9568952392e-25 3.3216467529e-25 0 0 -1.8829666073e-26 
1.1212178654e-25 3.5381397675e-26 0 0 -3.9274919281e-25 0 0 -6.7895039441e-27 -3.3547665849e-26 
-2.4976169494e-25 0 3.3982102002e-23 -1.3431636444e-23 -1.0273872625e-22 -1.2842340781e-23 -7.5157845532e-23 1.9670052612e-23 -5.1710136049e-24 
0 0 9.0044749894e-26 3.5835702671e-24 -3.053458697e-27 0 -1.5962008771e-25 -2.1907357591e-25 -9.13614327e-27 
2.924208768e-26 -4.3814715183e-25 -5.9065861671e-25 8.9172294384e-26 -4.1358991185e-26 -4.2909990332e-25 -9.7904540871e-26 2.6350222209e-25 1.6713250872e-25 
2.1761960666e-25 0 -2.7828890207e-25 7.8000544852e-25 1.0639489302e-24 0 1.5550616232e-23 5.2539086076e-23 0 
0 -1.5111702228e-22 3.9525089951e-23 -1.0400794192e-23 -1.0822623835e-22 0 9.3376898357e-26 2.5465650783e-24 3.3079156427e-27 
1.3024862685e-24 8.2588806396e-25 1.5186558502e-26 4.5963473681e-27 0 0 -4.8968442084e-25 -1.3756723459e-26 5.5026893836e-25 
1.5186558502e-26 -4.2199128049e-25 9.0472485068e-27 0 -4.1698299981e-25 0 3.1331891152e-25 -2.6277523747e-26 -2.2330645562e-25 
0 -2.0217974886e-23 -1.2852245719e-23 -9.8069275538e-23 1.2114114881e-23 1.5199731532e-22 -3.9762581259e-23 1.0465417677e-23 0 
-2.9163285209e-23 -1.8392651923e-25 2.5604713155e-24 -7.4236248524e-27 0 5.3702100553e-25 0 -1.0076421096e-25 2.1503460808e-25 
-2.0501804673e-25 -9.6931283729e-28 2.0034084112e-25 0 -2.3926841509e-25 1.9694011106e-25 3.806322893e-25 8.0294700276e-26 -2.1858891949e-25 
-3.8822556855e-25 4.681973289e-26 -6.2385087607e-25 0 0 -1.6360605987e-23 1.2538821815e-23 2.3977207911e-23 0 
-1.5287720446e-22 3.9994619961e-23 -1.0521357382e-23 0 0 9.6305150037e-26 6.6183528793e-24 -3.053458697e-27 0 
-6.656211103e-26 0 -7.728645317e-25 0 0 -3.7255435363e-25 1.7815479377e-25 2.0825015777e-25 -4.61411646e-25 
0 3.7659332147e-25 1.1002144438e-25 1.8926597357e-25 -5.1375675788e-27 1.5496713958e-25 -2.1329788149e-26 -2.2633568149e-25 2.6903564994e-26 
-1.9254681058e-23 -1.231970781e-23 0 5.8125231816e-24 1.5386230872e-22 -4.0250488574e-23 4.3380993462e-22 0 2.9559104057e-23 
-1.7605053195e-25 2.0712270791e-24 2.4718463427e-27 0 6.7240728624e-25 0 -1.4365793103e-25 -2.4540772508e-25 0 
-9.7904540871e-26 3.5301382528e-25 -9.0472485068e-27 8.5787637367e-26 -8.7338636514e-25 3.2408673962e-25 0 -8.2314184193e-26 -3.5866054094e-26 
3.1544328928e-27 2.9811620602e-26 1.1013860994e-24 0 -1.5728507521e-23 -2.4131313466e-23 -9.1176373031e-23 1.150645217e-23 -1.5485831819e-22 
4.0513021483e-23 -4.3655057624e-22 0 2.9607571671e-23 9.7617814584e-26 1.9881777751e-24 7.3468834775e-27 0 6.9664109325e-25 
-6.4174142789e-27 -9.5004638879e-26 2.5283978088e-26 -4.462250875e-25 -2.7359964168e-25 3.5454022182e-26 3.3017649929e-25 2.2117391807e-25 6.0930802806e-25 
1.1066732424e-26 0 5.1981496311e-26 0 -1.4291866976e-26 -3.3749614241e-26 -2.1038175855e-25 0 -1.8394380909e-23 
-4.1402818719e-23 0 0 -7.8228369854e-23 2.0471617333e-23 -5.3805855484e-24 0 0 1.7362715125e-25 
1.7858012291e-24 4.620580189e-27 -7.8145941778e-25 0 0 1.5108828092e-24 3.6649590188e-25 0 9.2686225983e-25 
-2.0182759741e-26 -3.7053486972e-25 2.9783344869e-25 -1.9734994896e-25 -1.7206042419e-26 0 -2.3777401671e-25 0 7.9729432134e-27 
-2.7640675391e-26 -2.4363781703e-24 -3.9897326591e-24 -3.0184740963e-24 -1.1580576696e-23 -8.8702303284e-23 -1.0970152972e-23 1.5706086832e-22 -4.1082717896e-23 
1.0772480207e-23 1.3524922598e-24 0 -1.9018691937e-25 -2.8687494798e-24 1.5699466001e-26 0 0 0 
4.2510940113e-25 6.1893139155e-25 0 -4.4323629074e-25 4.8024131207e-25 -2.8571654519e-25 -3.9476867672e-25 -5.3411306702e-25 -3.5841796621e-25 
2.1503460808e-25 3.0740578274e-25 3.5684261715e-26 3.9549590787e-26 -6.0567552081e-25 0 -3.9181522464e-26 -1.505248528e-23 1.1410435176e-23 
2.1751534686e-23 -5.3890626477e-24 -7.9101998596e-23 2.0692315371e-23 -5.4384942497e-24 0 0 -7.5039257649e-24 1.8173051782e-24 
-1.130814161e-24 0 7.6934251427e-25 0 -5.3090615023e-25 1.1066732424e-26 0 0 7.1905706891e-26 
-4.3919732291e-25 3.1342429841e-26 -7.178861035e-25 8.0472391195e-25 1.9887873674e-25 -2.6200782372e-25 0 -2.638798646e-25 -3.5415688473e-26 
-1.9574050015e-25 3.9059240765e-24 -1.7408064964e-23 -1.1218281281e-23 0 7.9546627424e-24 -7.9695373458e-23 2.0860942278e-23 -5.4910513187e-24 
0 3.0370936592e-23 1.9250932588e-25 3.1408487081e-24 -7.2943749234e-27 0 -2.9678327761e-25 0 -1.0576036289e-26 
1.0598247654e-25 -4.1795231265e-25 0 -1.0651569721e-25 9.3946431279e-26 5.1537269014e-26 2.0808770173e-25 -1.545309488e-25 0 
1.5630785799e-26 0 1.2345106173e-26 -7.4054879541e-25 -1.7302130608e-25 0 -1.725781536e-23 -1.1006841315e-23 0 
-6.5119288379e-24 1.6066564711e-22 -4.2023292531e-23 1.1046120278e-23 -1.146481972e-22 0 -1.9382199043e-25 4.2487799864e-24 1.2670240125e-26 
7.612645786e-25 1.1005378767e-24 0 5.332527649e-25 7.4413939443e-25 0 1.706059619e-25 1.1340205848e-25 -9.1846089119e-26 
1.7472578797e-25 1.9492062715e-25 0 0 -1.3611301882e-26 0 -1.7312629853e-25 -7.1745395564e-25 -2.0402037435e-24 
0 -1.4071016096e-23 1.0828583205e-23 -8.2731699083e-23 1.9236651247e-24 -8.0990468495e-23 2.1190370592e-23 -4.5103204298e-22 0 
-3.0217455814e-23 2.0523207456e-25 2.9991333963e-24 -1.178772664e-26 -8.5819980664e-25 5.8484175361e-26 0 -4.8122684586e-25 8.6732791339e-25 
6.9631766028e-26 -3.3717295596e-25 -5.4000980229e-27 0 1.7472578797e-25 5.4025237702e-25 -1.9088165931e-25 4.6343112991e-25 -2.2666685516e-25 
6.106917394e-26 -9.1119104491e-27 7.9717106182e-25 -1.7266305476e-24 0 -1.6752540484e-23 2.1572021498e-23 0 0 
1.6264686181e-22 -1.7453395814e-21 1.11751653e-23 0 0 -1.7221351251e-25 3.2145821564e-24 -5.5737953335e-28 0 
9.3897916333e-25 0 0 1.1066732424e-26 0 -4.9170390476e-25 -1.0957721708e-26 8.9568154647e-25 -2.5550514467e-25 
-8.5787637367e-26 2.41287899e-25 0 3.1196983611e-25 2.0546227403e-25 4.7708286092e-25 -4.4664116232e-25 0 0 
-1.2473982182e-23 1.0558414911e-23 2.0170228291e-23 0 -8.2021818931e-23 2.145623565e-23 -5.6398367963e-24 0 0 
1.9745706148e-25 2.3489343195e-24 -1.3282541634e-25 0 4.7449786234e-25 0 5.1243990251e-25 3.0793086828e-25 0 
-3.7457383755e-25 -4.6932786518e-27 -3.4226209487e-25 -5.9873655238e-25 -6.0277552021e-25 5.008280672e-27 0 2.4585195238e-25 0 
-1.4576027e-25 -1.5431219767e-24 -1.7998852559e-25 0 -1.6396909366e-23 -1.0437649773e-23 7.8938098544e-23 0 -8.2720408905e-23 
2.1636323128e-23 0 0 0 2.0250577127e-25 2.4513221541e-24 0 -5.1234297123e-27 -4.94854418e-25 
0 5.0244769725e-27 -9.2597380523e-25 -1.706059619e-25 -2.6350222209e-25 -1.3460663961e-25 -6.4114571464e-25 -2.5946325426e-25 1.4645301313e-25 
8.4608290313e-25 0 -1.4487775651e-25 0 6.106917394e-26 -6.1226107956e-25 -1.5413913145e-25 0 1.20195983e-23 
-1.029679077e-23 0 0 1.6693473104e-22 -4.3698656388e-23 1.1463749552e-23 0 0 -1.8402749343e-25 
3.2021623303e-24 8.4293238989e-27 1.9123704115e-24 7.1279696459e-25 0 6.7127625692e-27 -1.7068682014e-25 -1.1616075437e-25 8.2588806396e-25 
2.5123183584e-25 0 -1.201997222e-25 -2.1907357591e-25 2.1301512416e-25 -2.4136875725e-25 -3.5647934054e-25 0 -2.7743671043e-26 
2.6450592434e-25 1.5726933152e-24 0 -1.3155685011e-23 1.0101203753e-23 7.7242337898e-23 0 -8.4237142301e-23 2.2031839053e-23 
-5.7839269738e-24 0 0 7.8390630653e-24 2.8608734925e-24 -1.5776207376e-26 0 5.1200055629e-26 0 
9.9924024788e-26 5.5160586038e-25 -7.2988586116e-25 -3.6944838638e-25 8.2556512403e-27 1.4645301313e-25 -1.9492062715e-25 -5.9162792955e-25 -2.0291770457e-25 
-1.7876475581e-25 1.4996689543e-25 0 -1.2137500169e-25 -7.7659658334e-25 -1.6484239621e-25 0 -1.5587500212e-23 -9.939544065e-24 
0 0 -8.5029234381e-23 -1.7572230326e-21 -5.8521855302e-24 0 0 9.0499133775e-26 2.9972634015e-24 
6.3876286167e-27 0 1.2499796866e-24 0 -1.4433535547e-24 1.5041112272e-25 -1.2742134936e-24 -1.3832656252e-24 -1.5473284789e-26 
-3.4630106271e-25 4.5042577182e-25 -1.6252802623e-25 -7.9810043857e-26 -9.7419884452e-26 0 0 1.3838111718e-25 2.0445253207e-25 
-1.7817099007e-25 0 -1.5548120276e-23 -9.8227169204e-24 0 0 1.7166890621e-22 -4.4934075675e-23 1.1792723482e-23 
0 0 -2.0109213253e-25 2.7095092286e-24 -1.1260644295e-26 0 1.3307590433e-24 0 4.2659576298e-26 
7.522173301e-25 0 0 -3.2061328644e-26 3.9686901888e-25 3.6657676012e-25 0 8.3768153449e-26 0 
0 0 -8.8711870787e-26 2.1986120422e-26 0 0 -1.2752293098e-23 9.6799394074e-24 1.850223555e-23 
0 -8.6689048213e-23 2.2685646972e-23 -4.8182154916e-22 0 0 9.0953517656e-26 3.3921231917e-24 2.0962252923e-27 
0 2.4293582943e-24 0 -1.08527046e-26 0 6.5673656436e-26 -4.5397959019e-26 -2.6402730763e-26 1.6863499292e-24 
-5.7046377753e-25 -4.9469270151e-25 7.1182765175e-25 0 -9.3380916617e-26 -1.0800196046e-25 -8.3202638788e-28 -6.3240543164e-25 -1.9121201454e-24 
-3.214251032e-24 -1.5136751402e-23 -9.5217128425e-24 -1.0946396742e-22 0 -1.7510101913e-22 2.2917887622e-23 -5.9929435592e-24 0 
0 8.2572659399e-26 3.6274435552e-24 5.4788608539e-27 0 3.3313398812e-25 0 -6.4360942586e-27 1.6252802623e-25 
0 0 -5.6809502545e-25 5.2005753784e-25 -2.3724893117e-25 9.1894604064e-25 2.2715151158e-25 5.1391822785e-25 -4.4929474249e-25 
0 5.82738256e-25 -1.764423e-26 7.7905023657e-25 0 -1.4989531024e-23 -9.4073090786e-24 0 0 
0 0 0 0 0 0 -2.340501002e-24 0 0 
-5.8645891846e-26 -3.2461182516e-26 5.1537269014e-26 -9.3380916617e-27 -4.2760550494e-26 -1.3884755584e-25 3.3281055515e-26 -2.1730450603e-25 7.7439171711e-26 
2.1526894907e-25 5.7839227337e-25 -1.1155627187e-26 1.371956811e-25 -2.8757431262e-27 2.4740297618e-25 4.7910234483e-25 -1.5928881544e-25 -6.3244985436e-25 
-1.4599366731e-23 0 -3.5519847497e-23 0 -8.9837928511e-23 2.3368434484e-23 -1.23115289e-23 0 0 
9.6709046821e-26 2.2554059845e-24 -2.296152228e-27 0 -1.0964989089e-24 0 2.9972634015e-24 4.7554803342e-25 0 
-2.8571654519e-25 2.298173684e-27 3.9388022213e-25 -2.8369706127e-25 -1.9080080107e-25 4.5397959019e-26 0 0 0 
7.9729432134e-27 -2.3955117242e-26 -1.5089301813e-24 -3.1142865781e-24 1.0597831135e-23 -9.1935467059e-24 0 0 0 
0 4.9667379315e-22 0 0 0 1.9810328647e-24 0 0 2.292033388e-24 
-1.1660498167e-26 0 7.6832473579e-25 -3.170871275e-25 -1.3881930476e-26 -2.1511546632e-25 3.2129185473e-25 -9.4996109321e-27 1.0924604341e-25 
-6.5520947756e-25 5.7070635226e-27 2.1127031175e-25 -2.0041356424e-26 -1.1501362735e-25 6.4570976802e-25 -1.4122978758e-24 -6.6758887453e-25 -1.4018967054e-23 
0 1.0368723367e-22 0 0 0 0 0 0 0 
2.5989949434e-24 0 0 0 -2.5594937197e-26 0 1.0643888188e-25 -2.130635898e-25 4.7671125813e-25 
-4.8063815841e-28 -5.5273264958e-27 2.0186802653e-26 4.2307384417e-25 2.1771244572e-25 3.5584514567e-25 -9.5723340468e-28 -1.2604404752e-25 -3.7764250647e-28 
5.7805705679e-25 6.7590509549e-25 -6.3144011241e-25 1.0619641562e-23 -4.4801985649e-23 1.7056688962e-23 0 -9.2306343703e-23 2.4142452182e-23 
-6.3362053381e-24 0 -3.6174936526e-23 1.1528829886e-25 3.9843325117e-24 2.0322067647e-26 0 -2.4195034495e-24 0 
5.2863620297e-25 4.1391334482e-25 3.7796791159e-27 -5.261159896e-25 -2.4656690688e-25 5.7054463578e-25 5.261159896e-25 1.9225526336e-26 4.5939216208e-25 
-4.3378475102e-26 0 0 2.624279168e-25 -3.2941820674e-26 -1.4495047962e-25 0 -1.3994127401e-23 -8.7989395485e-24 
0 0 0 0 0 0 0 0 3.1523335368e-24 
0 1.3873844652e-27 -3.0373117003e-26 1.0553824924e-26 -3.6253779229e-25 6.3129086978e-27 -2.2868633908e-26 1.3045062454e-25 7.1086228322e-27 
-4.7600039584e-25 -1.0650756208e-26 4.9873216238e-26 -2.1863748374e-25 3.1713169814e-25 3.1624940652e-27 -1.8526743486e-26 -3.3058941867e-27 -4.818529056e-25 
-1.8140216433e-25 -6.1124527323e-25 -1.3641525509e-23 0 1.6638403355e-23 0 1.88785648e-22 -2.0247319502e-21 1.3006332342e-23 
0 3.5056142435e-23 0 1.0001291955e-25 -1.8126889614e-26 8.9455051715e-25 4.7449786234e-25 0 -7.0584182451e-25 
-5.2657648715e-25 -5.5026893836e-25 -2.1907357591e-25 -1.9469032907e-25 1.7472578797e-25 0 0 -1.5138043556e-25 0 
0 0 0 -3.9663268109e-25 0 0 -1.1250301934e-23 8.6107236474e-24 1.6428881899e-23 
0 0 0 5.2658638893e-22 0 3.7180639517e-23 0 2.4778259084e-24 -6.6853003489e-25 
0 8.420439353e-25 1.5165520567e-25 0 -1.7416027331e-26 3.5454022182e-26 -2.5452355518e-25 -2.8078912276e-25 -1.9397946678e-25 
1.6015715408e-25 -5.2265047433e-25 -5.0940273872e-25 4.4986025715e-26 1.0856747512e-26 -1.378095628e-26 -2.3708721468e-26 4.7001466721e-25 5.2164078168e-25 
5.4003342867e-24 1.0062566923e-23 0 1.6227892762e-23 8.0609096845e-24 0 0 0 1.3772032133e-22 
3.6590319124e-23 0 3.2411908291e-24 0 0 1.1383829856e-26 0 -5.1456410771e-26 7.0980816783e-25 
-6.8759384474e-25 2.0135063239e-24 0 -1.5243060664e-25 -3.8871022497e-25 -5.1488754069e-25 -1.232693772e-25 0 -4.2934247805e-26 
1.0733561951e-27 0 -3.4725834542e-25 -7.9391972229e-26 0 -1.209487693e-23 -2.0946964404e-23 6.2319112211e-24 0 
0 0 0 0 0 0 1.9042924758e-24 0 0 
7.8549838561e-25 -3.2663130907e-26 0 -1.6204336981e-26 -4.7607311896e-26 -6.8592574905e-25 1.0157195522e-24 -1.0209581802e-24 -5.9262559207e-25 
4.1200711174e-25 8.2314184193e-27 1.1462592687e-26 -1.2497376049e-25 2.1272437961e-25 2.2001875454e-25 -1.299941699e-26 -1.1728354996e-25 -5.755004079e-25 
-1.3031438629e-23 1.6588944932e-23 9.4780400828e-23 -7.8489648474e-24 0 -2.0844206247e-21 0 -5.4837667089e-22 0 
0 3.1280997298e-24 0 0 2.9274430978e-25 -4.959852008e-27 -1.5848905839e-25 -1.2601559923e-27 -4.0874334766e-27 
-3.3874821258e-26 1.0016561344e-26 -1.324861815e-25 5.8355048691e-26 4.7359215141e-25 -6.2835034146e-25 -4.0874334766e-27 -2.1840723497e-27 4.0258406962e-27 
1.3102412642e-26 -1.9865662309e-26 0 0 -1.2905422833e-23 0 6.2433866229e-23 0 -1.0023145493e-22 
-2.0720417941e-21 -6.9012573326e-24 0 0 1.2760715076e-25 1.5180176617e-24 1.461702558e-26 0 -9.3057976684e-26 
-2.3320996333e-25 -5.815789756e-25 -1.8878131715e-25 0 0 -4.5568446652e-25 -5.1787633744e-25 -2.7359964168e-25 2.4136875725e-25 
0 0 4.4069172128e-25 0 1.1133415823e-26 -1.9209330036e-26 6.8090331819e-25 0 -1.2376519995e-23 
-2.8284251192e-23 -6.1527723795e-23 -7.6474960831e-24 0 0 -5.5839331112e-22 5.6239592824e-22 0 0 
3.2654246361e-24 0 4.1601319394e-28 5.2312719284e-25 -5.5887195957e-26 -1.4233318705e-25 3.7886726233e-25 -3.1754363145e-26 -2.6737947344e-27 
4.5939216208e-25 -3.084842049e-25 -2.5721354622e-25 -1.1934333974e-25 -4.1347725265e-25 1.127599257e-25 1.9036865321e-25 -1.8713343603e-25 -2.0437167383e-27 
-1.9613226819e-26 -1.308140922e-25 -5.5894063977e-25 -2.0553822161e-24 5.0826670999e-24 1.517801356e-23 0 0 0 
0 0 -3.9066837495e-23 0 6.3773684946e-24 0 0 0 -2.1555969362e-26 
0 -5.7990284339e-25 -2.6395458452e-25 5.1136572048e-25 1.2137906926e-24 1.17049702e-26 1.6861887058e-25 5.1213308492e-25 -7.8758664834e-25 
1.4895715347e-26 1.2493737428e-25 -2.8265502532e-25 9.1644190031e-27 -1.2864102693e-27 1.3549667193e-24 -5.3521170374e-25 -1.2365008936e-23 0 
-2.9927391659e-23 0 -2.082869964e-22 5.4483505145e-23 -1.4333638935e-23 0 0 1.2629448621e-25 2.6781849426e-24 
2.8601951708e-26 -4.049106423e-25 -3.7835645024e-25 0 4.2166834055e-27 1.1010230262e-25 6.2902881114e-25 4.4405019798e-25 1.5248311519e-25 
-9.0165913998e-25 -2.5542428643e-25 2.130959824e-25 -7.5738732725e-25 0 9.0351690741e-26 0 1.3910206209e-26 3.3168001887e-25 
1.2918315186e-24 0 -1.199786676e-23 -6.5936964006e-23 -5.897812535e-23 -7.3155939013e-24 -2.1103965395e-22 5.5237378492e-23 -1.4511151572e-23 
0 -4.0355268235e-23 1.2472938617e-25 -3.0690540826e-24 3.2574285448e-27 0 0 1.7472578797e-25 9.304328415e-25 
-1.7206042419e-26 -1.7464492973e-25 0 -3.7510705822e-25 -3.0389190044e-25 -5.0180132434e-25 -6.3201760789e-25 -4.9582373083e-25 -4.2918076156e-25 
1.6608233764e-25 0 1.2068437862e-25 5.7401808895e-25 5.2732156627e-25 -2.5932597274e-24 -1.9887392469e-24 -7.6065352695e-24 -5.8180227254e-23 
0 -2.1388056295e-22 -2.1818669841e-21 -6.0324539259e-22 0 0 1.3361511541e-25 -3.2941820674e-26 1.3102412642e-26 
0 1.2398014088e-24 0 2.8673242547e-25 -3.1810914611e-25 0 -6.7951590907e-25 8.8110093175e-27 -1.3021628355e-25 
-7.9260700844e-25 0 3.1600880395e-25 -1.1607989613e-25 -1.7722992831e-25 0 -1.1854360734e-27 -9.4835369051e-25 -8.6789342805e-26 
0 -1.1998472605e-23 -2.6203376541e-23 0 -7.1139989192e-24 0 2.268851811e-21 0 -1.5653229365e-22 
-4.0351229267e-23 0 2.6555404931e-24 -6.8872487406e-25 0 9.47057099e-25 -1.0145885229e-26 0 6.9891503411e-25 
-1.9242442472e-25 9.3622465827e-25 -9.9261677451e-25 -3.1382365924e-27 1.3825428313e-26 1.701617346e-26 -9.8429626411e-27 -6.813736765e-27 8.7677896007e-26 
2.1729666672e-27 2.5394608435e-25 -1.0828471779e-26 -1.5494692502e-25 -4.947210512e-25 8.6212612514e-24 -1.8500107203e-23 -5.6426305472e-23 -7.0075721168e-24 
0 0 0 0 0 0 2.4697479727e-24 0 0 
0 -2.9835853423e-26 0 1.3704140949e-26 -2.4181298454e-26 7.2531865234e-26 0 2.1526894907e-25 -9.2519421344e-25 
-4.5055489848e-25 7.7661236055e-26 -1.3881930476e-26 7.0411308514e-26 -4.6932786518e-27 -7.4724923203e-26 -5.4652687805e-25 5.8730023862e-25 2.0483544516e-24 
1.7050772505e-23 3.6345901617e-23 -2.7794008849e-23 6.8951121061e-24 0 -2.3500350644e-21 0 0 0 
0 2.2476047418e-24 0 0 4.0987437698e-25 -7.9474728669e-26 -4.5397959019e-26 -9.0863444532e-25 4.6711870952e-25 
-6.8093758433e-25 -1.3635559354e-25 -2.1518404792e-25 6.8957339258e-26 8.1680087937e-26 -1.5014857995e-27 4.2934247805e-27 6.8177796772e-27 1.6974970269e-25 
5.9924166988e-26 5.3564789452e-25 -1.0789294974e-25 -5.3511072955e-25 -1.10824347e-23 0 -2.7117279788e-23 -6.8399454853e-24 0 
0 0 0 -4.4119586257e-23 0 2.6393846218e-24 -1.5945837123e-25 0 7.612645786e-25 
1.1462592687e-26 -4.9889338583e-25 -3.1451440557e-26 -8.3223740817e-25 1.11596701e-26 0 -5.5657780415e-25 -8.3435786628e-25 -9.13614327e-27 
-5.3050634566e-25 -2.4342817725e-26 2.6548176993e-26 -8.6805514453e-26 4.7922560435e-27 -4.5640740824e-25 -9.7189684979e-26 -5.3561560053e-25 -1.1126661398e-23 
-3.5157810829e-23 8.0618769858e-23 -4.991975706e-24 -1.1470984195e-22 3.0021471211e-23 -7.8868159714e-24 0 -4.4091313482e-23 1.3285780894e-25 
3.1847219962e-24 -8.4555781759e-27 0 4.019581578e-25 0 -8.4293238989e-27 -5.9615204684e-26 0 0 
-6.5118249055e-27 -4.906941628e-25 1.9225526336e-26 -4.1395278786e-25 8.8816863243e-26 0 -3.6247714861e-25 -5.2912999292e-27 -2.9987314717e-25 
-4.6648057035e-25 -1.3439867616e-25 -1.2102933764e-24 -1.078382166e-23 -6.9334917669e-24 0 6.5368805083e-24 0 0 
-6.3941500588e-22 0 0 -1.1444495824e-23 2.4010855195e-24 4.9889338583e-25 0 3.5736779513e-25 -3.0776915179e-27 
-1.0137000683e-24 1.2178695965e-25 3.9905021929e-27 3.7006239134e-25 3.4290797474e-26 -2.6150295274e-26 -1.6135656778e-27 -9.2726418446e-25 4.0250296486e-26 
6.161447404e-27 3.6351918456e-25 -9.943936837e-27 1.3481065876e-26 5.1444331339e-25 1.1189900235e-24 -4.8903824515e-25 -1.7712913161e-24 0 
5.1804309475e-23 -2.4067201557e-24 0 -9.5273863238e-21 0 0 9.0892774381e-23 0 6.098679714e-24 
0 -4.0308820105e-26 0 -1.4432439524e-25 -8.8897721485e-26 5.3413540165e-25 -2.8270753387e-26 -2.4003375808e-25 0 
-3.010626015e-25 -2.4593069056e-25 2.7395255833e-25 1.3998778525e-24 2.4254021569e-27 -7.4772065346e-27 -8.6817593886e-27 1.0359962357e-27 -9.3138588408e-27 
5.0882632792e-25 -6.4077677426e-25 -1.0619568987e-23 -3.3199040802e-23 -5.083364453e-23 -7.8562978026e-25 0 2.5105537436e-21 0 
0 4.6225907982e-23 0 2.9301903059e-24 0 0 1.9378959782e-25 -6.7127625692e-27 4.1205557739e-25 
-4.5055489848e-25 1.3152109893e-24 -1.6082846485e-24 2.4330738292e-25 -1.1177015179e-24 -2.840989366e-25 -4.8978337358e-25 7.4913963858e-25 -5.2586947056e-27 
-7.0576727715e-25 2.7416515634e-26 2.2903070152e-25 -2.4118088509e-25 -1.2541197272e-25 -4.8327039003e-24 -1.040691733e-23 0 -5.0280305936e-23 
0 0 2.5301851468e-21 0 1.7446531084e-22 0 0 4.1580365276e-24 0 
0 -1.4380342657e-24 -1.7668462821e-26 0 -3.0424328867e-25 1.1026796341e-27 8.9091633357e-26 4.0179644131e-25 -1.7383511471e-25 
-1.3740527159e-26 7.2250276404e-25 1.4576833117e-25 5.2508554004e-29 -2.6826842108e-26 -5.83265363e-25 5.7996649461e-25 6.1137854142e-25 8.2018213442e-25 
-4.4478931134e-25 -1.0142162989e-23 1.2888140468e-23 -2.4670824906e-23 0 0 0 0 0 
0 0 0 0 0 -4.8257579801e-25 -8.0577211088e-28 0 1.6173358413e-24 
4.7862976785e-25 -5.5657780415e-25 0 7.9559629824e-26 -1.4800756215e-26 4.8562735851e-25 -4.6427915539e-27 -6.1794186415e-26 -2.9161722476e-27 
6.8177796772e-27 -8.5060652739e-27 -3.668180283e-25 -1.3530744392e-25 -4.3029951424e-25 -9.8716531178e-24 0 1.2046298087e-23 0 
0 -2.6109483476e-21 0 0 0 0 0 7.4527042375e-25 0 
-4.9283493408e-25 -3.5320753993e-27 0 9.3968568688e-26 4.6375638713e-25 -1.1022137131e-25 6.0778380088e-25 2.6403948568e-25 -1.2824526527e-25 
3.1827086259e-27 -4.3554011445e-25 -5.7354146905e-25 -9.8831501738e-26 2.166098647e-26 1.8437898026e-27 3.4177743845e-25 -9.5826533335e-26 -4.1222513318e-25 
-9.6417348738e-24 0 4.6503871011e-23 0 -2.5344184899e-22 2.7189980073e-21 -7.1404266115e-22 0 0 
3.2165532239e-25 2.9041914226e-24 2.1580128227e-26 0 1.8094497014e-26 0 8.9119835134e-27 -7.3751592105e-26 0 
-2.7052998668e-25 1.9540528357e-26 2.5283978088e-26 -7.4680475821e-26 7.779055994e-26 -2.595441125e-25 0 0 1.7185827858e-26 
-1.6558757394e-26 -2.1355031698e-26 5.5117672005e-25 0 -9.632041351e-24 -6.0247748856e-24 2.2930332692e-23 0 0 
2.6956818538e-21 0 0 -4.8507924809e-23 0 3.2129180543e-24 0 0 0 
-6.5431081707e-28 0 1.0739813674e-25 8.1809313214e-27 6.3656193974e-26 0 -3.4665245094e-25 -3.084842049e-25 -5.1908773197e-26 
-4.0168304256e-27 -2.0174624613e-27 -1.1660296021e-25 -1.7366353746e-25 1.267327231e-26 -9.2128846449e-27 9.4344638403e-25 -4.6594321802e-24 -1.6849586153e-23 
0 1.116317777e-23 0 -2.6184936444e-22 6.8528914816e-23 -1.800379852e-23 1.8850678251e-22 -5.025073943e-23 3.0418678651e-25 
3.3728126656e-24 2.7315541438e-26 0 -6.6723827516e-26 0 1.4493941092e-25 -2.2109305983e-25 -7.1176700807e-27 -1.5339991948e-25 
1.0561489201e-25 -7.0641507986e-26 9.293668932e-26 4.4469075303e-26 0 0 -6.5148570896e-26 8.7827335845e-26 -9.8995141072e-26 
-1.8982138095e-26 3.8055559723e-25 3.9889654918e-24 -1.6632441144e-23 -5.6801499551e-24 0 0 0 -2.7865828639e-21 
0 0 -5.0882837896e-23 0 4.2307379486e-24 0 0 -2.8482809059e-25 -8.5625920881e-28 
0 -3.4665245094e-25 7.2531865234e-26 -1.645677247e-26 -8.9826605201e-26 -3.3923084754e-25 -4.0415434656e-25 -5.9050513396e-25 4.0159651438e-25 
2.5555765322e-25 3.9028548159e-26 5.7070635226e-27 3.3079156427e-27 8.3283497031e-26 -9.0929284835e-26 -2.3212835615e-24 -8.6572364641e-24 -2.7515963779e-23 
-2.1011721996e-23 0 0 -2.8344951198e-21 0 0 5.1304910035e-23 0 4.1539975598e-24 
1.1734010142e-24 0 0 -8.3546039801e-27 0 6.4038249172e-27 1.9205311776e-27 8.698123322e-26 2.0493718849e-25 
-1.8231694716e-25 -4.9932543509e-25 -1.6959419848e-25 -1.7517001527e-26 -1.499264663e-26 1.7218323997e-25 -2.1184366572e-27 9.2906367479e-27 -6.3129086978e-26 
-1.0818598199e-24 -3.9283808757e-25 -8.3658249348e-24 0 1.0169389734e-23 0 -1.3899562543e-22 -5.7844069767e-21 -9.5568786839e-24 
0 0 1.6817353395e-25 4.1200209262e-24 7.9022415547e-27 1.0379338753e-24 6.7038780232e-25 0 -3.725533429e-25 
0 0 -3.3313398812e-25 -2.428227265e-26 -2.4532686684e-25 1.5186558502e-26 0 6.656211103e-26 0 
1.9532442532e-25 0 -1.538845759e-27 -2.6980706962e-25 -5.2003732328e-26 0 6.0605808877e-24 -5.1235297004e-24 0 
0 -1.4022690477e-22 2.9728190649e-21 -9.6389202181e-24 0 5.3885813636e-23 1.7150568241e-25 3.8029367076e-24 6.3623850677e-27 
0 2.0112442652e-24 7.3797962335e-26 -1.4083878868e-26 0 2.5045643487e-25 2.17054092e-25 -7.5710432341e-27 -6.4013597268e-25 
-5.2502538939e-25 -1.1097054265e-27 0 -2.8478766147e-25 -4.6932786518e-26 0 7.0692044388e-27 -6.306240358e-26 -1.0688320778e-25 
1.6261793665e-24 -7.828743187e-24 -4.9424324801e-24 0 0 -1.4276196293e-22 -2.9509632002e-21 -9.8092131994e-24 0 
5.4281632484e-23 1.7607476477e-25 4.4849669136e-24 1.045184e-26 2.8668585802e-25 -3.1915931719e-25 0 -1.3478033692e-26 0 
5.6553635511e-25 -2.5639359926e-25 4.6066641896e-25 8.6878237568e-26 3.2416759786e-25 3.4371655717e-26 -1.6159914251e-25 0 5.7514862524e-26 
5.8544819043e-26 -1.2879660509e-25 -5.8554926323e-27 -9.7997478546e-26 0 -7.3873849768e-24 1.8852884222e-23 -5.3940068334e-23 0 
0 -3.0433077374e-21 0 0 2.1228620564e-22 0 0 0 0 
0 1.2169412058e-26 -3.0251829639e-26 -2.892708566e-26 -1.277089286e-24 2.981587059e-25 0 -4.4313329509e-25 5.5136156002e-25 
3.0022867692e-25 -5.3818038455e-25 2.4488263954e-26 3.4969365764e-26 2.1257089686e-26 6.6653076553e-27 -1.9930183736e-25 -1.0929669814e-24 -2.9464068209e-25 
-7.1471673649e-24 2.2378901564e-23 8.549485953e-24 0 0 -3.1006348274e-21 0 0 5.6406129565e-23 
0 6.1915759742e-24 6.0188706562e-25 0 -2.2222408915e-25 -7.5528501294e-28 0 2.5800114988e-25 -8.0577211088e-28 
2.776992532e-26 1.3425525138e-25 -6.2973360905e-25 1.9406436794e-25 2.5237696605e-25 -4.4225489847e-25 1.5753996012e-26 -1.3104227022e-25 -1.1086946985e-27 
7.725536712e-27 -9.7682427222e-27 -9.1232207423e-26 -3.0589930493e-25 -6.4825552077e-24 0 8.0801326471e-24 0 -1.5090240163e-22 
6.3587267963e-21 -1.036452079e-23 0 0 1.9828908786e-25 3.767040381e-24 3.5351075834e-27 0 -9.6298479232e-25 
0 9.6955442594e-27 5.1456410771e-26 1.1502972505e-25 4.2013351305e-25 2.4496349778e-27 -5.6339558382e-25 -2.0291770457e-25 -1.2213834788e-25 
0 -2.1410572436e-25 8.0577211088e-27 -2.7788118424e-26 -4.0322994949e-26 -2.0774430072e-26 -9.4715817181e-26 0 -6.2205271694e-24 
-3.9542485122e-24 -3.0361934111e-23 0 0 3.2207941205e-21 -8.4529331332e-22 0 -5.8298385996e-23 0 
4.1136078814e-24 0 6.3403709181e-25 0 4.1924505846e-27 4.6238095883e-25 -7.7124465513e-27 1.4953474756e-25 -6.0382371914e-28 
0 -4.9788315084e-26 -2.9894214339e-25 4.5382048681e-25 -4.3362160472e-25 1.0452850728e-26 1.5919789922e-25 -5.8039948064e-27 4.7201418308e-26 
-9.1119104491e-27 -6.9017884332e-26 9.9761696935e-25 -5.8518703803e-24 0 7.0616311769e-24 0 -3.1366331379e-22 -3.2425889967e-21 
-1.0776899406e-23 0 0 1.9874347175e-25 3.8348445535e-24 9.7450206293e-27 0 1.6955579082e-25 0 
-4.6143999569e-25 1.5949880035e-25 0 5.0567956177e-26 1.9295784261e-27 3.2820656569e-25 -4.0385635435e-25 -2.7158015776e-25 3.1297957807e-25 
0 -4.3439118784e-26 1.0056990465e-26 5.7565398925e-27 -2.4489168679e-25 -5.0108247484e-25 0 3.8529567999e-24 -3.4099471094e-24 
0 0 0 -3.348867771e-21 8.8021619822e-22 0 -6.0645026308e-23 0 4.3599849193e-24 
9.5731623507e-25 0 1.1317195762e-25 1.7521044439e-26 0 3.0657747879e-26 1.4037434682e-26 6.4177389444e-25 4.2804973224e-25 
2.1629086907e-27 -2.4911137773e-25 0 4.1144149847e-25 6.3633957958e-27 3.8820747406e-25 -7.2883352071e-27 -1.5795290415e-25 -8.6575265677e-27 
-8.6890317001e-26 -2.0967089626e-25 3.6037276353e-24 0 2.3597775282e-23 2.7805775104e-24 0 6.8363448402e-21 0 
0 -6.2383801961e-23 0 4.2835502141e-24 0 -4.6438022819e-27 2.9274430978e-25 1.0818581435e-25 0 
2.1675319086e-25 -2.269897951e-27 -1.5630785799e-27 0 -4.8728086027e-26 -2.130635898e-25 -5.0356635132e-25 -7.3690948423e-27 4.7578666384e-27 
1.1901026787e-25 -2.1689237551e-27 1.1717653604e-25 1.2771214321e-25 -5.7860235689e-26 -1.7362310834e-25 -4.2933340615e-24 0 1.0465018513e-23 
-2.443727593e-24 -3.3328472051e-22 -3.4022572712e-21 -1.1454991618e-23 -2.412355076e-22 -6.3215829335e-23 2.0298438797e-25 4.9595961213e-24 4.5401134184e-25 
0 -4.6860112707e-25 0 -3.4953635384e-25 -2.2622262787e-25 0 -3.0284172936e-25 -8.4452835411e-26 5.3556752932e-26 
-8.6878237568e-26 -2.9379448086e-25 3.4832054662e-25 0 -7.0722366229e-26 0 7.9779722016e-27 -3.9737364334e-26 -5.0706416057e-25 
0 -3.5993384133e-24 -2.4050519121e-24 0 0 -1.7200600856e-22 3.6461067231e-21 -1.170381728e-23 0 
-6.4643604464e-23 2.1542945761e-25 4.0841245995e-24 1.4919948168e-26 0 2.8870534194e-25 0 2.8535317613e-27 -5.0446668813e-26 
0 -5.0882908893e-25 -5.4505851208e-27 -2.8975551302e-25 -1.6050854231e-25 -9.4875314995e-26 1.8676183323e-25 0 -1.0149928141e-25 
0 -2.4754225943e-25 -4.0339593075e-25 -2.605336399e-26 0 -3.1531334417e-24 -1.9766183991e-24 0 0 
-1.7386567557e-22 -3.5952266336e-21 -9.6787371519e-22 0 -6.6138022563e-23 2.1411679307e-25 4.4171627411e-24 1.9766709569e-26 3.533288273e-25 
-6.2684859681e-26 0 -6.3603636117e-27 -3.7400881593e-26 -6.0988808735e-27 0 1.7550523185e-25 -2.9985293261e-25 -3.5336925642e-25 
0 3.3822312704e-25 0 2.5493963001e-25 0 -4.0975730509e-25 -1.9890905858e-26 9.0431488952e-26 0 
-2.4373273672e-24 -1.5650475767e-24 0 1.4909476039e-24 0 7.4414549232e-21 0 0 0 
0 4.1459196241e-24 0 1.2932782895e-25 0 -2.7561710414e-25 0 -4.2115129153e-25 -8.2273755072e-27 
-6.3953816403e-25 -8.4899182772e-26 1.5695635096e-25 1.558961219e-25 1.0772137249e-25 -1.2666004928e-25 3.6370925073e-27 -5.0454803941e-26 -5.0909187822e-26 
0 -1.9284049955e-25 -2.6734939812e-26 -7.0629428554e-26 -1.7130394602e-24 0 2.1234378381e-24 0 0 
-3.8045340247e-21 -3.8482190969e-21 0 0 0 4.7133946049e-24 0 0 -3.3127622069e-25 
1.0149928141e-26 -1.9383002695e-25 -2.3956931622e-25 -1.1458549775e-26 -3.02720442e-27 -1.0307453803e-25 2.1049791832e-25 4.6601312096e-25 -8.8764403993e-25 
1.0787776417e-25 -6.7672925792e-26 2.0015126799e-26 -7.4700690382e-27 -2.1909379047e-26 3.3622385768e-25 2.4213592448e-27 -5.9295075068e-26 -8.8727238783e-25 
1.2609617151e-24 1.1592478635e-24 0 -3.7186524419e-22 3.9901031902e-21 -2.5566159945e-23 0 7.0084094138e-23 2.2916194825e-25 
4.8357773024e-24 1.4793730423e-26 -1.2916611247e-25 -6.0895525933e-25 0 1.0048953945e-26 4.7922313916e-26 0 0 
-6.9309072614e-27 0 -2.2765638256e-25 -2.8117270637e-25 1.8120825246e-25 0 8.6817593886e-26 -2.2035596792e-25 -1.5839316249e-26 
-1.9553643169e-27 3.9359721828e-27 0 -2.2993037273e-25 -4.7279145759e-26 0 0 0 0 
0 0 7.2471124128e-23 0 4.759842735e-24 -3.1004883655e-26 0 -1.4927840474e-25 -2.3961156958e-27 
0 1.5153391831e-25 6.6663183834e-27 -1.9449439574e-25 6.9591336906e-26 -1.0279976791e-25 -2.277372408e-25 9.2193693281e-26 -3.9847484386e-26 
2.0752218707e-26 5.0715507679e-25 -1.5169351473e-26 -2.3076032836e-25 -1.2346116901e-25 1.2269252267e-28 -2.0064381301e-25 -2.5080476627e-25 0 
-9.8924321085e-25 0 -3.8986485386e-22 8.2635391662e-21 -2.6800971809e-23 0 7.4021078035e-23 2.4324784857e-25 5.0494134573e-24 
2.0561881362e-26 0 -6.8165668035e-25 2.5647840181e-27 3.4576803925e-25 0 1.2062373494e-25 0 1.2193644879e-26 
2.8731201637e-25 -8.7807121284e-26 0 1.4536241293e-25 0 1.5274368581e-25 0 -1.966058066e-25 3.9768696903e-27 
1.915783221e-26 0 1.7080167829e-24 1.1720851942e-24 8.8068565565e-24 1.4241017002e-24 0 -4.1825927231e-21 0 
0 0 4.7433841383e-25 2.0138249448e-23 1.2541803709e-24 0 2.1095521112e-25 1.5095592979e-28 2.6047299622e-25 
8.1498255498e-26 8.5242830304e-27 -5.2701381191e-26 4.4347787939e-26 9.2282378503e-26 -6.2511063763e-26 -5.5333662121e-28 0 1.2109029686e-25 
-1.8926907971e-25 1.8429812202e-26 1.1929699416e-25 1.6115688737e-27 5.3110405571e-26 1.7264265284e-25 -2.1934155196e-24 0 -1.4134009795e-23 
-1.0639805833e-24 0 4.288419335e-21 0 0 7.7708655668e-23 0 -5.5555193984e-24 0 
-8.5214135489e-25 -2.112372289e-26 -5.7282641595e-27 0 2.7676223435e-25 2.4254021569e-27 -7.3690948423e-27 0 1.8336623077e-25 
1.7975127567e-25 1.2137118065e-27 -1.1131197151e-25 -7.8992093706e-27 -8.2726117497e-26 -2.4213592448e-27 -1.9553643169e-27 -9.6127631682e-27 -2.5717218032e-25 
2.0114261963e-25 4.012971318e-24 0 -4.9945233323e-24 -1.4445018404e-24 0 -4.4587708813e-21 1.1712743178e-21 0 
0 0 5.3051033927e-24 1.6679422298e-26 0 -5.3120512851e-25 4.0591823954e-28 0 -2.1970777078e-25 
3.3202415944e-26 -2.1942496414e-25 -2.0202924998e-25 3.843754836e-25 -2.8833985282e-25 1.1178652065e-27 -1.6023396941e-25 -2.4963848472e-26 -1.081009132e-25 
1.0637330782e-25 3.9894914648e-27 1.7949174044e-26 5.6240605643e-26 2.5819545618e-25 5.4528976666e-24 0 -6.6131775574e-24 -1.8681391778e-24 
-2.1582997077e-22 5.6486202103e-23 -1.2016545251e-21 6.2342902363e-22 0 2.7359059443e-25 5.49405254e-24 2.0776451528e-26 0 
5.5527721903e-25 -2.8218244833e-25 4.9677751297e-26 -3.6896010613e-26 7.856601021e-25 4.5345499769e-25 2.2486973141e-27 -1.1002144438e-25 -2.6249248014e-25 
0 -3.7772435079e-25 0 -8.2314184193e-26 -2.7727474742e-26 2.1258642756e-26 1.6888944987e-26 9.0437183542e-26 0 
6.9091980065e-24 4.3790761421e-24 0 0 -2.2177926942e-22 -4.5854098905e-21 -1.5245625251e-23 0 -1.6726764296e-22 
2.7684701225e-25 2.2995943831e-23 1.6485048204e-26 0 4.4347787939e-26 0 4.2419269545e-27 -5.4061623911e-26 0 
0 3.9770669056e-26 1.7523065895e-25 -2.5138531859e-25 0 -6.0988808735e-27 4.7982957598e-26 -1.6814225068e-25 0 
-3.1113477754e-25 1.7401527082e-25 1.0344604221e-25 0 -6.4088487778e-24 1.8893729862e-23 -2.0654295431e-23 4.2712222903e-24 0 
1.4326905534e-20 0 -3.2969498687e-22 -8.572095811e-23 0 6.4249072249e-24 0 0 -3.3127622069e-25 
7.2469200096e-27 8.270595224e-25 2.8789463945e-25 1.5059497662e-25 1.2428114062e-25 -6.8743311433e-26 2.1367860549e-25 4.6601312096e-25 9.2812493031e-26 
1.2706286138e-25 -5.6525335126e-27 -9.2696086744e-28 -4.3146254173e-27 -7.7814225767e-27 3.430053251e-25 -6.358748912e-25 2.9803161055e-24 1.1286277936e-23 
1.6304686793e-23 -1.2489131467e-23 5.118856094e-24 0 4.9157800918e-21 0 0 -8.869565792e-23 0 
2.3739535164e-23 0 0 3.3717295596e-25 -1.5648978904e-26 0 5.7037256549e-26 -1.6135656778e-27 -4.7437657497e-27 
-3.5421826797e-26 3.8119479643e-25 1.4529383133e-25 3.9751731464e-25 -2.2738180966e-25 -1.0524538463e-26 -3.2466211504e-26 -1.0547267518e-26 -4.9519915021e-25 
2.1584245095e-26 1.3701996234e-25 3.235225463e-24 1.233681347e-23 -1.5534026487e-23 2.9783951503e-23 5.0553003318e-24 0 0 
0 0 0 0 6.6450313663e-24 0 0 4.4347787939e-26 -1.3553764339e-26 
0 4.1209551347e-26 9.2282378503e-26 -2.9538995204e-25 -1.8229885266e-25 3.5044815379e-25 1.8611265001e-25 3.914771546e-27 3.4252660979e-25 
-1.4487775651e-26 -1.596432112e-25 0 -1.8631403141e-25 4.1616110536e-25 0 3.5982781842e-24 1.3356147188e-23 -1.6918534173e-23 
-1.6176960746e-23 0 0 0 0 0 0 0 6.2633485115e-24 
0 0 5.2425723609e-26 7.2216764607e-27 0 -1.5386485437e-26 -2.1011522217e-25 5.4241528571e-25 -6.4530596984e-25 
3.0909922058e-25 3.6794193322e-25 3.8384536907e-25 3.0657747879e-26 1.4608141034e-25 9.2767034922e-26 9.8722491022e-27 -4.7424024995e-26 1.6472426429e-26 
1.954587782e-25 6.7155615463e-25 1.5691680339e-23 0 -2.051978518e-23 0 0 5.3071694036e-21 1.3939193905e-21 
0 -9.6408067e-23 0 6.3885565143e-24 0 0 -1.4217245664e-26 0 2.9887967547e-27 
2.6663444362e-25 -2.0931931082e-27 9.9227362001e-27 0 -1.6784938607e-26 -2.8727962377e-25 -2.7108332331e-25 -1.2618042185e-25 9.0896990842e-27 
1.0831706109e-25 2.2771702624e-26 -4.5586970092e-25 -4.2739349857e-25 -8.9137850745e-25 0 1.8320745477e-23 0 -8.8547244785e-23 
0 0 -5.4839820868e-21 0 0 9.9424166231e-23 0 6.7136938195e-24 0 
0 -1.0239592043e-24 1.4719010504e-26 0 -1.0555644235e-25 -2.167743915e-25 3.1678844504e-25 0 3.7342357974e-26 
-2.6081220641e-27 -1.9297411286e-26 -1.2417804636e-26 -2.8252560282e-27 6.666520529e-26 5.2526796412e-27 -1.201491858e-26 7.9492793584e-25 2.3069877255e-25 
4.9356285548e-25 2.2928652418e-23 3.3601817403e-23 -2.5673912034e-23 0 -5.4188276791e-22 5.8150393166e-21 -3.7251472915e-23 0 
0 6.7733692734e-25 6.7264930877e-24 1.8567640993e-26 0 -5.8068248449e-25 0 -5.2233931801e-27 -2.4843695096e-25 
0 -5.8657921975e-25 -2.6884690264e-25 -7.569021778e-26 -7.0641507986e-26 1.1595929902e-25 -5.4606924012e-26 8.2566619683e-26 0 
0 -2.7855395934e-25 6.7591722423e-25 3.0370311617e-25 0 2.4449323808e-23 1.5520492789e-23 0 0 
-5.6139244668e-22 6.024458991e-21 -3.8595515193e-23 0 0 3.6247313035e-25 7.1492720458e-24 2.3881408051e-26 0 
2.089357272e-25 0 -5.5515593167e-27 2.8232345722e-26 0 0 1.726860895e-26 -6.6602540152e-26 -3.8366151518e-25 
-4.0308820105e-26 0 2.1459038078e-25 3.1455483469e-25 1.3784999192e-25 -1.3761163267e-25 -9.4135215554e-25 3.3068847001e-25 6.1511054376e-24 
2.8254031508e-23 1.7876195535e-23 0 0 0 0 0 0 0 
0 7.9647641063e-24 0 0 -3.5421826797e-26 1.7690698838e-27 3.2352171799e-26 1.2178695965e-25 -6.5747365627e-26 
4.3167183639e-25 1.3421482226e-25 1.8081150473e-25 1.7763081756e-25 3.4237401451e-26 -1.8811803304e-25 7.751790989e-27 -1.497243207e-26 6.1389303556e-26 
-9.8187298202e-27 -1.2006034034e-24 -1.6374200427e-24 1.4279538066e-24 3.2520468962e-23 0 -3.9261771336e-23 0 0 
6.3402739639e-21 0 -4.3796658788e-22 1.1490250072e-22 0 7.4962438374e-24 0 0 -6.634813251e-25 
-8.4393818755e-27 0 -1.4776365622e-25 5.2508554004e-29 7.0197280689e-27 -1.2903496434e-25 4.2833668039e-27 -3.680050914e-26 2.5137545783e-27 
4.9623788281e-27 -1.3692603859e-26 8.222528943e-26 -2.3302803229e-26 -2.192301155e-26 6.2497727083e-26 4.5978397943e-25 -6.5533850562e-24 3.7299905819e-23 
0 -4.5071157612e-23 0 0 0 0 0 1.1986942141e-22 0 
8.0354460434e-24 0 0 -2.8129399374e-25 7.7194969957e-28 0 9.2084719543e-28 6.6789401579e-27 1.6050563338e-25 
2.4002572156e-25 -3.1972764216e-25 2.8683441039e-25 -7.9244529196e-27 -5.9640990575e-26 -2.927290256e-26 -1.7471543417e-26 -1.7461519954e-25 -2.1355031698e-26 
6.4233221075e-26 5.0967785396e-25 1.8633671609e-24 4.2812945452e-23 6.7805220133e-23 -1.1088636567e-22 0 -3.3664223874e-22 -6.9619825892e-21 
1.8290043767e-21 4.8702187171e-22 0 8.2732142422e-25 8.5266618405e-24 6.1331223672e-26 0 -3.529856728e-25 0 
8.3357773215e-26 0 0 0 1.0445529113e-26 0 3.9337535115e-25 3.5381397675e-26 1.483916388e-25 
0 7.4069601658e-26 0 -6.8667146913e-25 -1.4587186916e-24 5.6829337467e-25 0 4.9113583813e-23 1.0909652232e-22 
0 0 0 0 0 0 1.3080846092e-22 0 8.8235496421e-24 
0 0 -2.3787508951e-25 1.1253593851e-27 2.9917648438e-25 -3.400942558e-25 3.3594134687e-27 2.4183517126e-28 0 
4.4307013691e-26 2.8625637256e-25 1.8690782181e-25 -8.9412453226e-28 -1.2727777668e-27 7.3251207772e-26 3.9400150949e-27 -8.5330413586e-25 9.2057922924e-26 
-2.8860669488e-24 2.5006657982e-24 5.6560102592e-23 0 -6.8312053798e-23 0 -3.615420463e-22 9.4649733908e-23 1.965167676e-21 
0 -1.373031212e-22 9.0172678481e-25 9.1592020687e-24 6.5067268919e-26 0 -3.0451805879e-25 0 1.9326919615e-25 
0 0 3.529856728e-25 -1.9942946026e-26 -1.2844923512e-25 -2.3295752784e-25 -1.509159937e-25 -6.996505976e-26 0 
0 0 -1.2217589766e-24 2.0650824443e-24 7.4853231429e-25 0 6.5097369879e-23 4.1239543444e-23 0 
0 0 7.9737868449e-21 0 0 0 0 9.7136371787e-24 0 
0 -4.4386244908e-25 8.9256160159e-27 0 1.3330615311e-26 1.6476000955e-26 -3.2519163792e-26 0 -6.3189237622e-27 
-9.2462534612e-26 1.1078488917e-25 1.9585426868e-25 -1.1243979609e-26 -3.8981610935e-26 2.7959251937e-26 -7.4121143857e-25 1.1166584958e-25 8.7167039546e-25 
-1.4227928419e-23 8.7690737479e-23 -2.5611349053e-23 -1.9543443277e-22 0 0 -3.3143036575e-20 -2.2150517497e-21 0 
0 0 1.0568383747e-23 0 0 -4.7213522393e-25 1.1677162853e-26 -7.9557608368e-26 0 
-2.9640955476e-27 4.6427471804e-26 -3.9186073821e-25 -8.1869956896e-26 -1.6508822499e-25 1.3972762879e-25 -9.9321285753e-26 0 1.5663065001e-25 
-1.981295654e-25 -3.4412257401e-26 1.2761346164e-25 1.0018386571e-24 3.8258763883e-24 8.7230711665e-23 1.379235319e-22 -4.2080905251e-22 0 
0 0 0 0 -1.6266682946e-22 -5.5319442903e-25 1.1856781354e-23 0 0 
-3.1865444621e-25 6.4517482172e-27 0 -9.9766252607e-28 1.2636417714e-26 1.237136045e-26 -4.1710428718e-25 9.7053409258e-26 4.9078044446e-26 
8.9631805862e-26 1.0763795045e-25 -7.4266323846e-28 3.9513204578e-26 4.4304449893e-26 -3.2664141635e-26 3.2852735598e-24 1.160658544e-24 2.6660078096e-23 
1.014789785e-22 1.6036648582e-22 -1.2230941237e-22 0 -9.1131413009e-22 3.7733229815e-20 -2.541728113e-21 0 -1.7936796145e-22 
5.9276369203e-25 1.1188253291e-23 0 0 -2.2474844405e-25 -4.3630910592e-26 2.6768269185e-27 -7.3246721126e-26 0 
0 -2.0843652616e-25 -2.668647417e-25 2.1414615348e-25 2.1107649849e-25 9.0795918039e-26 0 1.7845167664e-25 0 
-6.2204147567e-25 3.8446769158e-24 1.3711139132e-24 0 1.1850065308e-22 2.6244604621e-22 0 0 0 
-1.0249321936e-20 2.6956909415e-21 0 -1.8607618216e-22 0 1.2277372012e-23 0 0 -1.7173699122e-25 
5.0507312495e-27 -2.0375586929e-25 -1.6982651802e-25 9.6450571615e-27 1.7292545948e-25 0 4.1391383786e-26 2.3897604351e-26 -3.3939236681e-25 
-6.5507551911e-26 1.3595672575e-26 1.414516843e-25 3.5645912598e-26 -2.5804362018e-24 -4.2748889158e-24 1.6067625414e-24 6.121878141e-24 1.3942889308e-22 
0 -1.6784453379e-22 0 0 -1.1080916333e-20 0 0 2.0127532299e-22 0 
1.3707671496e-23 9.1475805205e-26 0 -1.9344644333e-25 1.6049868155e-27 2.427423613e-26 1.805766214e-25 -1.0398970296e-25 -1.153180044e-25 
0 -1.7421117949e-26 2.4469030539e-25 4.0447314497e-26 -2.5855759264e-25 1.8448744864e-26 -7.4423553685e-26 4.6071498321e-26 -1.330698794e-24 
-5.1185283223e-24 -1.3768986548e-25 7.275357262e-24 1.6500945605e-22 0 -1.9854173694e-22 0 0 1.2660746484e-20 
0 0 2.3076382715e-22 0 1.5794808125e-23 0 0 -4.1256044836e-25 1.2169412058e-26 
0 -3.5794400872e-25 1.3557807251e-26 -4.3719849728e-25 0 5.3055456478e-25 2.0413654398e-25 2.0151944862e-27 -2.3393177106e-27 
-3.6646040314e-27 -3.0874926216e-25 -2.8758639205e-25 -3.1068557056e-24 3.0355468706e-25 2.3037179957e-24 8.6659865092e-24 1.970555861e-22 3.1098254987e-22 
-2.3674533657e-22 0 -6.3417363732e-22 1.3472121808e-20 -4.3792603411e-23 0 9.7353624712e-22 8.0104821456e-25 6.7982972583e-23 
5.7859224961e-26 0 -3.1562522033e-25 1.0858768968e-25 -1.1719472915e-25 -1.9218426588e-25 0 -1.1099075721e-25 -1.7806580039e-25 
0 2.793455073e-26 1.477556197e-25 -5.720227639e-27 0 1.4260139976e-26 -5.6339311863e-25 -2.059411619e-25 3.6160538335e-25 
2.7580009029e-24 0 2.3750935782e-22 1.4987762714e-22 0 0 0 1.4837083717e-20 0 
-4.1531135086e-21 2.7132362178e-22 -7.1854323252e-23 1.861198819e-23 0 0 -5.2741859616e-25 1.7185827858e-27 -1.9824764801e-25 
-3.9897340396e-25 3.149772204e-25 -1.9205928073e-27 -7.0361856796e-25 1.7392001586e-25 1.0580029898e-25 -1.4746191692e-25 1.7502560442e-25 -3.3806141055e-27 
-1.8831357194e-25 0 -2.3908614877e-24 4.5286394366e-25 3.3751173227e-24 1.2750411665e-23 6.7390506489e-23 0 -5.0683379149e-23 
1.925068248e-22 -7.9942002932e-22 0 -5.5380862824e-23 0 3.0783462882e-22 -8.0444494707e-23 2.1219135616e-23 7.4583076151e-26 
0 -5.3549653183e-25 0 1.0107526867e-27 -1.0997242407e-25 0 9.9762554822e-28 -1.2881837272e-25 2.4957291066e-25 
2.0918323231e-25 0 -1.9466819166e-25 0 -2.6371176327e-25 0 -5.8049335508e-24 5.6296999337e-25 4.1770038992e-24 
0 4.0161681137e-22 2.2586640195e-22 0 -2.143409548e-22 0 0 -5.1187410528e-21 1.3524146541e-21 
3.5692500119e-22 0 2.4665896103e-23 0 0 -2.674100418e-25 5.6818199737e-27 0 -1.3265401166e-25 
3.7696211394e-27 1.3644222033e-25 0 6.2440756535e-26 3.0564908811e-27 2.9690658643e-25 -8.2654232547e-26 1.7906008561e-26 -2.46041279e-26 
0 -3.563674702e-25 -1.6085145226e-23 5.3058007457e-24 1.501834476e-24 4.520388062e-22 0 -5.3854370272e-22 3.0413985678e-22 
0 0 0 0 -4.2437929813e-22 0 2.9562638154e-23 -1.1682815535e-25 0 
-7.0891971324e-25 1.2411247229e-25 0 -3.0578023623e-25 2.3109976041e-25 2.8172195078e-27 0 1.3105444826e-25 9.2431818341e-26 
0 2.8820766932e-25 0 0 0 -1.1188784195e-23 2.1122085214e-23 0 -1.2908510908e-22 
4.8553871224e-22 0 1.0469842713e-22 0 0 2.7935876458e-20 0 -8.3298331686e-21 0 
1.3943761472e-22 3.6714896038e-23 0 0 -6.7686040605e-25 0 -2.8172195078e-27 3.626985227e-26 -2.4477663636e-25 
3.6333552788e-25 0 1.0505359282e-25 1.556669085e-25 -2.7289154041e-25 -8.2131550568e-26 0 0 0 
-4.1777844771e-24 2.4467107888e-23 0 1.721067177e-22 6.4490219612e-22 1.2093253328e-21 0 0 0 
0 0 0 0 1.8161504121e-22 4.8491768938e-23 0 0 -1.0895924317e-24 
0 0 0 0 0 -3.2584885766e-25 2.3505787e-25 5.449628627e-25 -2.1722029513e-25 
0 2.0818483023e-25 5.5378957528e-25 0 0 3.4714063948e-23 0 2.3955878059e-22 8.9201321547e-22 
1.6634136627e-21 -2.4955120216e-21 -7.4310449885e-22 0 -4.8019143184e-20 1.2941915191e-20 1.5595060655e-20 0 -7.4157697699e-24 
7.038954108e-23 -5.8075417222e-25 0 -2.1033733582e-24 0 0 -6.7662017325e-27 2.8724890749e-25 1.2140487487e-24 
-3.4196429988e-25 0 2.584081528e-25 3.639666166e-25 0 3.7693795508e-25 2.9730297917e-24 4.2084668276e-24 0 
-5.6452382058e-23 -9.7653066214e-23 0 4.5430148646e-22 2.4188627114e-21 1.3529504232e-21 -5.5433288626e-22 0 0 
0 1.6498932432e-22 -2.1763271358e-21 -6.8010222994e-24 2.1709330943e-22 -6.784165821e-25 0 5.2464977327e-23 2.6232488664e-23 
0 4.0398010691e-26 3.3105780483e-26 1.5872331064e-24 -1.5297137079e-24 5.5403575707e-23 7.7699155613e-25 -5.7140495959e-23 -6.1280603453e-25 
9.699204574e-25 3.1319286634e-24 7.7938870721e-25 -1.3185539846e-24 1.0129860072e-22 0 1.2102570217e-22 8.8587075319e-22 3.8505382722e-21 
3.0895870386e-21 -1.8338840557e-21 0 -1.3021362173e-19 0 0 -1.6578436232e-21 0 -1.105658761e-21 
0 0 -1.3282914138e-21 0 6.6347877234e-22 2.448318298e-22 -6.6354026563e-22 0 -1.3272023061e-21 
0 6.6336956875e-22 -2.4314412185e-22 -6.6220387215e-22 0 6.5453720438e-22 -3.4357527849e-22 2.7981700946e-23 2.5958222237e-23 
0 0 4.1967751548e-21 7.4814608996e-21 1.1666538396e-21 -1.8880664053e-21 0 -3.047020599e-19 -9.6448109126e-20 
0 -1.966667789e-20 0 1.5050504393e-20 2.1704926448e-21 0 1.4838915793e-20 0 7.4320554373e-21 
-7.4320554373e-21 -3.4877320896e-19 -1.4873066074e-20 7.4363351276e-21 -7.4359990855e-21 -7.4347284262e-21 6.9956484201e-19 1.485749343e-20 -3.7097204665e-21 
-3.7100136955e-21 3.6803555547e-21 3.4746641869e-19 -1.6874372162e-22 0 0 -8.3041682745e-20 0 -2.6084264969e-20 
1.724474314e-20 0.0003205401008 0.00021516739798 0.00019987483392 0.00019266425807 0.00019018392777 0.00018918733986 0.00018894670939 0.00018901193107 
0.00018919064314 0.00018938459107 0.00018955270934 0.00018968203221 0.00018977318541 0.00018983181508 0.00018986406212 0.00018987427757 0.00018986413488 
0.0001898323826 0.00018977522268 0.00018968746008 0.00018956487474 0.00018940916925 0.0001892367145 0.00018909326172 0.00018908265338 0.00018940292648 
0.00019050521951 0.00019311354845 0.00020041990501 0.00021574365383 0.00031968546682 0.0091360779479 0.0071209683083 0.0065420987085 0.0063107889146 
0.0062165055424 0.0061780796386 0.0061657405458 0.0061650183052 0.006168927066 0.006174004171 0.0061786910519 0.0061824177392 0.0061851004139 
0.0061868513003 0.0061878240667 0.0061881351285 0.0061878301203 0.0061868769117 0.006185177248 0.0061826054007 0.0061790933833 0.0061747939326 
0.0061703752726 0.0061675282195 0.0061698667705 0.0061845034361 0.006225889083 0.0063234209083 0.006556768436 0.0071324957535 0.0091179404408 
0.024835301563 0.021930629387 0.020538209006 0.019888870418 0.019586402923 0.019451217726 0.019398353994 0.019385036081 0.01938909106 
0.01939919591 0.019409911707 0.019418986514 0.019425759092 0.01943028532 0.019432839006 0.019433666021 0.019432870671 0.019430387765 
0.019426021725 0.019419573247 0.0194111038 0.019401447847 0.01939310506 0.019391819835 0.019409246743 0.019467735663 0.019609767944 
0.019918771461 0.020570039749 0.021949443966 0.024803882465 0.045409537852 0.042378295213 0.040573339909 0.039583083242 0.039068609476 
0.038818255067 0.038709662855 0.038673568517 0.038671500981 0.038682896644 0.038697488606 0.038710683584 0.038720883429 0.038727838546 
0.038731817156 0.038733117282 0.038731887937 0.038728039712 0.038721363991 0.038711711764 0.038699503988 0.038686610758 0.038677975535 
0.038684312254 0.0387266092 0.038843464106 0.039103463292 0.039626274258 0.040616970509 0.04240142554 0.045370478183 0.069637611508 
0.066914625466 0.065091595054 0.06397767365 0.063349381089 0.063023649156 0.06287305057 0.062816694379 0.062806561589 0.062815971673 
0.062831178308 0.062845826149 0.062857463956 0.062865532935 0.062870196998 0.062871731818 0.062870293856 0.062865816057 0.062858089805 
0.062847115099 0.062833666801 0.062820479274 0.062814287841 0.062829330564 0.062892727554 0.06305257231 0.063388943672 0.064026154578 
0.065139904618 0.066939748824 0.069595716894 0.096462912858 0.094302542508 0.09273467958 0.091709420085 0.091101534665 0.090774543583 
0.090618111193 0.090556263924 0.090541921556 0.090548291802 0.090561382473 0.090574599802 0.090585313737 0.090592831373 0.090597197413 
0.090598642826 0.090597301722 0.090593114495 0.090585947037 0.090575866401 0.09056378901 0.090552575886 0.090549170971 0.090567968786 
0.090636149049 0.090800888836 0.091137520969 0.091753840446 0.092779867351 0.094327218831 0.096422769129 0.12491715699 0.12345091999 
0.12230220437 0.12152734399 0.12106152624 0.12080893666 0.12068711966 0.12063810974 0.12062577158 0.12062955648 0.12063873559 
0.12064823508 0.12065602839 0.12066152692 0.12066473067 0.120665811 0.12066482008 0.12066175789 0.12065652013 0.12064920366 
0.12064052373 0.12063270807 0.12063102424 0.12064647675 0.12069984525 0.12082734704 0.12108664215 0.12155885249 0.1223359704 
0.12347208709 0.12488391995 0.15408447385 0.15333847702 0.15269939601 0.1522847712 0.15204189718 0.15191288292 0.15185141563 
0.15182676911 0.15182042122 0.15182210505 0.15182650089 0.15183112025 0.15183492005 0.15183761716 0.15183921158 0.15183973312 
0.15183925629 0.15183775127 0.15183518827 0.15183161199 0.15182740986 0.15182366967 0.15182298422 0.15183074772 0.15185728669 
0.15192112327 0.15205283463 0.15229836106 0.152714625 0.15335160494 0.15406486392 0.18302989006 0.18298070133 0.18293789029 
0.18291218579 0.18289755285 0.18288995326 0.18288637698 0.18288494647 0.18288457394 0.18288464844 0.18288490176 0.18288515508 
0.1828853786 0.18288554251 0.18288563192 0.18288566172 0.18288563192 0.18288554251 0.1828853935 0.18288518488 0.18288496137 
0.18288475275 0.18288472295 0.18288516998 0.1828867048 0.18289038539 0.18289808929 0.18291281164 0.18293853104 0.18298150599 
0.18302872777 0.21054698527 0.21154856682 0.21204164624 0.21229381859 0.21241535246 0.21247290075 0.21249940991 0.2125107348 
0.21251453459 0.21251475811 0.21251344681 0.21251174808 0.21251016855 0.21250899136 0.2125082612 0.21250800788 0.2125082165 
0.21250890195 0.21250998974 0.21251142025 0.21251291037 0.21251387894 0.21251325309 0.21250899136 0.21249739826 0.21247118711 
0.21241514385 0.21229703724 0.21204994619 0.21156109869 0.2105346173 0.23574972153 0.23760160804 0.23849102855 0.23887374997 
0.23903052509 0.2390948385 0.23912186921 0.23913304508 0.23913682997 0.23913699389 0.23913553357 0.23913355172 0.23913168907 
0.23913022876 0.23912933469 0.23912900686 0.23912927508 0.23913010955 0.23913145065 0.23913310468 0.23913478851 0.23913583159 
0.23913516104 0.23913100362 0.23911997676 0.23909443617 0.23903417587 0.23888500035 0.23851183057 0.2376229167 0.23572807014 
0.25745421648 0.25968518853 0.26059916615 0.26092666388 0.26103678346 0.26107338071 0.2610861659 0.26109090447 0.26109224558 
0.26109191775 0.26109072566 0.26108926535 0.26108789444 0.26108682156 0.2610861361 0.26108589768 0.2610861063 0.26108673215 
0.26108768582 0.26108890772 0.26109012961 0.26109102368 0.26109099388 0.26108947396 0.26108518243 0.26107424498 0.26104217768 
0.26094025373 0.26062259078 0.2597078979 0.25743114948 0.27425262332 0.27606895566 0.27653646469 0.27667406201 0.2767085731 
0.27671647072 0.27671787143 0.27671810985 0.27671793103 0.2767175138 0.27671691775 0.2767162323 0.27671563625 0.27671515942 
0.27671486139 0.27671477199 0.27671483159 0.27671512961 0.27671554685 0.27671608329 0.27671664953 0.27671709657 0.27671736479 
0.2767174542 0.2767175138 0.27671715617 0.27671179175 0.27668198943 0.2765506506 0.27608537674 0.27423596382 0.28408262134 
0.28434795141 0.28437697887 0.28438726068 0.28438851237 0.28438860178 0.28438842297 0.28438833356 0.28438827395 0.28438824415 
0.28438818455 0.28438812494 0.28438806534 0.28438803554 0.28438800573 0.28438800573 0.28438800573 0.28438803554 0.28438806534 
0.28438809514 0.28438815475 0.28438821435 0.28438824415 0.28438827395 0.28438839316 0.28438866138 0.2843888104 0.28438803554 
0.28437840939 0.28435018659 0.28408035636 0.28499999642 0.28499999642 0.28499999642 0.28499999642 0.28499999642 0.28499999642 
0.28499999642 0.28499999642 0.28499999642 0.28499999642 0.28499999642 0.28499999642 0.28499999642 0.28499999642 0.28499999642 
0.28499999642 0.28499999642 0.28499999642 0.28499999642 0.28499999642 0.28499999642 0.28499999642 0.28499999642 0.28499999642 
0.28499999642 0.28499999642 0.28499999642 0.28499999642 0.28499999642 0.28499999642 0.28499999642 0.28499999642 0.28499999642 
0.28499999642 0.28499999642 0.28499999642 0.28499999642 0.28499999642 0.28499999642 0.28499999642 0.28499999642 0.28499999642 
0.28499999642 0.28499999642 0.28499999642 0.28499999642 0.28499999642 0.28499999642 0.28499999642 0.28499999642 0.28499999642 
0.28499999642 0.28499999642 0.28499999642 0.28499999642 0.28499999642 0.28499999642 0.28499999642 0.28499999642 0.28499999642 
0.28499999642 0.28499999642 0.28499999642 0.28499999642 0.28499999642 0.28499999642 0.28499999642 0.28499999642 0.28499999642 
0.28499999642 0.28499999642 0.28499999642 0.28499999642 0.28499999642 0.28499999642 0.28499999642 0.28499999642 0.28499999642 
0.28499999642 0.28499999642 0.28499999642 0.28499999642 0.28499999642 0.28499999642 0.28499999642 0.28499999642 0.28499999642 
0.28499999642 0.28499999642 0.28499999642 0.28499999642 0.28499999642 0.28499999642 0.28499999642 0.28499999642 0.28499999642 
0.28499999642 0.28499999642 0.28499999642 0.28499999642 0.28499999642 0.28499999642 0.28499999642 0.28499999642 0.28499999642 
0.28499999642 0.28499999642 0.28499999642 0.28499999642 0.28499999642 0.28499999642 0.28499999642 0.28499999642 0.28499999642 
0.28499999642 0.28499999642 0.28499999642 0.28499999642 0.28499999642 0.28499999642 0.28499999642 0.28499999642 0.28499999642 
0.28499999642 0.28499999642 0.28499999642 0.28499999642 0.28499999642 0.28499999642 0.28499999642 0.28499999642 0.28499999642 
0.28499999642 0.28499999642 0.28499999642 0.28499999642 0.28499999642 0.28499999642 0.28499999642 0.28499999642 0.28499999642 
0.28499999642 0.28499999642 0.28499999642 0.28499999642 0.28499999642 0.28499999642 0.28499999642 0.28499999642 0.28499999642 
0.28499999642 0.28499999642 0.28499999642 0.28499999642 0.28499999642 0.28499999642 0.28499999642 0.28499999642 0.28499999642 
0.28499999642 0.28499999642 0.28499999642 0.28499999642 0.28499999642 0.28499999642 0.28499999642 0.28499999642 0.28499999642 
0.28499999642 0.28499999642 0.28499999642 0.28499999642 0.28499999642 0.28499999642 0.28499999642 0.28499999642 0.28499999642 
0.28499999642 0.28499999642 0.28499999642 0.28499999642 0.28499999642 0.28499999642 0.28499999642 0.28499999642 0.28499999642 
0.28499999642 0.28499999642 0.28499999642 0.28499999642 0.28499999642 0.28499999642 0.28499999642 0.28499999642 0.28499999642 
0.28499999642 0.28499999642 0.28499999642 0.28499999642 0.28499999642 0.28499999642 0.28499999642 0.28499999642 0.28499999642 
0.28499999642 0.28499999642 0.28499999642 0.28499999642 0.28499999642 0.28499999642 0.28499999642 0.28499999642 0.28499999642 
0.28499999642 0.28499999642 0.28499999642 0.28499999642 0.28499999642 0.28499999642 0.28499999642 0.28499999642 0.28499999642 
0.28499999642 0.28499999642 0.28499999642 0.28499999642 0.28499999642 0.28499999642 0.28499999642 0.28499999642 0.28499999642 
0.28499999642 0.28499999642 0.28499999642 0.28499999642 0.28499999642 0.28499999642 0.28499999642 0.28499999642 0.28499999642 
0.28499999642 0.28499999642 0.28499999642 0.28499999642 0.28499999642 0.28499999642 0.28499999642 0.28499999642 0.28499999642 
0.28499999642 0.28499999642 0.28499999642 0.28499999642 0.28499999642 0.28499999642 0.28499999642 0.28499999642 0.28499999642 
0.28499999642 0.28499999642 0.28499999642 0.28499999642 0.28499999642 0.28499999642 0.28499999642 0.28499999642 0.28499999642 
0.28499999642 0.28499999642 0.28499999642 0.28499999642 0.28499999642 0.28499999642 0.28499999642 0.28499999642 0.28499999642 
0.28499999642 0.28499999642 0.28499999642 0.28499999642 0.28499999642 0.28499999642 0.28499999642 0.28499999642 0.28499999642 
0.28499999642 0.28499999642 0.28499999642 0.28499999642 0.28499999642 0.28499999642 0.28499999642 0.28499999642 0.28499999642 
0.28499999642 0.28499999642 0.28499999642 0.28499999642 0.28499999642 0.28499999642 0.28499999642 0.28499999642 0.28499999642 
0.28499999642 0.28499999642 0.28499999642 0.28499999642 0.28499999642 0.28499999642 0.28499999642 0.28499999642 0.28499999642 
0.28499999642 0.28499999642 0.28499999642 0.28499999642 0.28499999642 0.28499999642 0.28499999642 0.28499999642 0.28499999642 
0.28499999642 0.28499999642 0.28499999642 0.28499999642 0.28499999642 0.28499999642 0.28499999642 0.28499999642 0.28499999642 
0.28499999642 0.28499999642 0.28499999642 0.28499999642 0.28499999642 0.28499999642 0.28499999642 0.28499999642 0.28499999642 
0.28499999642 0.28499999642 0.28499999642 0.28499999642 0.28499999642 0.28499999642 0.28499999642 0.28499999642 0.28499999642 
0.28499999642 0.28499999642 0.28499999642 0.28499999642 0.28499999642 0.28499999642 0.28499999642 0.28499999642 0.28499999642 
0.28499999642 0.28499999642 0.28499999642 0.28499999642 0.28499999642 0.28499999642 0.28499999642 0.28499999642 0.28499999642 
0.28499999642 0.28499999642 0.28499999642 0.28499999642 0.28499999642 0.28499999642 0.28499999642 0.28499999642 0.28499999642 
0.28499999642 0.28499999642 0.28499999642 0.28499999642 0.28499999642 0.28499999642 0.28499999642 0.28499999642 0.28499999642 
0.28499999642 0.28499999642 0.28499999642 0.28499999642 0.28499999642 0.28499999642 0.28499999642 0.28499999642 0.28499999642 
0.28499999642 0.28499999642 0.28499999642 0.28499999642 0.28499999642 0.28499999642 0.28499999642 0.28499999642 0.28499999642 
0.28499999642 0.28499999642 0.28499999642 0.28499999642 0.28499999642 0.28499999642 0.28499999642 0.28499999642 0.28499999642 
0.28499999642 0.28499999642 0.28499999642 0.28499999642 0.28499999642 0.28499999642 0.28499999642 0.28499999642 0.28499999642 
0.28499999642 0.28499999642 0.28499999642 0.28499999642 0.28499999642 0.28499999642 0.28499999642 0.28499999642 0.28499999642 
0.28499999642 0.28499999642 0.28499999642 0.28499999642 0.28499999642 0.28499999642 0.28499999642 0.28499999642 0.28499999642 
0.28499999642 0.28499999642 0.28499999642 0.28499999642 0.28499999642 0.28499999642 0.28499999642 0.28499999642 0.28499999642 
0.28499999642 0.28499999642 0.28499999642 0.28499999642 0.28499999642 0.28499999642 0.28499999642 0.28499999642 0.28499999642 
0.28499999642 0.28499999642 0.28499999642 0.28499999642 0.28499999642 0.28499999642 0.28499999642 0.28499999642 0.28499999642 
0.28499999642 0.28499999642 0.28499999642 0.28499999642 0.28499999642 0.28499999642 0.28499999642 0.28499999642 0.28499999642 
0.28499999642 0.28499999642 0.28499999642 0.28499999642 0.28499999642 0.28499999642 0.28499999642 0.28499999642 0.28499999642 
0.28499999642 0.28499999642 0.28499999642 0.28499999642 0.28499999642 0.28499999642 0.28499999642 0.28499999642 0.28499999642 
0.28499999642 0.28499999642 0.28499999642 0.28499999642 0.28499999642 0.28499999642 0.28499999642 0.28499999642 0.28499999642 
0.28499999642 0.28499999642 0.28499999642 0.28499999642 0.28499999642 0.28499999642 0.28499999642 0.28499999642 0.28499999642 
0.28499999642 0.28499999642 0.28499999642 0.28499999642 0.28499999642 0.28499999642 0.28499999642 0.28499999642 0.28499999642 
0.28499999642 0.28499999642 0.28499999642 0.28499999642 0.28499999642 0.28499999642 0.28499999642 0.28499999642 0.28499999642 
0.28499999642 0.28499999642 0.28499999642 0.28499999642 0.28499999642 0.28499999642 0.28499999642 0.28499999642 0.28499999642 
0.28499999642 0.28499999642 0.28499999642 0.28499999642 0.28499999642 0.28499999642 0.28499999642 0.28499999642 0.28499999642 
0.28499999642 0.28499999642 0.28499999642 0.28499999642 0.28499999642 0.28499999642 0.28499999642 0.28499999642 0.28499999642 
0.28499999642 0.28499999642 0.28499999642 0.28499999642 0.28499999642 0.28499999642 0.28499999642 0.28499999642 0.28499999642 
0.28499999642 0.28499999642 0.28499999642 0.28499999642 0.28499999642 0.28499999642 0.28499999642 0.28499999642 0.28499999642 
0.28499999642 0.28499999642 0.28499999642 0.28499999642 0.28499999642 0.28499999642 0.28499999642 0.28499999642 0.28499999642 
0.28499999642 0.28499999642 0.28499999642 0.28499999642 0.28499999642 0.28499999642 0.28499999642 0.28499999642 0.28499999642 
0.28499999642 0.28499999642 0.28499999642 0.28499999642 0.28499999642 0.28499999642 0.28499999642 0.28499999642 0.28499999642 
0.28499999642 0.28499999642 0.28499999642 0.28499999642 0.28499999642 0.28499999642 0.28499999642 0.28499999642 0.28499999642 
0.28499999642 0.28499999642 0.28499999642 0.28499999642 0.28499999642 0.28499999642 0.28499999642 0.28499999642 0.28499999642 
0.28499999642 0.28499999642 0.28499999642 0.28499999642 0.28499999642 0.28499999642 0.28499999642 0.28499999642 0.28499999642 
0.28499999642 0.28499999642 0.28499999642 0.28499999642 0.28499999642 0.28499999642 0.28499999642 0.28499999642 0.28499999642 
0.28499999642 0.28499999642 0.28499999642 0.28499999642 0.28499999642 0.28499999642 0.28499999642 0.28499999642 0.28499999642 
0.28499999642 0.28499999642 0.28499999642 0.28499999642 0.28499999642 0.28499999642 0.28499999642 0.28499999642 0.28499999642 
0.28499999642 0.28499999642 0.28499999642 0.28499999642 0.28499999642 0.28499999642 0.28499999642 0.28499999642 0.28499999642 
0.28499999642 0.28499999642 0.28499999642 0.28499999642 0.28499999642 0.28499999642 0.28499999642 0.28499999642 0.28499999642 
0.28499999642 0.28499999642 0.28499999642 0.28499999642 0.28499999642 0.28499999642 0.28499999642 0.28499999642 0.28499999642 
0.28499999642 0.28499999642 0.28499999642 0.28499999642 0.28499999642 0.28499999642 0.28499999642 0.28499999642 0.28499999642 
0.28499999642 0.28499999642 0.28499999642 0.28499999642 0.28499999642 0.28499999642 0.28499999642 0.28499999642 0.28499999642 
0.28499999642 0.28499999642 0.28499999642 0.28499999642 0.28499999642 0.28499999642 0.28499999642 0.28499999642 0.28499999642 
0.28499999642 0.28499999642 0.28499999642 0.28499999642 0.28499999642 0.28499999642 0.28499999642 0.28499999642 0.28499999642 
0.28499999642 0.28499999642 0.28499999642 0.28499999642 0.28499999642 0.28499999642 0.28499999642 0.28499999642 0.28499999642 
0.28499999642 0.28499999642 0.28499999642 0.28499999642 0.28499999642 0.28499999642 0.28499999642 0.28499999642 0.28499999642 
0.28499999642 0.28499999642 0.28499999642 0.28499999642 0.28499999642 0.28499999642 0.28499999642 0.28499999642 0.28499999642 
0.27990657091 0.27893334627 0.28071549535 0.28887486458 0.29286155105 0.30168020725 0.30096757412 0.29441973567 0.27950152755 
0.27230417728 0.27316105366 0.27740830183 0.2799936831 0.25430217385 0.28800538182 0.29098933935 0.2906678915 0.29171916842 
0.29219472408 0.28930079937 0.28777638078 0.28728297353 0.28637433052 0.2870631218 0.28786891699 0.27797797322 0.26317596436 
0.24845406413 0.23866352439 0.23708228767 0.23791398108 0.27237764001 0.27014613152 0.27683457732 0.29495880008 0.30174824595 
0.32351973653 0.32393208146 0.30344375968 0.28054341674 0.26378571987 0.25738888979 0.25809371471 0.25678256154 0.24727798998 
0.29190677404 0.29644671082 0.29692569375 0.29997369647 0.29960340261 0.29486334324 0.29166731238 0.2905678153 0.28844082355 
0.28913059831 0.29000130296 0.26963981986 0.23936367035 0.21294911206 0.19005088508 0.18974556029 0.18600000441 0.2729190588 
0.2786385119 0.27327784896 0.28967416286 0.29307040572 0.31341353059 0.32298380136 0.29806739092 0.2881989181 0.27216047049 
0.26299625635 0.25718006492 0.24587032199 0.27999681234 0.2905266881 0.29089611769 0.29236537218 0.29631349444 0.29844668508 
0.29391434789 0.29078990221 0.28885343671 0.28738254309 0.28797096014 0.28877526522 0.2725828886 0.24036888778 0.21391957998 
0.19112594426 0.1853672266 0.16584977508 0.28823933005 0.29895308614 0.31163138151 0.30830979347 0.31160709262 0.32134434581 
0.32490700483 0.30518555641 0.28746902943 0.28446099162 0.28324249387 0.27796682715 0.25983339548 0.2720927 0.28371331096 
0.28790611029 0.28920689225 0.29497241974 0.29957312346 0.2940107286 0.29111525416 0.28864860535 0.28709620237 0.28796824813 
0.28875556588 0.27337059379 0.24195733666 0.21299999952 0.19589003921 0.1867800802 0.18967011571 0.30825021863 0.31677186489 
0.34621527791 0.34155774117 0.35073760152 0.3508683145 0.34208014607 0.33904531598 0.31425765157 0.3154079318 0.3150382638 
0.30451905727 0.27840489149 0.28380990028 0.28030446172 0.2821713686 0.28354346752 0.29114606977 0.29570394754 0.29189309478 
0.29041272402 0.28711462021 0.28654551506 0.28540986776 0.28615909815 0.27432796359 0.24430336058 0.21872100234 0.2047445029 
0.19988401234 0.19572100043 0.34258010983 0.35268735886 0.357853055 0.36909076571 0.37809610367 0.38393646479 0.37674027681 
0.38598793745 0.35171100497 0.34431576729 0.34684243798 0.33798491955 0.31162300706 0.30328255892 0.28327840567 0.27683901787 
0.2781766057 0.28450393677 0.29460832477 0.29284968972 0.28948226571 0.28348711133 0.28520387411 0.28229746222 0.28402370214 
0.27407121658 0.24770265818 0.23247866333 0.22614058852 0.22229540348 0.21781674027 0.38953652978 0.39399546385 0.40161037445 
0.39916616678 0.40172827244 0.41339176893 0.40808910131 0.39973914623 0.36476701498 0.36616283655 0.38184085488 0.37549069524 
0.35313898325 0.32282453775 0.29796901345 0.27732184529 0.2769125402 0.2830119431 0.29178279638 0.28676956892 0.28867071867 
0.28372687101 0.280806005 0.27755281329 0.27756977081 0.27300858498 0.25791588426 0.25301426649 0.24480855465 0.2408156842 
0.24763849378 0.41601037979 0.42018529773 0.43039792776 0.42737486959 0.43269595504 0.44059550762 0.43978622556 0.41436335444 
0.40289881825 0.39917352796 0.40710419416 0.40110942721 0.37601453066 0.35257524252 0.31968212128 0.28167805076 0.27373114228 
0.26815894246 0.28801307082 0.28311407566 0.28430464864 0.27910125256 0.27559736371 0.26928588748 0.26721668243 0.27266949415 
0.26889437437 0.27049076557 0.26371890306 0.26475578547 0.26403453946 0.44501143694 0.45189070702 0.46535912156 0.46074426174 
0.46578788757 0.47065442801 0.46851572394 0.45976266265 0.45253109932 0.43865069747 0.42189109325 0.4215478003 0.3986133337 
0.36655929685 0.33437231183 0.30544322729 0.28796580434 0.26963424683 0.28994569182 0.27376845479 0.27622011304 0.27095130086 
0.27066233754 0.26304021478 0.26565590501 0.27190563083 0.27269548178 0.29165056348 0.28965058923 0.28045409918 0.28313526511 
0.46113058925 0.4729052186 0.47495925426 0.47536635399 0.48092606664 0.48177820444 0.480186373 0.47449710965 0.45927932858 
0.43540894985 0.43630075455 0.43865439296 0.41341573 0.37455877662 0.34609699249 0.34021574259 0.3175342679 0.30256837606 
0.29380935431 0.25996118784 0.27590373158 0.2736517489 0.26845040917 0.2684750855 0.27266278863 0.27910903096 0.28690752387 
0.30727687478 0.30455377698 0.29841533303 0.27926656604 0.46850118041 0.47396197915 0.47055533528 0.46991625428 0.47462829947 
0.46732464433 0.47055262327 0.46262344718 0.44727811217 0.43087866902 0.44603252411 0.44794929028 0.42321929336 0.39429408312 
0.3737129271 0.36341828108 0.33232802153 0.30981323123 0.29911959171 0.2781842649 0.27902492881 0.28080695868 0.28171214461 
0.28435868025 0.28866657615 0.29525923729 0.29628768563 0.3214662075 0.32551604509 0.3174661994 0.31529897451 0.47244098783 
0.46395149827 0.45553794503 0.45814660192 0.4625017345 0.4491237402 0.4654070735 0.45113649964 0.43874484301 0.42629253864 
0.44546550512 0.44756430387 0.42285722494 0.41585400701 0.40927320719 0.38303735852 0.34410893917 0.32338899374 0.31180536747 
0.29245012999 0.29433760047 0.29900708795 0.30629557371 0.30743056536 0.30791839957 0.30614328384 0.31474879384 0.33792242408 
0.34457617998 0.33719113469 0.3126565218 0.4703541398 0.45303267241 0.44002065063 0.4453689754 0.45093128085 0.4512232244 
0.45616543293 0.44254750013 0.43379157782 0.41487684846 0.44529533386 0.44775345922 0.42745247483 0.42927744985 0.42630457878 
0.39652055502 0.35658812523 0.3341460228 0.32675847411 0.32943230867 0.3299216032 0.33765432239 0.3435857296 0.34470623732 
0.33832135797 0.32341009378 0.33084008098 0.35499361157 0.36399361491 0.36061781645 0.36111462116 0.46354147792 0.44421935081 
0.43583184481 0.43065369129 0.43613344431 0.43485745788 0.44094374776 0.42755043507 0.42422959208 0.43093135953 0.44648042321 
0.44857144356 0.43950986862 0.43823939562 0.43456503749 0.4141485393 0.37428948283 0.35380005836 0.34888643026 0.35204690695 
0.37132319808 0.37255564332 0.37878623605 0.38204970956 0.3717481792 0.36302322149 0.35272073746 0.37235197425 0.38235199451 
0.37854129076 0.38332530856 0.45156291127 0.42322549224 0.42088410258 0.41423812509 0.42216274142 0.41975879669 0.42092531919 
0.41598543525 0.42022719979 0.42696073651 0.44637605548 0.4508985877 0.44296038151 0.44221463799 0.44261446595 0.43216410279 
0.39594593644 0.3819539845 0.37935391068 0.38678902388 0.39934191108 0.39685502648 0.39560616016 0.40220168233 0.39970505238 
0.38719117641 0.38622888923 0.38656511903 0.40091177821 0.40208613873 0.40156513453 0.43699064851 0.39426088333 0.39968633652 
0.39536872506 0.40760311484 0.40737122297 0.4172360003 0.40910840034 0.41747248173 0.42397809029 0.44455033541 0.4523255229 
0.44291681051 0.44158008695 0.44212457538 0.44243702292 0.42035150528 0.41407191753 0.41418501735 0.41768881679 0.4163043201 
0.40205994248 0.39587655663 0.40115863085 0.41728460789 0.41180464625 0.41234412789 0.41003385186 0.4274982512 0.42014235258 
0.42056944966 0.42416444421 0.38795933127 0.37856698036 0.37806668878 0.38732922077 0.3910368681 0.40482729673 0.39815187454 
0.40693432093 0.41718736291 0.44361826777 0.44903492928 0.44491910934 0.44097083807 0.44200778008 0.45142811537 0.44497177005 
0.44520813227 0.43839895725 0.43467131257 0.4171333611 0.40098831058 0.39580625296 0.4007268846 0.41612896323 0.43603092432 
0.44429093599 0.4406028986 0.44850605726 0.42649394274 0.42192736268 0.40714111924 0.3808811307 0.36417672038 0.35919064283 
0.36805686355 0.37617293 0.39788228273 0.38920152187 0.39354002476 0.41739878058 0.44415447116 0.44585686922 0.44065466523 
0.43848305941 0.44101846218 0.4550088048 0.46157580614 0.45783236623 0.44292917848 0.43507164717 0.41687679291 0.40075206757 
0.39440110326 0.40024369955 0.41340190172 0.43063795567 0.43853503466 0.45899999142 0.44704699516 0.42652347684 0.41452348232 
0.38964650035 0.36855643988 0.33727285266 0.3382165134 0.35343310237 0.35971295834 0.37128272653 0.38055834174 0.39129537344 
0.41507008672 0.44460970163 0.4412651062 0.43014368415 0.43132063746 0.43868762255 0.45386967063 0.46578136086 0.45805203915 
0.44925311208 0.43434566259 0.41526931524 0.39999610186 0.39182880521 0.39744609594 0.40573528409 0.42123037577 0.42735376954 
0.45655301213 0.44665905833 0.42455303669 0.41455301642 0.37961629033 0.34997776151 0.32190617919 0.32380235195 0.33770161867 
0.3424269855 0.33374238014 0.36775699258 0.3829588294 0.41282129288 0.44075316191 0.4277818203 0.42016077042 0.42229521275 
0.4317689538 0.44983422756 0.45624992251 0.45274576545 0.43654620647 0.43357118964 0.41135177016 0.39718979597 0.3881585598 
0.38680809736 0.39906734228 0.40991330147 0.42264401913 0.45207792521 0.43924301863 0.41891279817 0.41016513109 0.36274033785 
0.32747805119 0.30581283569 0.29743340611 0.32132688165 0.32801139355 0.33891314268 0.35911896825 0.37644839287 0.40342494845 
0.42637965083 0.41514891386 0.40636718273 0.40795913339 0.42390915751 0.436334759 0.44246780872 0.43762072921 0.43926820159 
0.43603330851 0.40944904089 0.39093869925 0.37984672189 0.37989616394 0.38820421696 0.39787358046 0.40868276358 0.43850886822 
0.42850887775 0.41167259216 0.398612082 0.33900398016 0.30553689599 0.28989619017 0.27333918214 0.30227264762 0.31190955639 
0.33059999347 0.34429311752 0.36667409539 0.39013800025 0.4010309279 0.39260259271 0.38734686375 0.39123177528 0.41238132119 
0.41279682517 0.42453688383 0.41793102026 0.41939663887 0.42522367835 0.40734425187 0.38756683469 0.37151956558 0.36767876148 
0.37147182226 0.38016110659 0.39052692056 0.42069962621 0.40834122896 0.39484980702 0.39177471399 0.32674387097 0.30098795891 
0.26647010446 0.25414279103 0.28227758408 0.2976436615 0.32277157903 0.33566665649 0.35034677386 0.37340781093 0.37149620056 
0.35505858064 0.35736727715 0.37211298943 0.39258471131 0.38244870305 0.39084690809 0.38242247701 0.39525485039 0.3996540308 
0.39203438163 0.37151092291 0.35501366854 0.35227975249 0.35237410665 0.36084127426 0.37784782052 0.39740991592 0.38472521305 
0.37505406141 0.38416218758 0.31683894992 0.28058108687 0.2443318218 0.24146950245 0.26886555552 0.27780404687 0.30698233843 
0.3176291883 0.32723304629 0.34409081936 0.33880099654 0.31881684065 0.33149829507 0.34370231628 0.35227137804 0.35592740774 
0.34932279587 0.35406026244 0.36149096489 0.3678638041 0.36714747548 0.35429793596 0.33599680662 0.32826021314 0.33377477527 
0.33973962069 0.36622458696 0.37180989981 0.35300707817 0.35031348467 0.34970778227 0.30302977562 0.26400223374 0.24145504832 
0.22406968474 0.23779380322 0.26592487097 0.28371483088 0.28171423078 0.30919113755 0.32537701726 0.30406576395 0.28744164109 
0.28548136353 0.30829373002 0.31699642539 0.31754249334 0.31466624141 0.31740245223 0.33188256621 0.34117564559 0.33922660351 
0.3250335753 0.31073129177 0.30224916339 0.30903127789 0.31531092525 0.3295968473 0.33557221293 0.32287469506 0.32160493731 
0.31441420317 0.28762823343 0.26128065586 0.22613292933 0.20906899869 0.22403408587 0.24690246582 0.24925227463 0.27559924126 
0.28680631518 0.27853602171 0.26896038651 0.26829022169 0.24272157252 0.27707788348 0.28638678789 0.28490167856 0.29048195481 
0.27412071824 0.30165222287 0.31083673239 0.30241036415 0.28571754694 0.27070435882 0.26839444041 0.28988543153 0.28542006016 
0.29490333796 0.31835761666 0.28991633654 0.28375980258 0.27707827091 0.26680967212 0.24784772098 0.20749762654 0.19461004436 
0.20990157127 0.23549719155 0.22850650549 0.23567977548 0.25771361589 0.25354576111 0.24012443423 0.23041981459 0.22600719333 
0.24769310653 0.24706795812 0.24929356575 0.25122526288 0.25674068928 0.2677847147 0.2765455842 0.26278340816 0.24663263559 
0.23979149759 0.22633440793 0.24948175251 0.25463202596 0.25470578671 0.29220488667 0.25862914324 0.26341843605 0.25400000811 
0.24136973917 0.23440860212 0.21371921897 0.18263623118 0.20549510419 0.20285412669 0.18878260255 0.20585174859 0.21378062665 
0.22199210525 0.19790062308 0.20089638233 0.21366675198 0.21849174798 0.21268904209 0.21843476593 0.21005874872 0.22354911268 
0.23430791497 0.2456342876 0.21699851751 0.22293685377 0.21048045158 0.20870807767 0.21589408815 0.22124959528 0.22427943349 
0.22592058778 0.22592058778 0.23073944449 0.25020349026 0.20472081006 0.20427383482 0.20448300242 0.17146614194 0.17396849394 
0.1784093082 0.17459146678 0.17388778925 0.17470791936 0.16568516195 0.18171924353 0.17270833254 0.18438832462 0.18916633725 
0.18546488881 0.19022814929 0.18864408135 0.18893769383 0.19340534508 0.2113879323 0.19482438266 0.17962832749 0.18149638176 
0.17197859287 0.17428547144 0.18329206109 0.1917399168 0.19211950898 0.19357432425 0.21145187318 0.20745186508 0.18658739328 
0.17988975346 0.17115537822 0.15116290748 0.13936531544 0.14497515559 0.1457131505 0.14903405309 0.15766721964 0.16154570878 
0.13165031374 0.13457633555 0.15474072099 0.15735305846 0.15770982206 0.15808165073 0.1588229388 0.16435924172 0.16168068349 
0.18003706634 0.16788971424 0.15302433074 0.15390226245 0.15015785396 0.1557970345 0.16302932799 0.15198004246 0.16380278766 
0.16592486203 0.16775585711 0.17853520811 0.14545579255 0.14446817338 0.1427385658 0.13812850416 0.13218151033 0.11674667895 
0.14287140965 0.13298891485 0.1178458035 0.12077334523 0.12923759222 0.132536605 0.13844768703 0.14936985075 0.15530727804 
0.14644683897 0.14226299524 0.14013665915 0.14115180075 0.15089040995 0.15099187195 0.13840597868 0.13823001087 0.13619351387 
0.13498610258 0.13192255795 0.13302288949 0.13699114323 0.1360745132 0.14673906565 0.15502841771 
