# vtk DataFile Version 5.1
vtk output
ASCII
DATASET UNSTRUCTURED_GRID
POINTS 4929 double
0.1016 1.5 0 0.1016 1.45 5.1584879698e-20 0.1016 1.4 8.2585350466e-20 
0.1016 1.35 0 0.1016 1.3 0 0.1016 1.25 7.633537409e-20 
0.1016 1.2 -1.0472138867e-19 0.1016 1.15 -1.0474616531e-19 0.1016 1.1 0 
0.1016 1.05 0 0.1016 1 7.6430874677e-20 0.1016 0.95 -1.047413444e-19 
0.1016 0.9 7.6430971612e-20 0.1016 0.85 1.9900855048e-18 0.1016 0.8 -1.0474130562e-19 
0.1016 0.75 7.6430325377e-20 0.1016 0.7 2.0948253887e-18 0.1016 0.65 0 
0.1016 0.6 1.9900857116e-18 0.1016 0.55 0 0.1016 0.5 -1.0474154473e-19 
0.1016 0.45 0 0.1016 0.4 -1.0474482114e-19 0.1016 0.35 0 
0.1016 0.3 0 0.1016 0.25 0 0.1016 0.2 7.5297934506e-20 
0.1016 0.15 -9.0429310344e-20 0.1016 0.1 -9.209014038e-20 0.1016 0.05 -7.6045124168e-20 
0.1016 0 0 5.08 1.5 0.28700000048 5.08 1.45 0.28700000048 
5.08 1.4 0.28700000048 5.08 1.35 0.28700000048 5.08 1.3 0.28700000048 
5.08 1.25 0.28700000048 5.08 1.2 0.28700000048 5.08 1.15 0.28700000048 
5.08 1.1 0.28700000048 5.08 1.05 0.28700000048 5.08 1 0.28700000048 
5.08 0.95 0.28700000048 5.08 0.9 0.28700000048 5.08 0.85 0.28700000048 
5.08 0.8 0.28700000048 5.08 0.75 0.28700000048 5.08 0.7 0.28700000048 
5.08 0.65 0.28700000048 5.08 0.6 0.28700000048 5.08 0.55 0.28700000048 
5.08 0.5 0.28700000048 5.08 0.45 0.28700000048 5.08 0.4 0.28700000048 
5.08 0.35 0.28700000048 5.08 0.3 0.28700000048 5.08 0.25 0.28700000048 
5.08 0.2 0.28700000048 5.08 0.15 0.28700000048 5.08 0.1 0.28700000048 
5.08 0.05 0.28700000048 5.08 0 0.28700000048 0.12737462728 1.5 0.0088206361979 
0.12737462728 1.45 0.0084257312119 0.12737462728 1.4 0.0085216797888 0.12737462728 1.35 0.0085016461089 
0.12737462728 1.3 0.0085061937571 0.12737462728 1.25 0.008505162783 0.12737462728 1.2 0.0085054002702 
0.12737462728 1.15 0.0085053443909 0.12737462728 1.1 0.0085053574294 0.12737462728 1.05 0.0085053546354 
0.12737462728 1 0.0085053555667 0.12737462728 0.95 0.0085053546354 0.12737462728 0.9 0.0085053546354 
0.12737462728 0.85 0.0085053546354 0.12737462728 0.8 0.0085053546354 0.12737462728 0.75 0.0085053555667 
0.12737462728 0.7 0.0085053555667 0.12737462728 0.65 0.0085053555667 0.12737462728 0.6 0.0085053555667 
0.12737462728 0.55 0.0085053555667 0.12737462728 0.5 0.0085053555667 0.12737462728 0.45 0.0085053546354 
0.12737462728 0.4 0.0085053574294 0.12737462728 0.35 0.0085053471848 0.12737462728 0.3 0.0085053918883 
0.12737462728 0.25 0.0085051963106 0.12737462728 0.2 0.0085060643032 0.12737462728 0.15 0.0085021760315 
0.12737462728 0.1 0.0085194725543 0.12737462728 0.05 0.0084366155788 0.12737462728 0 0.0088125346228 
0.15441581276 1.5 0.02315544337 0.15441581276 1.45 0.023171309382 0.15441581276 1.4 0.023177724332 
0.15441581276 1.35 0.023176256567 0.15441581276 1.3 0.023176565766 0.15441581276 1.25 0.023176498711 
0.15441581276 1.2 0.023176513612 0.15441581276 1.15 0.023176509887 0.15441581276 1.1 0.02317651175 
0.15441581276 1.05 0.023176509887 0.15441581276 1 0.023176509887 0.15441581276 0.95 0.023176509887 
0.15441581276 0.9 0.023176509887 0.15441581276 0.85 0.023176509887 0.15441581276 0.8 0.023176509887 
0.15441581276 0.75 0.023176509887 0.15441581276 0.7 0.023176509887 0.15441581276 0.65 0.023176509887 
0.15441581276 0.6 0.023176509887 0.15441581276 0.55 0.023176509887 0.15441581276 0.5 0.023176509887 
0.15441581276 0.45 0.023176509887 0.15441581276 0.4 0.02317651175 0.15441581276 0.35 0.023176509887 
0.15441581276 0.3 0.023176513612 0.15441581276 0.25 0.023176500574 0.15441581276 0.2 0.023176558316 
0.15441581276 0.15 0.02317628637 0.15441581276 0.1 0.023177588359 0.15441581276 0.05 0.023171856999 
0.15441581276 0 0.023155016825 0.18278579477 1.5 0.039393652231 0.18278579477 1.45 0.039554331452 
0.18278579477 1.4 0.03961930424 0.18278579477 1.35 0.039604440331 0.18278579477 1.3 0.03960756585 
0.18278579477 1.25 0.039606891572 0.18278579477 1.2 0.039607036859 0.18278579477 1.15 0.039607003331 
0.18278579477 1.1 0.039607010782 0.18278579477 1.05 0.039607007056 0.18278579477 1 0.039607007056 
0.18278579477 0.95 0.039607007056 0.18278579477 0.9 0.039607007056 0.18278579477 0.85 0.039607007056 
0.18278579477 0.8 0.039607007056 0.18278579477 0.75 0.039607007056 0.18278579477 0.7 0.039607007056 
0.18278579477 0.65 0.039607007056 0.18278579477 0.6 0.039607007056 0.18278579477 0.55 0.039607007056 
0.18278579477 0.5 0.039607007056 0.18278579477 0.45 0.039607007056 0.18278579477 0.4 0.039607010782 
0.18278579477 0.35 0.039607007056 0.18278579477 0.3 0.039607033134 0.18278579477 0.25 0.039606906474 
0.18278579477 0.2 0.03960749507 0.18278579477 0.15 0.03960474208 0.18278579477 0.1 0.039617925882 
0.18278579477 0.05 0.039559889585 0.18278579477 0 0.039389334619 0.21254987001 1.5 0.056150559336 
0.21254987001 1.45 0.055902633816 0.21254987001 1.4 0.055933699012 0.21254987001 1.35 0.055928990245 
0.21254987001 1.3 0.055929873139 0.21254987001 1.25 0.055929701775 0.21254987001 1.2 0.055929739028 
0.21254987001 1.15 0.055929727852 0.21254987001 1.1 0.055929731578 0.21254987001 1.05 0.055929731578 
0.21254987001 1 0.055929731578 0.21254987001 0.95 0.055929731578 0.21254987001 0.9 0.055929731578 
0.21254987001 0.85 0.055929731578 0.21254987001 0.8 0.055929731578 0.21254987001 0.75 0.055929731578 
0.21254987001 0.7 0.055929731578 0.21254987001 0.65 0.055929731578 0.21254987001 0.6 0.055929731578 
0.21254987001 0.55 0.055929731578 0.21254987001 0.5 0.055929731578 0.21254987001 0.45 0.055929731578 
0.21254987001 0.4 0.055929731578 0.21254987001 0.35 0.055929731578 0.21254987001 0.3 0.055929739028 
0.21254987001 0.25 0.055929705501 0.21254987001 0.2 0.055929850787 0.21254987001 0.15 0.055929102004 
0.21254987001 0.1 0.055933218449 0.21254987001 0.05 0.055904746056 0.21254987001 0 0.056148931384 
0.24377654385 1.5 0.077544353902 0.24377654385 1.45 0.077273264527 0.24377654385 1.4 0.077307231724 
0.24377654385 1.35 0.077302083373 0.24377654385 1.3 0.077303051949 0.24377654385 1.25 0.077302858233 
0.24377654385 1.2 0.077302902937 0.24377654385 1.15 0.077302888036 0.24377654385 1.1 0.077302895486 
0.24377654385 1.05 0.077302895486 0.24377654385 1 0.077302895486 0.24377654385 0.95 0.077302895486 
0.24377654385 0.9 0.077302895486 0.24377654385 0.85 0.077302895486 0.24377654385 0.8 0.077302895486 
0.24377654385 0.75 0.077302895486 0.24377654385 0.7 0.077302895486 0.24377654385 0.65 0.077302895486 
0.24377654385 0.6 0.077302895486 0.24377654385 0.55 0.077302895486 0.24377654385 0.5 0.077302895486 
0.24377654385 0.45 0.077302895486 0.24377654385 0.4 0.077302895486 0.24377654385 0.35 0.077302895486 
0.24377654385 0.3 0.077302902937 0.24377654385 0.25 0.077302865684 0.24377654385 0.2 0.077303022146 
0.24377654385 0.15 0.077302202582 0.24377654385 0.1 0.077306702733 0.24377654385 0.05 0.077275574207 
0.24377654385 0 0.077542573214 0.27653768798 1.5 0.1177598536 0.27653768798 1.45 0.11818488687 
0.27653768798 1.4 0.11812788248 0.27653768798 1.35 0.11813484877 0.27653768798 1.3 0.1181339249 
0.27653768798 1.25 0.11813402921 0.27653768798 1.2 0.11813402176 0.27653768798 1.15 0.11813402176 
0.27653768798 1.1 0.11813402176 0.27653768798 1.05 0.11813402176 0.27653768798 1 0.11813402176 
0.27653768798 0.95 0.11813402176 0.27653768798 0.9 0.11813402176 0.27653768798 0.85 0.11813402176 
0.27653768798 0.8 0.11813402176 0.27653768798 0.75 0.11813402176 0.27653768798 0.7 0.11813402176 
0.27653768798 0.65 0.11813402176 0.27653768798 0.6 0.11813402176 0.27653768798 0.55 0.11813402176 
0.27653768798 0.5 0.11813402176 0.27653768798 0.45 0.11813402176 0.27653768798 0.4 0.11813402176 
0.27653768798 0.35 0.11813402176 0.27653768798 0.3 0.11813402176 0.27653768798 0.25 0.11813403666 
0.27653768798 0.2 0.1181338802 0.27653768798 0.15 0.11813506484 0.27653768798 0.1 0.11812691391 
0.27653768798 0.05 0.11818906665 0.27653768798 0 0.11775659025 0.31090870586 1.5 0.1529057622 
0.31090870586 1.45 0.15299530327 0.31090870586 1.4 0.15298101306 0.31090870586 1.35 0.15298298001 
0.31090870586 1.3 0.15298268199 0.31090870586 1.25 0.15298272669 0.31090870586 1.2 0.15298272669 
0.31090870586 1.15 0.15298272669 0.31090870586 1.1 0.15298272669 0.31090870586 1.05 0.15298272669 
0.31090870586 1 0.15298272669 0.31090870586 0.95 0.15298272669 0.31090870586 0.9 0.15298272669 
0.31090870586 0.85 0.15298272669 0.31090870586 0.8 0.15298272669 0.31090870586 0.75 0.15298272669 
0.31090870586 0.7 0.15298272669 0.31090870586 0.65 0.15298272669 0.31090870586 0.6 0.15298272669 
0.31090870586 0.55 0.15298272669 0.31090870586 0.5 0.15298272669 0.31090870586 0.45 0.15298272669 
0.31090870586 0.4 0.15298272669 0.31090870586 0.35 0.15298272669 0.31090870586 0.3 0.15298272669 
0.31090870586 0.25 0.15298272669 0.31090870586 0.2 0.15298266709 0.31090870586 0.15 0.15298302472 
0.31090870586 0.1 0.15298080444 0.31090870586 0.05 0.15299625695 0.31090870586 0 0.15290501714 
0.34696870625 1.5 0.15526036918 0.34696870625 1.45 0.15538688004 0.34696870625 1.4 0.15536668897 
0.34696870625 1.35 0.15536946058 0.34696870625 1.3 0.15536904335 0.34696870625 1.25 0.15536910295 
0.34696870625 1.2 0.15536910295 0.34696870625 1.15 0.15536910295 0.34696870625 1.1 0.15536910295 
0.34696870625 1.05 0.15536910295 0.34696870625 1 0.15536910295 0.34696870625 0.95 0.15536910295 
0.34696870625 0.9 0.15536910295 0.34696870625 0.85 0.15536910295 0.34696870625 0.8 0.15536910295 
0.34696870625 0.75 0.15536910295 0.34696870625 0.7 0.15536910295 0.34696870625 0.65 0.15536910295 
0.34696870625 0.6 0.15536910295 0.34696870625 0.55 0.15536910295 0.34696870625 0.5 0.15536910295 
0.34696870625 0.45 0.15536910295 0.34696870625 0.4 0.15536910295 0.34696870625 0.35 0.15536910295 
0.34696870625 0.3 0.15536910295 0.34696870625 0.25 0.15536910295 0.34696870625 0.2 0.15536902845 
0.34696870625 0.15 0.15536953509 0.34696870625 0.1 0.15536637604 0.34696870625 0.05 0.15538823605 
0.34696870625 0 0.1552593112 0.3848006853 1.5 0.17458346486 0.3848006853 1.45 0.17403116822 
0.3848006853 1.4 0.17408725619 0.3848006853 1.35 0.17408081889 0.3848006853 1.3 0.17408159375 
0.3848006853 1.25 0.17408151925 0.3848006853 1.2 0.17408151925 0.3848006853 1.15 0.17408151925 
0.3848006853 1.1 0.17408151925 0.3848006853 1.05 0.17408151925 0.3848006853 1 0.17408151925 
0.3848006853 0.95 0.17408151925 0.3848006853 0.9 0.17408151925 0.3848006853 0.85 0.17408151925 
0.3848006853 0.8 0.17408151925 0.3848006853 0.75 0.17408151925 0.3848006853 0.7 0.17408151925 
0.3848006853 0.65 0.17408151925 0.3848006853 0.6 0.17408151925 0.3848006853 0.55 0.17408151925 
0.3848006853 0.5 0.17408151925 0.3848006853 0.45 0.17408151925 0.3848006853 0.4 0.17408151925 
0.3848006853 0.35 0.17408151925 0.3848006853 0.3 0.17408151925 0.3848006853 0.25 0.17408153415 
0.3848006853 0.2 0.17408156395 0.3848006853 0.15 0.1740809828 0.3848006853 0.1 0.17408658564 
0.3848006853 0.05 0.17403407395 0.3848006853 0 0.17458117008 0.42449171754 1.5 0.20791427791 
0.42449171754 1.45 0.20812185109 0.42449171754 1.4 0.20813266933 0.42449171754 1.35 0.20813165605 
0.42449171754 1.3 0.20813168585 0.42449171754 1.25 0.20813173056 0.42449171754 1.2 0.20813171566 
0.42449171754 1.15 0.20813171566 0.42449171754 1.1 0.20813171566 0.42449171754 1.05 0.20813171566 
0.42449171754 1 0.20813171566 0.42449171754 0.95 0.20813171566 0.42449171754 0.9 0.20813171566 
0.42449171754 0.85 0.20813171566 0.42449171754 0.8 0.20813171566 0.42449171754 0.75 0.20813171566 
0.42449171754 0.7 0.20813171566 0.42449171754 0.65 0.20813171566 0.42449171754 0.6 0.20813171566 
0.42449171754 0.55 0.20813171566 0.42449171754 0.5 0.20813171566 0.42449171754 0.45 0.20813171566 
0.42449171754 0.4 0.20813171566 0.42449171754 0.35 0.20813173056 0.42449171754 0.3 0.20813171566 
0.42449171754 0.25 0.20813173056 0.42449171754 0.2 0.20813167095 0.42449171754 0.15 0.20813176036 
0.42449171754 0.1 0.20813216269 0.42449171754 0.05 0.20812395215 0.42449171754 0 0.20791260898 
0.46613315636 1.5 0.23703016341 0.46613315636 1.45 0.23698055744 0.46613315636 1.4 0.23695702851 
0.46613315636 1.35 0.23696154356 0.46613315636 1.3 0.23696051538 0.46613315636 1.25 0.2369607538 
0.46613315636 1.2 0.23696069419 0.46613315636 1.15 0.2369607091 0.46613315636 1.1 0.2369607091 
0.46613315636 1.05 0.2369607091 0.46613315636 1 0.2369607091 0.46613315636 0.95 0.2369607091 
0.46613315636 0.9 0.2369607091 0.46613315636 0.85 0.2369607091 0.46613315636 0.8 0.2369607091 
0.46613315636 0.75 0.2369607091 0.46613315636 0.7 0.2369607091 0.46613315636 0.65 0.2369607091 
0.46613315636 0.6 0.2369607091 0.46613315636 0.55 0.2369607091 0.46613315636 0.5 0.2369607091 
0.46613315636 0.45 0.2369607091 0.46613315636 0.4 0.2369607091 0.46613315636 0.35 0.2369607091 
0.46613315636 0.3 0.23696069419 0.46613315636 0.25 0.2369607538 0.46613315636 0.2 0.23696050048 
0.46613315636 0.15 0.23696158826 0.46613315636 0.1 0.23695681989 0.46613315636 0.05 0.23698160052 
0.46613315636 0 0.23702934384 0.5098208442 1.5 0.26729035378 0.5098208442 1.45 0.26729035378 
0.5098208442 1.4 0.26729035378 0.5098208442 1.35 0.26729035378 0.5098208442 1.3 0.26729035378 
0.5098208442 1.25 0.26729035378 0.5098208442 1.2 0.26729035378 0.5098208442 1.15 0.26729035378 
0.5098208442 1.1 0.26729035378 0.5098208442 1.05 0.26729035378 0.5098208442 1 0.26729035378 
0.5098208442 0.95 0.26729035378 0.5098208442 0.9 0.26729035378 0.5098208442 0.85 0.26729035378 
0.5098208442 0.8 0.26729035378 0.5098208442 0.75 0.26729035378 0.5098208442 0.7 0.26729035378 
0.5098208442 0.65 0.26729035378 0.5098208442 0.6 0.26729035378 0.5098208442 0.55 0.26729035378 
0.5098208442 0.5 0.26729035378 0.5098208442 0.45 0.26729035378 0.5098208442 0.4 0.26729035378 
0.5098208442 0.35 0.26729035378 0.5098208442 0.3 0.26729035378 0.5098208442 0.25 0.26729035378 
0.5098208442 0.2 0.26729035378 0.5098208442 0.15 0.26729035378 0.5098208442 0.1 0.26729035378 
0.5098208442 0.05 0.26729035378 0.5098208442 0 0.26729035378 0.55565533319 1.5 0.28662857413 
0.55565533319 1.45 0.28662857413 0.55565533319 1.4 0.28662857413 0.55565533319 1.35 0.28662857413 
0.55565533319 1.3 0.28662857413 0.55565533319 1.25 0.28662857413 0.55565533319 1.2 0.28662857413 
0.55565533319 1.15 0.28662857413 0.55565533319 1.1 0.28662857413 0.55565533319 1.05 0.28662857413 
0.55565533319 1 0.28662857413 0.55565533319 0.95 0.28662857413 0.55565533319 0.9 0.28662857413 
0.55565533319 0.85 0.28662857413 0.55565533319 0.8 0.28662857413 0.55565533319 0.75 0.28662857413 
0.55565533319 0.7 0.28662857413 0.55565533319 0.65 0.28662857413 0.55565533319 0.6 0.28662857413 
0.55565533319 0.55 0.28662857413 0.55565533319 0.5 0.28662857413 0.55565533319 0.45 0.28662857413 
0.55565533319 0.4 0.28662857413 0.55565533319 0.35 0.28662857413 0.55565533319 0.3 0.28662857413 
0.55565533319 0.25 0.28662857413 0.55565533319 0.2 0.28662857413 0.55565533319 0.15 0.28662857413 
0.55565533319 0.1 0.28662857413 0.55565533319 0.05 0.28662857413 0.55565533319 0 0.28662857413 
0.60374211656 1.5 0.28700000048 0.60374211656 1.45 0.28700000048 0.60374211656 1.4 0.28700000048 
0.60374211656 1.35 0.28700000048 0.60374211656 1.3 0.28700000048 0.60374211656 1.25 0.28700000048 
0.60374211656 1.2 0.28700000048 0.60374211656 1.15 0.28700000048 0.60374211656 1.1 0.28700000048 
0.60374211656 1.05 0.28700000048 0.60374211656 1 0.28700000048 0.60374211656 0.95 0.28700000048 
0.60374211656 0.9 0.28700000048 0.60374211656 0.85 0.28700000048 0.60374211656 0.8 0.28700000048 
0.60374211656 0.75 0.28700000048 0.60374211656 0.7 0.28700000048 0.60374211656 0.65 0.28700000048 
0.60374211656 0.6 0.28700000048 0.60374211656 0.55 0.28700000048 0.60374211656 0.5 0.28700000048 
0.60374211656 0.45 0.28700000048 0.60374211656 0.4 0.28700000048 0.60374211656 0.35 0.28700000048 
0.60374211656 0.3 0.28700000048 0.60374211656 0.25 0.28700000048 0.60374211656 0.2 0.28700000048 
0.60374211656 0.15 0.28700000048 0.60374211656 0.1 0.28700000048 0.60374211656 0.05 0.28700000048 
0.60374211656 0 0.28700000048 0.65419187143 1.5 0.28700000048 0.65419187143 1.45 0.28700000048 
0.65419187143 1.4 0.28700000048 0.65419187143 1.35 0.28700000048 0.65419187143 1.3 0.28700000048 
0.65419187143 1.25 0.28700000048 0.65419187143 1.2 0.28700000048 0.65419187143 1.15 0.28700000048 
0.65419187143 1.1 0.28700000048 0.65419187143 1.05 0.28700000048 0.65419187143 1 0.28700000048 
0.65419187143 0.95 0.28700000048 0.65419187143 0.9 0.28700000048 0.65419187143 0.85 0.28700000048 
0.65419187143 0.8 0.28700000048 0.65419187143 0.75 0.28700000048 0.65419187143 0.7 0.28700000048 
0.65419187143 0.65 0.28700000048 0.65419187143 0.6 0.28700000048 0.65419187143 0.55 0.28700000048 
0.65419187143 0.5 0.28700000048 0.65419187143 0.45 0.28700000048 0.65419187143 0.4 0.28700000048 
0.65419187143 0.35 0.28700000048 0.65419187143 0.3 0.28700000048 0.65419187143 0.25 0.28700000048 
0.65419187143 0.2 0.28700000048 0.65419187143 0.15 0.28700000048 0.65419187143 0.1 0.28700000048 
0.65419187143 0.05 0.28700000048 0.65419187143 0 0.28700000048 0.70712071359 1.5 0.28700000048 
0.70712071359 1.45 0.28700000048 0.70712071359 1.4 0.28700000048 0.70712071359 1.35 0.28700000048 
0.70712071359 1.3 0.28700000048 0.70712071359 1.25 0.28700000048 0.70712071359 1.2 0.28700000048 
0.70712071359 1.15 0.28700000048 0.70712071359 1.1 0.28700000048 0.70712071359 1.05 0.28700000048 
0.70712071359 1 0.28700000048 0.70712071359 0.95 0.28700000048 0.70712071359 0.9 0.28700000048 
0.70712071359 0.85 0.28700000048 0.70712071359 0.8 0.28700000048 0.70712071359 0.75 0.28700000048 
0.70712071359 0.7 0.28700000048 0.70712071359 0.65 0.28700000048 0.70712071359 0.6 0.28700000048 
0.70712071359 0.55 0.28700000048 0.70712071359 0.5 0.28700000048 0.70712071359 0.45 0.28700000048 
0.70712071359 0.4 0.28700000048 0.70712071359 0.35 0.28700000048 0.70712071359 0.3 0.28700000048 
0.70712071359 0.25 0.28700000048 0.70712071359 0.2 0.28700000048 0.70712071359 0.15 0.28700000048 
0.70712071359 0.1 0.28700000048 0.70712071359 0.05 0.28700000048 0.70712071359 0 0.28700000048 
0.76265046472 1.5 0.28700000048 0.76265046472 1.45 0.28700000048 0.76265046472 1.4 0.28700000048 
0.76265046472 1.35 0.28700000048 0.76265046472 1.3 0.28700000048 0.76265046472 1.25 0.28700000048 
0.76265046472 1.2 0.28700000048 0.76265046472 1.15 0.28700000048 0.76265046472 1.1 0.28700000048 
0.76265046472 1.05 0.28700000048 0.76265046472 1 0.28700000048 0.76265046472 0.95 0.28700000048 
0.76265046472 0.9 0.28700000048 0.76265046472 0.85 0.28700000048 0.76265046472 0.8 0.28700000048 
0.76265046472 0.75 0.28700000048 0.76265046472 0.7 0.28700000048 0.76265046472 0.65 0.28700000048 
0.76265046472 0.6 0.28700000048 0.76265046472 0.55 0.28700000048 0.76265046472 0.5 0.28700000048 
0.76265046472 0.45 0.28700000048 0.76265046472 0.4 0.28700000048 0.76265046472 0.35 0.28700000048 
0.76265046472 0.3 0.28700000048 0.76265046472 0.25 0.28700000048 0.76265046472 0.2 0.28700000048 
0.76265046472 0.15 0.28700000048 0.76265046472 0.1 0.28700000048 0.76265046472 0.05 0.28700000048 
0.76265046472 0 0.28700000048 0.82090893278 1.5 0.28700000048 0.82090893278 1.45 0.28700000048 
0.82090893278 1.4 0.28700000048 0.82090893278 1.35 0.28700000048 0.82090893278 1.3 0.28700000048 
0.82090893278 1.25 0.28700000048 0.82090893278 1.2 0.28700000048 0.82090893278 1.15 0.28700000048 
0.82090893278 1.1 0.28700000048 0.82090893278 1.05 0.28700000048 0.82090893278 1 0.28700000048 
0.82090893278 0.95 0.28700000048 0.82090893278 0.9 0.28700000048 0.82090893278 0.85 0.28700000048 
0.82090893278 0.8 0.28700000048 0.82090893278 0.75 0.28700000048 0.82090893278 0.7 0.28700000048 
0.82090893278 0.65 0.28700000048 0.82090893278 0.6 0.28700000048 0.82090893278 0.55 0.28700000048 
0.82090893278 0.5 0.28700000048 0.82090893278 0.45 0.28700000048 0.82090893278 0.4 0.28700000048 
0.82090893278 0.35 0.28700000048 0.82090893278 0.3 0.28700000048 0.82090893278 0.25 0.28700000048 
0.82090893278 0.2 0.28700000048 0.82090893278 0.15 0.28700000048 0.82090893278 0.1 0.28700000048 
0.82090893278 0.05 0.28700000048 0.82090893278 0 0.28700000048 0.88203020618 1.5 0.28700000048 
0.88203020618 1.45 0.28700000048 0.88203020618 1.4 0.28700000048 0.88203020618 1.35 0.28700000048 
0.88203020618 1.3 0.28700000048 0.88203020618 1.25 0.28700000048 0.88203020618 1.2 0.28700000048 
0.88203020618 1.15 0.28700000048 0.88203020618 1.1 0.28700000048 0.88203020618 1.05 0.28700000048 
0.88203020618 1 0.28700000048 0.88203020618 0.95 0.28700000048 0.88203020618 0.9 0.28700000048 
0.88203020618 0.85 0.28700000048 0.88203020618 0.8 0.28700000048 0.88203020618 0.75 0.28700000048 
0.88203020618 0.7 0.28700000048 0.88203020618 0.65 0.28700000048 0.88203020618 0.6 0.28700000048 
0.88203020618 0.55 0.28700000048 0.88203020618 0.5 0.28700000048 0.88203020618 0.45 0.28700000048 
0.88203020618 0.4 0.28700000048 0.88203020618 0.35 0.28700000048 0.88203020618 0.3 0.28700000048 
0.88203020618 0.25 0.28700000048 0.88203020618 0.2 0.28700000048 0.88203020618 0.15 0.28700000048 
0.88203020618 0.1 0.28700000048 0.88203020618 0.05 0.28700000048 0.88203020618 0 0.28700000048 
0.9461549624 1.5 0.28700000048 0.9461549624 1.45 0.28700000048 0.9461549624 1.4 0.28700000048 
0.9461549624 1.35 0.28700000048 0.9461549624 1.3 0.28700000048 0.9461549624 1.25 0.28700000048 
0.9461549624 1.2 0.28700000048 0.9461549624 1.15 0.28700000048 0.9461549624 1.1 0.28700000048 
0.9461549624 1.05 0.28700000048 0.9461549624 1 0.28700000048 0.9461549624 0.95 0.28700000048 
0.9461549624 0.9 0.28700000048 0.9461549624 0.85 0.28700000048 0.9461549624 0.8 0.28700000048 
0.9461549624 0.75 0.28700000048 0.9461549624 0.7 0.28700000048 0.9461549624 0.65 0.28700000048 
0.9461549624 0.6 0.28700000048 0.9461549624 0.55 0.28700000048 0.9461549624 0.5 0.28700000048 
0.9461549624 0.45 0.28700000048 0.9461549624 0.4 0.28700000048 0.9461549624 0.35 0.28700000048 
0.9461549624 0.3 0.28700000048 0.9461549624 0.25 0.28700000048 0.9461549624 0.2 0.28700000048 
0.9461549624 0.15 0.28700000048 0.9461549624 0.1 0.28700000048 0.9461549624 0.05 0.28700000048 
0.9461549624 0 0.28700000048 1.0134307918 1.5 0.28700000048 1.0134307918 1.45 0.28700000048 
1.0134307918 1.4 0.28700000048 1.0134307918 1.35 0.28700000048 1.0134307918 1.3 0.28700000048 
1.0134307918 1.25 0.28700000048 1.0134307918 1.2 0.28700000048 1.0134307918 1.15 0.28700000048 
1.0134307918 1.1 0.28700000048 1.0134307918 1.05 0.28700000048 1.0134307918 1 0.28700000048 
1.0134307918 0.95 0.28700000048 1.0134307918 0.9 0.28700000048 1.0134307918 0.85 0.28700000048 
1.0134307918 0.8 0.28700000048 1.0134307918 0.75 0.28700000048 1.0134307918 0.7 0.28700000048 
1.0134307918 0.65 0.28700000048 1.0134307918 0.6 0.28700000048 1.0134307918 0.55 0.28700000048 
1.0134307918 0.5 0.28700000048 1.0134307918 0.45 0.28700000048 1.0134307918 0.4 0.28700000048 
1.0134307918 0.35 0.28700000048 1.0134307918 0.3 0.28700000048 1.0134307918 0.25 0.28700000048 
1.0134307918 0.2 0.28700000048 1.0134307918 0.15 0.28700000048 1.0134307918 0.1 0.28700000048 
1.0134307918 0.05 0.28700000048 1.0134307918 0 0.28700000048 1.0840125372 1.5 0.28700000048 
1.0840125372 1.45 0.28700000048 1.0840125372 1.4 0.28700000048 1.0840125372 1.35 0.28700000048 
1.0840125372 1.3 0.28700000048 1.0840125372 1.25 0.28700000048 1.0840125372 1.2 0.28700000048 
1.0840125372 1.15 0.28700000048 1.0840125372 1.1 0.28700000048 1.0840125372 1.05 0.28700000048 
1.0840125372 1 0.28700000048 1.0840125372 0.95 0.28700000048 1.0840125372 0.9 0.28700000048 
1.0840125372 0.85 0.28700000048 1.0840125372 0.8 0.28700000048 1.0840125372 0.75 0.28700000048 
1.0840125372 0.7 0.28700000048 1.0840125372 0.65 0.28700000048 1.0840125372 0.6 0.28700000048 
1.0840125372 0.55 0.28700000048 1.0840125372 0.5 0.28700000048 1.0840125372 0.45 0.28700000048 
1.0840125372 0.4 0.28700000048 1.0840125372 0.35 0.28700000048 1.0840125372 0.3 0.28700000048 
1.0840125372 0.25 0.28700000048 1.0840125372 0.2 0.28700000048 1.0840125372 0.15 0.28700000048 
1.0840125372 0.1 0.28700000048 1.0840125372 0.05 0.28700000048 1.0840125372 0 0.28700000048 
1.1580626504 1.5 0.28700000048 1.1580626504 1.45 0.28700000048 1.1580626504 1.4 0.28700000048 
1.1580626504 1.35 0.28700000048 1.1580626504 1.3 0.28700000048 1.1580626504 1.25 0.28700000048 
1.1580626504 1.2 0.28700000048 1.1580626504 1.15 0.28700000048 1.1580626504 1.1 0.28700000048 
1.1580626504 1.05 0.28700000048 1.1580626504 1 0.28700000048 1.1580626504 0.95 0.28700000048 
1.1580626504 0.9 0.28700000048 1.1580626504 0.85 0.28700000048 1.1580626504 0.8 0.28700000048 
1.1580626504 0.75 0.28700000048 1.1580626504 0.7 0.28700000048 1.1580626504 0.65 0.28700000048 
1.1580626504 0.6 0.28700000048 1.1580626504 0.55 0.28700000048 1.1580626504 0.5 0.28700000048 
1.1580626504 0.45 0.28700000048 1.1580626504 0.4 0.28700000048 1.1580626504 0.35 0.28700000048 
1.1580626504 0.3 0.28700000048 1.1580626504 0.25 0.28700000048 1.1580626504 0.2 0.28700000048 
1.1580626504 0.15 0.28700000048 1.1580626504 0.1 0.28700000048 1.1580626504 0.05 0.28700000048 
1.1580626504 0 0.28700000048 1.2357515662 1.5 0.28700000048 1.2357515662 1.45 0.28700000048 
1.2357515662 1.4 0.28700000048 1.2357515662 1.35 0.28700000048 1.2357515662 1.3 0.28700000048 
1.2357515662 1.25 0.28700000048 1.2357515662 1.2 0.28700000048 1.2357515662 1.15 0.28700000048 
1.2357515662 1.1 0.28700000048 1.2357515662 1.05 0.28700000048 1.2357515662 1 0.28700000048 
1.2357515662 0.95 0.28700000048 1.2357515662 0.9 0.28700000048 1.2357515662 0.85 0.28700000048 
1.2357515662 0.8 0.28700000048 1.2357515662 0.75 0.28700000048 1.2357515662 0.7 0.28700000048 
1.2357515662 0.65 0.28700000048 1.2357515662 0.6 0.28700000048 1.2357515662 0.55 0.28700000048 
1.2357515662 0.5 0.28700000048 1.2357515662 0.45 0.28700000048 1.2357515662 0.4 0.28700000048 
1.2357515662 0.35 0.28700000048 1.2357515662 0.3 0.28700000048 1.2357515662 0.25 0.28700000048 
1.2357515662 0.2 0.28700000048 1.2357515662 0.15 0.28700000048 1.2357515662 0.1 0.28700000048 
1.2357515662 0.05 0.28700000048 1.2357515662 0 0.28700000048 1.3172580942 1.5 0.28700000048 
1.3172580942 1.45 0.28700000048 1.3172580942 1.4 0.28700000048 1.3172580942 1.35 0.28700000048 
1.3172580942 1.3 0.28700000048 1.3172580942 1.25 0.28700000048 1.3172580942 1.2 0.28700000048 
1.3172580942 1.15 0.28700000048 1.3172580942 1.1 0.28700000048 1.3172580942 1.05 0.28700000048 
1.3172580942 1 0.28700000048 1.3172580942 0.95 0.28700000048 1.3172580942 0.9 0.28700000048 
1.3172580942 0.85 0.28700000048 1.3172580942 0.8 0.28700000048 1.3172580942 0.75 0.28700000048 
1.3172580942 0.7 0.28700000048 1.3172580942 0.65 0.28700000048 1.3172580942 0.6 0.28700000048 
1.3172580942 0.55 0.28700000048 1.3172580942 0.5 0.28700000048 1.3172580942 0.45 0.28700000048 
1.3172580942 0.4 0.28700000048 1.3172580942 0.35 0.28700000048 1.3172580942 0.3 0.28700000048 
1.3172580942 0.25 0.28700000048 1.3172580942 0.2 0.28700000048 1.3172580942 0.15 0.28700000048 
1.3172580942 0.1 0.28700000048 1.3172580942 0.05 0.28700000048 1.3172580942 0 0.28700000048 
1.402769831 1.5 0.28700000048 1.402769831 1.45 0.28700000048 1.402769831 1.4 0.28700000048 
1.402769831 1.35 0.28700000048 1.402769831 1.3 0.28700000048 1.402769831 1.25 0.28700000048 
1.402769831 1.2 0.28700000048 1.402769831 1.15 0.28700000048 1.402769831 1.1 0.28700000048 
1.402769831 1.05 0.28700000048 1.402769831 1 0.28700000048 1.402769831 0.95 0.28700000048 
1.402769831 0.9 0.28700000048 1.402769831 0.85 0.28700000048 1.402769831 0.8 0.28700000048 
1.402769831 0.75 0.28700000048 1.402769831 0.7 0.28700000048 1.402769831 0.65 0.28700000048 
1.402769831 0.6 0.28700000048 1.402769831 0.55 0.28700000048 1.402769831 0.5 0.28700000048 
1.402769831 0.45 0.28700000048 1.402769831 0.4 0.28700000048 1.402769831 0.35 0.28700000048 
1.402769831 0.3 0.28700000048 1.402769831 0.25 0.28700000048 1.402769831 0.2 0.28700000048 
1.402769831 0.15 0.28700000048 1.402769831 0.1 0.28700000048 1.402769831 0.05 0.28700000048 
1.402769831 0 0.28700000048 1.4924835913 1.5 0.28700000048 1.4924835913 1.45 0.28700000048 
1.4924835913 1.4 0.28700000048 1.4924835913 1.35 0.28700000048 1.4924835913 1.3 0.28700000048 
1.4924835913 1.25 0.28700000048 1.4924835913 1.2 0.28700000048 1.4924835913 1.15 0.28700000048 
1.4924835913 1.1 0.28700000048 1.4924835913 1.05 0.28700000048 1.4924835913 1 0.28700000048 
1.4924835913 0.95 0.28700000048 1.4924835913 0.9 0.28700000048 1.4924835913 0.85 0.28700000048 
1.4924835913 0.8 0.28700000048 1.4924835913 0.75 0.28700000048 1.4924835913 0.7 0.28700000048 
1.4924835913 0.65 0.28700000048 1.4924835913 0.6 0.28700000048 1.4924835913 0.55 0.28700000048 
1.4924835913 0.5 0.28700000048 1.4924835913 0.45 0.28700000048 1.4924835913 0.4 0.28700000048 
1.4924835913 0.35 0.28700000048 1.4924835913 0.3 0.28700000048 1.4924835913 0.25 0.28700000048 
1.4924835913 0.2 0.28700000048 1.4924835913 0.15 0.28700000048 1.4924835913 0.1 0.28700000048 
1.4924835913 0.05 0.28700000048 1.4924835913 0 0.28700000048 1.5866058615 1.5 0.28700000048 
1.5866058615 1.45 0.28700000048 1.5866058615 1.4 0.28700000048 1.5866058615 1.35 0.28700000048 
1.5866058615 1.3 0.28700000048 1.5866058615 1.25 0.28700000048 1.5866058615 1.2 0.28700000048 
1.5866058615 1.15 0.28700000048 1.5866058615 1.1 0.28700000048 1.5866058615 1.05 0.28700000048 
1.5866058615 1 0.28700000048 1.5866058615 0.95 0.28700000048 1.5866058615 0.9 0.28700000048 
1.5866058615 0.85 0.28700000048 1.5866058615 0.8 0.28700000048 1.5866058615 0.75 0.28700000048 
1.5866058615 0.7 0.28700000048 1.5866058615 0.65 0.28700000048 1.5866058615 0.6 0.28700000048 
1.5866058615 0.55 0.28700000048 1.5866058615 0.5 0.28700000048 1.5866058615 0.45 0.28700000048 
1.5866058615 0.4 0.28700000048 1.5866058615 0.35 0.28700000048 1.5866058615 0.3 0.28700000048 
1.5866058615 0.25 0.28700000048 1.5866058615 0.2 0.28700000048 1.5866058615 0.15 0.28700000048 
1.5866058615 0.1 0.28700000048 1.5866058615 0.05 0.28700000048 1.5866058615 0 0.28700000048 
1.6853532746 1.5 0.28700000048 1.6853532746 1.45 0.28700000048 1.6853532746 1.4 0.28700000048 
1.6853532746 1.35 0.28700000048 1.6853532746 1.3 0.28700000048 1.6853532746 1.25 0.28700000048 
1.6853532746 1.2 0.28700000048 1.6853532746 1.15 0.28700000048 1.6853532746 1.1 0.28700000048 
1.6853532746 1.05 0.28700000048 1.6853532746 1 0.28700000048 1.6853532746 0.95 0.28700000048 
1.6853532746 0.9 0.28700000048 1.6853532746 0.85 0.28700000048 1.6853532746 0.8 0.28700000048 
1.6853532746 0.75 0.28700000048 1.6853532746 0.7 0.28700000048 1.6853532746 0.65 0.28700000048 
1.6853532746 0.6 0.28700000048 1.6853532746 0.55 0.28700000048 1.6853532746 0.5 0.28700000048 
1.6853532746 0.45 0.28700000048 1.6853532746 0.4 0.28700000048 1.6853532746 0.35 0.28700000048 
1.6853532746 0.3 0.28700000048 1.6853532746 0.25 0.28700000048 1.6853532746 0.2 0.28700000048 
1.6853532746 0.15 0.28700000048 1.6853532746 0.1 0.28700000048 1.6853532746 0.05 0.28700000048 
1.6853532746 0 0.28700000048 1.7889531088 1.5 0.28700000048 1.7889531088 1.45 0.28700000048 
1.7889531088 1.4 0.28700000048 1.7889531088 1.35 0.28700000048 1.7889531088 1.3 0.28700000048 
1.7889531088 1.25 0.28700000048 1.7889531088 1.2 0.28700000048 1.7889531088 1.15 0.28700000048 
1.7889531088 1.1 0.28700000048 1.7889531088 1.05 0.28700000048 1.7889531088 1 0.28700000048 
1.7889531088 0.95 0.28700000048 1.7889531088 0.9 0.28700000048 1.7889531088 0.85 0.28700000048 
1.7889531088 0.8 0.28700000048 1.7889531088 0.75 0.28700000048 1.7889531088 0.7 0.28700000048 
1.7889531088 0.65 0.28700000048 1.7889531088 0.6 0.28700000048 1.7889531088 0.55 0.28700000048 
1.7889531088 0.5 0.28700000048 1.7889531088 0.45 0.28700000048 1.7889531088 0.4 0.28700000048 
1.7889531088 0.35 0.28700000048 1.7889531088 0.3 0.28700000048 1.7889531088 0.25 0.28700000048 
1.7889531088 0.2 0.28700000048 1.7889531088 0.15 0.28700000048 1.7889531088 0.1 0.28700000048 
1.7889531088 0.05 0.28700000048 1.7889531088 0 0.28700000048 1.8976438108 1.5 0.28700000048 
1.8976438108 1.45 0.28700000048 1.8976438108 1.4 0.28700000048 1.8976438108 1.35 0.28700000048 
1.8976438108 1.3 0.28700000048 1.8976438108 1.25 0.28700000048 1.8976438108 1.2 0.28700000048 
1.8976438108 1.15 0.28700000048 1.8976438108 1.1 0.28700000048 1.8976438108 1.05 0.28700000048 
1.8976438108 1 0.28700000048 1.8976438108 0.95 0.28700000048 1.8976438108 0.9 0.28700000048 
1.8976438108 0.85 0.28700000048 1.8976438108 0.8 0.28700000048 1.8976438108 0.75 0.28700000048 
1.8976438108 0.7 0.28700000048 1.8976438108 0.65 0.28700000048 1.8976438108 0.6 0.28700000048 
1.8976438108 0.55 0.28700000048 1.8976438108 0.5 0.28700000048 1.8976438108 0.45 0.28700000048 
1.8976438108 0.4 0.28700000048 1.8976438108 0.35 0.28700000048 1.8976438108 0.3 0.28700000048 
1.8976438108 0.25 0.28700000048 1.8976438108 0.2 0.28700000048 1.8976438108 0.15 0.28700000048 
1.8976438108 0.1 0.28700000048 1.8976438108 0.05 0.28700000048 1.8976438108 0 0.28700000048 
2.0116755445 1.5 0.28700000048 2.0116755445 1.45 0.28700000048 2.0116755445 1.4 0.28700000048 
2.0116755445 1.35 0.28700000048 2.0116755445 1.3 0.28700000048 2.0116755445 1.25 0.28700000048 
2.0116755445 1.2 0.28700000048 2.0116755445 1.15 0.28700000048 2.0116755445 1.1 0.28700000048 
2.0116755445 1.05 0.28700000048 2.0116755445 1 0.28700000048 2.0116755445 0.95 0.28700000048 
2.0116755445 0.9 0.28700000048 2.0116755445 0.85 0.28700000048 2.0116755445 0.8 0.28700000048 
2.0116755445 0.75 0.28700000048 2.0116755445 0.7 0.28700000048 2.0116755445 0.65 0.28700000048 
2.0116755445 0.6 0.28700000048 2.0116755445 0.55 0.28700000048 2.0116755445 0.5 0.28700000048 
2.0116755445 0.45 0.28700000048 2.0116755445 0.4 0.28700000048 2.0116755445 0.35 0.28700000048 
2.0116755445 0.3 0.28700000048 2.0116755445 0.25 0.28700000048 2.0116755445 0.2 0.28700000048 
2.0116755445 0.15 0.28700000048 2.0116755445 0.1 0.28700000048 2.0116755445 0.05 0.28700000048 
2.0116755445 0 0.28700000048 2.1313107667 1.5 0.28700000048 2.1313107667 1.45 0.28700000048 
2.1313107667 1.4 0.28700000048 2.1313107667 1.35 0.28700000048 2.1313107667 1.3 0.28700000048 
2.1313107667 1.25 0.28700000048 2.1313107667 1.2 0.28700000048 2.1313107667 1.15 0.28700000048 
2.1313107667 1.1 0.28700000048 2.1313107667 1.05 0.28700000048 2.1313107667 1 0.28700000048 
2.1313107667 0.95 0.28700000048 2.1313107667 0.9 0.28700000048 2.1313107667 0.85 0.28700000048 
2.1313107667 0.8 0.28700000048 2.1313107667 0.75 0.28700000048 2.1313107667 0.7 0.28700000048 
2.1313107667 0.65 0.28700000048 2.1313107667 0.6 0.28700000048 2.1313107667 0.55 0.28700000048 
2.1313107667 0.5 0.28700000048 2.1313107667 0.45 0.28700000048 2.1313107667 0.4 0.28700000048 
2.1313107667 0.35 0.28700000048 2.1313107667 0.3 0.28700000048 2.1313107667 0.25 0.28700000048 
2.1313107667 0.2 0.28700000048 2.1313107667 0.15 0.28700000048 2.1313107667 0.1 0.28700000048 
2.1313107667 0.05 0.28700000048 2.1313107667 0 0.28700000048 2.2568248312 1.5 0.28700000048 
2.2568248312 1.45 0.28700000048 2.2568248312 1.4 0.28700000048 2.2568248312 1.35 0.28700000048 
2.2568248312 1.3 0.28700000048 2.2568248312 1.25 0.28700000048 2.2568248312 1.2 0.28700000048 
2.2568248312 1.15 0.28700000048 2.2568248312 1.1 0.28700000048 2.2568248312 1.05 0.28700000048 
2.2568248312 1 0.28700000048 2.2568248312 0.95 0.28700000048 2.2568248312 0.9 0.28700000048 
2.2568248312 0.85 0.28700000048 2.2568248312 0.8 0.28700000048 2.2568248312 0.75 0.28700000048 
2.2568248312 0.7 0.28700000048 2.2568248312 0.65 0.28700000048 2.2568248312 0.6 0.28700000048 
2.2568248312 0.55 0.28700000048 2.2568248312 0.5 0.28700000048 2.2568248312 0.45 0.28700000048 
2.2568248312 0.4 0.28700000048 2.2568248312 0.35 0.28700000048 2.2568248312 0.3 0.28700000048 
2.2568248312 0.25 0.28700000048 2.2568248312 0.2 0.28700000048 2.2568248312 0.15 0.28700000048 
2.2568248312 0.1 0.28700000048 2.2568248312 0.05 0.28700000048 2.2568248312 0 0.28700000048 
2.3885066229 1.5 0.28700000048 2.3885066229 1.45 0.28700000048 2.3885066229 1.4 0.28700000048 
2.3885066229 1.35 0.28700000048 2.3885066229 1.3 0.28700000048 2.3885066229 1.25 0.28700000048 
2.3885066229 1.2 0.28700000048 2.3885066229 1.15 0.28700000048 2.3885066229 1.1 0.28700000048 
2.3885066229 1.05 0.28700000048 2.3885066229 1 0.28700000048 2.3885066229 0.95 0.28700000048 
2.3885066229 0.9 0.28700000048 2.3885066229 0.85 0.28700000048 2.3885066229 0.8 0.28700000048 
2.3885066229 0.75 0.28700000048 2.3885066229 0.7 0.28700000048 2.3885066229 0.65 0.28700000048 
2.3885066229 0.6 0.28700000048 2.3885066229 0.55 0.28700000048 2.3885066229 0.5 0.28700000048 
2.3885066229 0.45 0.28700000048 2.3885066229 0.4 0.28700000048 2.3885066229 0.35 0.28700000048 
2.3885066229 0.3 0.28700000048 2.3885066229 0.25 0.28700000048 2.3885066229 0.2 0.28700000048 
2.3885066229 0.15 0.28700000048 2.3885066229 0.1 0.28700000048 2.3885066229 0.05 0.28700000048 
2.3885066229 0 0.28700000048 2.5266592222 1.5 0.28700000048 2.5266592222 1.45 0.28700000048 
2.5266592222 1.4 0.28700000048 2.5266592222 1.35 0.28700000048 2.5266592222 1.3 0.28700000048 
2.5266592222 1.25 0.28700000048 2.5266592222 1.2 0.28700000048 2.5266592222 1.15 0.28700000048 
2.5266592222 1.1 0.28700000048 2.5266592222 1.05 0.28700000048 2.5266592222 1 0.28700000048 
2.5266592222 0.95 0.28700000048 2.5266592222 0.9 0.28700000048 2.5266592222 0.85 0.28700000048 
2.5266592222 0.8 0.28700000048 2.5266592222 0.75 0.28700000048 2.5266592222 0.7 0.28700000048 
2.5266592222 0.65 0.28700000048 2.5266592222 0.6 0.28700000048 2.5266592222 0.55 0.28700000048 
2.5266592222 0.5 0.28700000048 2.5266592222 0.45 0.28700000048 2.5266592222 0.4 0.28700000048 
2.5266592222 0.35 0.28700000048 2.5266592222 0.3 0.28700000048 2.5266592222 0.25 0.28700000048 
2.5266592222 0.2 0.28700000048 2.5266592222 0.15 0.28700000048 2.5266592222 0.1 0.28700000048 
2.5266592222 0.05 0.28700000048 2.5266592222 0 0.28700000048 2.6716006028 1.5 0.28700000048 
2.6716006028 1.45 0.28700000048 2.6716006028 1.4 0.28700000048 2.6716006028 1.35 0.28700000048 
2.6716006028 1.3 0.28700000048 2.6716006028 1.25 0.28700000048 2.6716006028 1.2 0.28700000048 
2.6716006028 1.15 0.28700000048 2.6716006028 1.1 0.28700000048 2.6716006028 1.05 0.28700000048 
2.6716006028 1 0.28700000048 2.6716006028 0.95 0.28700000048 2.6716006028 0.9 0.28700000048 
2.6716006028 0.85 0.28700000048 2.6716006028 0.8 0.28700000048 2.6716006028 0.75 0.28700000048 
2.6716006028 0.7 0.28700000048 2.6716006028 0.65 0.28700000048 2.6716006028 0.6 0.28700000048 
2.6716006028 0.55 0.28700000048 2.6716006028 0.5 0.28700000048 2.6716006028 0.45 0.28700000048 
2.6716006028 0.4 0.28700000048 2.6716006028 0.35 0.28700000048 2.6716006028 0.3 0.28700000048 
2.6716006028 0.25 0.28700000048 2.6716006028 0.2 0.28700000048 2.6716006028 0.15 0.28700000048 
2.6716006028 0.1 0.28700000048 2.6716006028 0.05 0.28700000048 2.6716006028 0 0.28700000048 
2.8236643636 1.5 0.28700000048 2.8236643636 1.45 0.28700000048 2.8236643636 1.4 0.28700000048 
2.8236643636 1.35 0.28700000048 2.8236643636 1.3 0.28700000048 2.8236643636 1.25 0.28700000048 
2.8236643636 1.2 0.28700000048 2.8236643636 1.15 0.28700000048 2.8236643636 1.1 0.28700000048 
2.8236643636 1.05 0.28700000048 2.8236643636 1 0.28700000048 2.8236643636 0.95 0.28700000048 
2.8236643636 0.9 0.28700000048 2.8236643636 0.85 0.28700000048 2.8236643636 0.8 0.28700000048 
2.8236643636 0.75 0.28700000048 2.8236643636 0.7 0.28700000048 2.8236643636 0.65 0.28700000048 
2.8236643636 0.6 0.28700000048 2.8236643636 0.55 0.28700000048 2.8236643636 0.5 0.28700000048 
2.8236643636 0.45 0.28700000048 2.8236643636 0.4 0.28700000048 2.8236643636 0.35 0.28700000048 
2.8236643636 0.3 0.28700000048 2.8236643636 0.25 0.28700000048 2.8236643636 0.2 0.28700000048 
2.8236643636 0.15 0.28700000048 2.8236643636 0.1 0.28700000048 2.8236643636 0.05 0.28700000048 
2.8236643636 0 0.28700000048 2.9832004964 1.5 0.28700000048 2.9832004964 1.45 0.28700000048 
2.9832004964 1.4 0.28700000048 2.9832004964 1.35 0.28700000048 2.9832004964 1.3 0.28700000048 
2.9832004964 1.25 0.28700000048 2.9832004964 1.2 0.28700000048 2.9832004964 1.15 0.28700000048 
2.9832004964 1.1 0.28700000048 2.9832004964 1.05 0.28700000048 2.9832004964 1 0.28700000048 
2.9832004964 0.95 0.28700000048 2.9832004964 0.9 0.28700000048 2.9832004964 0.85 0.28700000048 
2.9832004964 0.8 0.28700000048 2.9832004964 0.75 0.28700000048 2.9832004964 0.7 0.28700000048 
2.9832004964 0.65 0.28700000048 2.9832004964 0.6 0.28700000048 2.9832004964 0.55 0.28700000048 
2.9832004964 0.5 0.28700000048 2.9832004964 0.45 0.28700000048 2.9832004964 0.4 0.28700000048 
2.9832004964 0.35 0.28700000048 2.9832004964 0.3 0.28700000048 2.9832004964 0.25 0.28700000048 
2.9832004964 0.2 0.28700000048 2.9832004964 0.15 0.28700000048 2.9832004964 0.1 0.28700000048 
2.9832004964 0.05 0.28700000048 2.9832004964 0 0.28700000048 3.1505761916 1.5 0.28700000048 
3.1505761916 1.45 0.28700000048 3.1505761916 1.4 0.28700000048 3.1505761916 1.35 0.28700000048 
3.1505761916 1.3 0.28700000048 3.1505761916 1.25 0.28700000048 3.1505761916 1.2 0.28700000048 
3.1505761916 1.15 0.28700000048 3.1505761916 1.1 0.28700000048 3.1505761916 1.05 0.28700000048 
3.1505761916 1 0.28700000048 3.1505761916 0.95 0.28700000048 3.1505761916 0.9 0.28700000048 
3.1505761916 0.85 0.28700000048 3.1505761916 0.8 0.28700000048 3.1505761916 0.75 0.28700000048 
3.1505761916 0.7 0.28700000048 3.1505761916 0.65 0.28700000048 3.1505761916 0.6 0.28700000048 
3.1505761916 0.55 0.28700000048 3.1505761916 0.5 0.28700000048 3.1505761916 0.45 0.28700000048 
3.1505761916 0.4 0.28700000048 3.1505761916 0.35 0.28700000048 3.1505761916 0.3 0.28700000048 
3.1505761916 0.25 0.28700000048 3.1505761916 0.2 0.28700000048 3.1505761916 0.15 0.28700000048 
3.1505761916 0.1 0.28700000048 3.1505761916 0.05 0.28700000048 3.1505761916 0 0.28700000048 
3.326176683 1.5 0.28700000048 3.326176683 1.45 0.28700000048 3.326176683 1.4 0.28700000048 
3.326176683 1.35 0.28700000048 3.326176683 1.3 0.28700000048 3.326176683 1.25 0.28700000048 
3.326176683 1.2 0.28700000048 3.326176683 1.15 0.28700000048 3.326176683 1.1 0.28700000048 
3.326176683 1.05 0.28700000048 3.326176683 1 0.28700000048 3.326176683 0.95 0.28700000048 
3.326176683 0.9 0.28700000048 3.326176683 0.85 0.28700000048 3.326176683 0.8 0.28700000048 
3.326176683 0.75 0.28700000048 3.326176683 0.7 0.28700000048 3.326176683 0.65 0.28700000048 
3.326176683 0.6 0.28700000048 3.326176683 0.55 0.28700000048 3.326176683 0.5 0.28700000048 
3.326176683 0.45 0.28700000048 3.326176683 0.4 0.28700000048 3.326176683 0.35 0.28700000048 
3.326176683 0.3 0.28700000048 3.326176683 0.25 0.28700000048 3.326176683 0.2 0.28700000048 
3.326176683 0.15 0.28700000048 3.326176683 0.1 0.28700000048 3.326176683 0.05 0.28700000048 
3.326176683 0 0.28700000048 3.5104061351 1.5 0.28700000048 3.5104061351 1.45 0.28700000048 
3.5104061351 1.4 0.28700000048 3.5104061351 1.35 0.28700000048 3.5104061351 1.3 0.28700000048 
3.5104061351 1.25 0.28700000048 3.5104061351 1.2 0.28700000048 3.5104061351 1.15 0.28700000048 
3.5104061351 1.1 0.28700000048 3.5104061351 1.05 0.28700000048 3.5104061351 1 0.28700000048 
3.5104061351 0.95 0.28700000048 3.5104061351 0.9 0.28700000048 3.5104061351 0.85 0.28700000048 
3.5104061351 0.8 0.28700000048 3.5104061351 0.75 0.28700000048 3.5104061351 0.7 0.28700000048 
3.5104061351 0.65 0.28700000048 3.5104061351 0.6 0.28700000048 3.5104061351 0.55 0.28700000048 
3.5104061351 0.5 0.28700000048 3.5104061351 0.45 0.28700000048 3.5104061351 0.4 0.28700000048 
3.5104061351 0.35 0.28700000048 3.5104061351 0.3 0.28700000048 3.5104061351 0.25 0.28700000048 
3.5104061351 0.2 0.28700000048 3.5104061351 0.15 0.28700000048 3.5104061351 0.1 0.28700000048 
3.5104061351 0.05 0.28700000048 3.5104061351 0 0.28700000048 3.7036885725 1.5 0.28700000048 
3.7036885725 1.45 0.28700000048 3.7036885725 1.4 0.28700000048 3.7036885725 1.35 0.28700000048 
3.7036885725 1.3 0.28700000048 3.7036885725 1.25 0.28700000048 3.7036885725 1.2 0.28700000048 
3.7036885725 1.15 0.28700000048 3.7036885725 1.1 0.28700000048 3.7036885725 1.05 0.28700000048 
3.7036885725 1 0.28700000048 3.7036885725 0.95 0.28700000048 3.7036885725 0.9 0.28700000048 
3.7036885725 0.85 0.28700000048 3.7036885725 0.8 0.28700000048 3.7036885725 0.75 0.28700000048 
3.7036885725 0.7 0.28700000048 3.7036885725 0.65 0.28700000048 3.7036885725 0.6 0.28700000048 
3.7036885725 0.55 0.28700000048 3.7036885725 0.5 0.28700000048 3.7036885725 0.45 0.28700000048 
3.7036885725 0.4 0.28700000048 3.7036885725 0.35 0.28700000048 3.7036885725 0.3 0.28700000048 
3.7036885725 0.25 0.28700000048 3.7036885725 0.2 0.28700000048 3.7036885725 0.15 0.28700000048 
3.7036885725 0.1 0.28700000048 3.7036885725 0.05 0.28700000048 3.7036885725 0 0.28700000048 
3.9064688566 1.5 0.28700000048 3.9064688566 1.45 0.28700000048 3.9064688566 1.4 0.28700000048 
3.9064688566 1.35 0.28700000048 3.9064688566 1.3 0.28700000048 3.9064688566 1.25 0.28700000048 
3.9064688566 1.2 0.28700000048 3.9064688566 1.15 0.28700000048 3.9064688566 1.1 0.28700000048 
3.9064688566 1.05 0.28700000048 3.9064688566 1 0.28700000048 3.9064688566 0.95 0.28700000048 
3.9064688566 0.9 0.28700000048 3.9064688566 0.85 0.28700000048 3.9064688566 0.8 0.28700000048 
3.9064688566 0.75 0.28700000048 3.9064688566 0.7 0.28700000048 3.9064688566 0.65 0.28700000048 
3.9064688566 0.6 0.28700000048 3.9064688566 0.55 0.28700000048 3.9064688566 0.5 0.28700000048 
3.9064688566 0.45 0.28700000048 3.9064688566 0.4 0.28700000048 3.9064688566 0.35 0.28700000048 
3.9064688566 0.3 0.28700000048 3.9064688566 0.25 0.28700000048 3.9064688566 0.2 0.28700000048 
3.9064688566 0.15 0.28700000048 3.9064688566 0.1 0.28700000048 3.9064688566 0.05 0.28700000048 
3.9064688566 0 0.28700000048 4.1192137089 1.5 0.28700000048 4.1192137089 1.45 0.28700000048 
4.1192137089 1.4 0.28700000048 4.1192137089 1.35 0.28700000048 4.1192137089 1.3 0.28700000048 
4.1192137089 1.25 0.28700000048 4.1192137089 1.2 0.28700000048 4.1192137089 1.15 0.28700000048 
4.1192137089 1.1 0.28700000048 4.1192137089 1.05 0.28700000048 4.1192137089 1 0.28700000048 
4.1192137089 0.95 0.28700000048 4.1192137089 0.9 0.28700000048 4.1192137089 0.85 0.28700000048 
4.1192137089 0.8 0.28700000048 4.1192137089 0.75 0.28700000048 4.1192137089 0.7 0.28700000048 
4.1192137089 0.65 0.28700000048 4.1192137089 0.6 0.28700000048 4.1192137089 0.55 0.28700000048 
4.1192137089 0.5 0.28700000048 4.1192137089 0.45 0.28700000048 4.1192137089 0.4 0.28700000048 
4.1192137089 0.35 0.28700000048 4.1192137089 0.3 0.28700000048 4.1192137089 0.25 0.28700000048 
4.1192137089 0.2 0.28700000048 4.1192137089 0.15 0.28700000048 4.1192137089 0.1 0.28700000048 
4.1192137089 0.05 0.28700000048 4.1192137089 0 0.28700000048 4.3424127856 1.5 0.28700000048 
4.3424127856 1.45 0.28700000048 4.3424127856 1.4 0.28700000048 4.3424127856 1.35 0.28700000048 
4.3424127856 1.3 0.28700000048 4.3424127856 1.25 0.28700000048 4.3424127856 1.2 0.28700000048 
4.3424127856 1.15 0.28700000048 4.3424127856 1.1 0.28700000048 4.3424127856 1.05 0.28700000048 
4.3424127856 1 0.28700000048 4.3424127856 0.95 0.28700000048 4.3424127856 0.9 0.28700000048 
4.3424127856 0.85 0.28700000048 4.3424127856 0.8 0.28700000048 4.3424127856 0.75 0.28700000048 
4.3424127856 0.7 0.28700000048 4.3424127856 0.65 0.28700000048 4.3424127856 0.6 0.28700000048 
4.3424127856 0.55 0.28700000048 4.3424127856 0.5 0.28700000048 4.3424127856 0.45 0.28700000048 
4.3424127856 0.4 0.28700000048 4.3424127856 0.35 0.28700000048 4.3424127856 0.3 0.28700000048 
4.3424127856 0.25 0.28700000048 4.3424127856 0.2 0.28700000048 4.3424127856 0.15 0.28700000048 
4.3424127856 0.1 0.28700000048 4.3424127856 0.05 0.28700000048 4.3424127856 0 0.28700000048 
4.5765798045 1.5 0.28700000048 4.5765798045 1.45 0.28700000048 4.5765798045 1.4 0.28700000048 
4.5765798045 1.35 0.28700000048 4.5765798045 1.3 0.28700000048 4.5765798045 1.25 0.28700000048 
4.5765798045 1.2 0.28700000048 4.5765798045 1.15 0.28700000048 4.5765798045 1.1 0.28700000048 
4.5765798045 1.05 0.28700000048 4.5765798045 1 0.28700000048 4.5765798045 0.95 0.28700000048 
4.5765798045 0.9 0.28700000048 4.5765798045 0.85 0.28700000048 4.5765798045 0.8 0.28700000048 
4.5765798045 0.75 0.28700000048 4.5765798045 0.7 0.28700000048 4.5765798045 0.65 0.28700000048 
4.5765798045 0.6 0.28700000048 4.5765798045 0.55 0.28700000048 4.5765798045 0.5 0.28700000048 
4.5765798045 0.45 0.28700000048 4.5765798045 0.4 0.28700000048 4.5765798045 0.35 0.28700000048 
4.5765798045 0.3 0.28700000048 4.5765798045 0.25 0.28700000048 4.5765798045 0.2 0.28700000048 
4.5765798045 0.15 0.28700000048 4.5765798045 0.1 0.28700000048 4.5765798045 0.05 0.28700000048 
4.5765798045 0 0.28700000048 4.8222537272 1.5 0.28700000048 4.8222537272 1.45 0.28700000048 
4.8222537272 1.4 0.28700000048 4.8222537272 1.35 0.28700000048 4.8222537272 1.3 0.28700000048 
4.8222537272 1.25 0.28700000048 4.8222537272 1.2 0.28700000048 4.8222537272 1.15 0.28700000048 
4.8222537272 1.1 0.28700000048 4.8222537272 1.05 0.28700000048 4.8222537272 1 0.28700000048 
4.8222537272 0.95 0.28700000048 4.8222537272 0.9 0.28700000048 4.8222537272 0.85 0.28700000048 
4.8222537272 0.8 0.28700000048 4.8222537272 0.75 0.28700000048 4.8222537272 0.7 0.28700000048 
4.8222537272 0.65 0.28700000048 4.8222537272 0.6 0.28700000048 4.8222537272 0.55 0.28700000048 
4.8222537272 0.5 0.28700000048 4.8222537272 0.45 0.28700000048 4.8222537272 0.4 0.28700000048 
4.8222537272 0.35 0.28700000048 4.8222537272 0.3 0.28700000048 4.8222537272 0.25 0.28700000048 
4.8222537272 0.2 0.28700000048 4.8222537272 0.15 0.28700000048 4.8222537272 0.1 0.28700000048 
4.8222537272 0.05 0.28700000048 4.8222537272 0 0.28700000048 -0.1 1.5 8.626563857e-20 
-0.1 1.45 -2.792176075e-19 -0.1 1.4 -3.4507974413e-19 -0.1 1.35 -2.7544216132e-20 
-0.1 1.3 0 -0.1 1.25 -2.9697932722e-20 -0.1 1.2 -3.7510316919e-19 
-0.1 1.15 -4.0906834251e-19 -0.1 1.1 0 -0.1 1.05 0 
-0.1 1 -3.6529477168e-19 -0.1 0.95 -3.8071887252e-19 -0.1 0.9 -3.7288660949e-19 
-0.1 0.85 6.3184215905e-18 -0.1 0.8 -2.1184560777e-19 -0.1 0.75 -1.5175134016e-20 
-0.1 0.7 1.1197501559e-18 -0.1 0.65 -1.6109846493e-19 -0.1 0.6 3.0736596404e-18 
-0.1 0.55 -8.7455350473e-20 -0.1 0.5 -1.8331800636e-20 -0.1 0.45 -1.3254787372e-19 
-0.1 0.4 -1.1761625554e-19 -0.1 0.35 0 -0.1 0.3 0 
-0.1 0.25 0 -0.1 0.2 -8.3520833577e-20 -0.1 0.15 0 
-0.1 0.1 0 -0.1 0.05 0 -0.1 0 -3.213069029e-20 
-0.0748 1.5 0 -0.0748 1.45 0 -0.0748 1.4 0 
-0.0748 1.35 0 -0.0748 1.3 0 -0.0748 1.25 0 
-0.0748 1.2 7.7203132306e-18 -0.0748 1.15 0 -0.0748 1.1 0 
-0.0748 1.05 6.2368764714e-18 -0.0748 1 0 -0.0748 0.95 3.7692866891e-18 
-0.0748 0.9 3.6630030794e-18 -0.0748 0.85 0 -0.0748 0.8 -2.1464056834e-18 
-0.0748 0.75 1.3748987721e-18 -0.0748 0.7 -1.0958315047e-18 -0.0748 0.65 -1.4056626531e-18 
-0.0748 0.6 -1.5481993143e-18 -0.0748 0.55 0 -0.0748 0.5 0 
-0.0748 0.45 5.5371578772e-19 -0.0748 0.4 0 -0.0748 0.35 -8.0508020774e-19 
-0.0748 0.3 -4.722080989e-22 -0.0748 0.25 8.3734562831e-20 -0.0748 0.2 0 
-0.0748 0.15 4.4392731034e-19 -0.0748 0.1 0 -0.0748 0.05 -6.426138058e-20 
-0.0748 0 -3.8127791736e-21 -0.0496 1.5 -1.1092208963e-19 -0.0496 1.45 2.8469569512e-20 
-0.0496 1.4 -1.1985989248e-20 -0.0496 1.35 -7.0741830154e-20 -0.0496 1.3 1.2797675733e-19 
-0.0496 1.25 -5.4661031918e-21 -0.0496 1.2 2.2934109811e-19 -0.0496 1.15 -4.719095283e-21 
-0.0496 1.1 -1.2894719529e-19 -0.0496 1.05 7.8701026632e-20 -0.0496 1 -4.4115404032e-21 
-0.0496 0.95 -5.8480461656e-21 -0.0496 0.9 1.0519851678e-19 -0.0496 0.85 -2.2531725217e-19 
-0.0496 0.8 4.0125158266e-20 -0.0496 0.75 -7.6169884653e-21 -0.0496 0.7 1.3628264265e-20 
-0.0496 0.65 4.5659361687e-20 -0.0496 0.6 -1.3844397835e-19 -0.0496 0.55 -7.5461530474e-22 
-0.0496 0.5 -1.2262354006e-20 -0.0496 0.45 1.9545888518e-20 -0.0496 0.4 -5.0017997064e-22 
-0.0496 0.35 -2.6443653942e-20 -0.0496 0.3 -3.2032000534e-20 -0.0496 0.25 -3.0131604776e-20 
-0.0496 0.2 6.5202688489e-22 -0.0496 0.15 1.7990052259e-20 -0.0496 0.1 -1.5679641488e-20 
-0.0496 0.05 4.8803575361e-20 -0.0496 0 -2.4687528499e-21 -0.0244 1.5 -7.0398272319e-20 
-0.0244 1.45 2.1053619055e-20 -0.0244 1.4 -6.5994646273e-21 -0.0244 1.35 0 
-0.0244 1.3 0 -0.0244 1.25 -2.9632336855e-22 -0.0244 1.2 1.3633350134e-20 
-0.0244 1.15 -4.6009427511e-22 -0.0244 1.1 0 -0.0244 1.05 1.0135534518e-20 
-0.0244 1 -1.8942066209e-22 -0.0244 0.95 -8.4500829346e-21 -0.0244 0.9 1.0752728386e-20 
-0.0244 0.85 -2.6902269753e-22 -0.0244 0.8 -8.9220988796e-23 -0.0244 0.75 -8.6672606584e-21 
-0.0244 0.7 6.6957709881e-21 -0.0244 0.65 -6.541086194e-21 -0.0244 0.6 -8.8926407182e-21 
-0.0244 0.55 -3.1441613701e-21 -0.0244 0.5 2.5428675058e-22 -0.0244 0.45 1.949116212e-21 
-0.0244 0.4 6.7371306245e-22 -0.0244 0.35 9.3164188917e-23 -0.0244 0.3 -4.1960266331e-22 
-0.0244 0.25 4.0322073599e-22 -0.0244 0.2 4.9103945321e-21 -0.0244 0.15 8.3491297413e-21 
-0.0244 0.1 -8.1350547526e-21 -0.0244 0.05 -6.5833406638e-21 -0.0244 0 -1.645835166e-21 
0.0008 1.5 -5.4257199758e-20 0.0008 1.45 6.780490471e-19 0.0008 1.4 -1.8062394696e-19 
0.0008 1.35 -7.5353194048e-20 0.0008 1.3 -3.6496868642e-21 0.0008 1.25 6.035345322e-22 
0.0008 1.2 -2.1118449335e-20 0.0008 1.15 4.7245235548e-22 0.0008 1.1 0 
0.0008 1.05 -1.9973421341e-20 0.0008 1 4.5928380572e-22 0.0008 0.95 5.3107479291e-22 
0.0008 0.9 5.5535343246e-22 0.0008 0.85 4.348927314e-22 0.0008 0.8 1.4388050661e-20 
0.0008 0.75 3.0681923231e-22 0.0008 0.7 5.5987521851e-21 0.0008 0.65 5.5655635825e-21 
0.0008 0.6 1.3681199533e-22 0.0008 0.55 -1.1464421983e-20 0.0008 0.5 1.4478356731e-22 
0.0008 0.45 -1.884135076e-21 0.0008 0.4 3.1526599643e-21 0.0008 0.35 6.9595390137e-21 
0.0008 0.3 -3.2944893295e-21 0.0008 0.25 -1.5206260776e-22 0.0008 0.2 4.3304908395e-21 
0.0008 0.15 7.0784478423e-21 0.0008 0.1 0 0.0008 0.05 -6.5375670414e-21 
0.0008 0 5.1542443879e-21 0.026 1.5 -5.2049777821e-20 0.026 1.45 -6.0489112577e-19 
0.026 1.4 -6.9263144643e-21 0.026 1.35 0 0.026 1.3 0 
0.026 1.25 7.7036419959e-23 0.026 1.2 1.305751348e-21 0.026 1.15 8.188836891e-23 
0.026 1.1 0 0.026 1.05 7.4318108778e-22 0.026 1 -2.706042816e-23 
0.026 0.95 2.961085207e-22 0.026 0.9 4.0683298687e-22 0.026 0.85 -1.8122646726e-23 
0.026 0.8 3.3670196195e-20 0.026 0.75 5.4130928497e-22 0.026 0.7 -1.5834719754e-23 
0.026 0.65 -2.4056720988e-22 0.026 0.6 -1.9818591649e-22 0.026 0.55 2.2588942406e-22 
0.026 0.5 -4.5286473252e-24 0.026 0.45 -2.347717896e-23 0.026 0.4 -7.7052815644e-23 
0.026 0.35 -1.65579468e-22 0.026 0.3 1.505876619e-23 0.026 0.25 1.8486493357e-22 
0.026 0.2 3.3418928775e-21 0.026 0.15 1.2812774041e-20 0.026 0.1 1.7080778817e-20 
0.026 0.05 -4.8672106958e-22 0.026 0 6.5008120302e-21 0.0512 1.5 0 
0.0512 1.45 -6.869360171e-19 0.0512 1.4 0 0.0512 1.35 0 
0.0512 1.3 -8.381724858e-20 0.0512 1.25 0 0.0512 1.2 6.9878079111e-20 
0.0512 1.15 0 0.0512 1.1 0 0.0512 1.05 6.8992252686e-20 
0.0512 1 0 0.0512 0.95 0 0.0512 0.9 1.5286194322e-18 
0.0512 0.85 1.5286130216e-18 0.0512 0.8 0 0.0512 0.75 3.0572130151e-18 
0.0512 0.7 -3.4525484792e-20 0.0512 0.65 -1.5286048532e-18 0.0512 0.6 -6.8942583075e-20 
0.0512 0.55 1.5286153997e-18 0.0512 0.5 0 0.0512 0.45 0 
0.0512 0.4 0 0.0512 0.35 0 0.0512 0.3 -1.5830589025e-20 
0.0512 0.25 7.6705162598e-20 0.0512 0.2 0 0.0512 0.15 3.0384117814e-20 
0.0512 0.1 0 0.0512 0.05 -2.080259882e-20 0.0512 0 2.8846046551e-20 
0.0764 1.5 1.7428364634e-19 0.0764 1.45 5.1584879698e-20 0.0764 1.4 3.3859993174e-18 
0.0764 1.35 -2.9961313103e-18 0.0764 1.3 0 0.0764 1.25 7.633537409e-20 
0.0764 1.2 3.1346371204e-18 0.0764 1.15 3.1334300571e-18 0.0764 1.1 -3.0572810507e-18 
0.0764 1.05 3.0572202529e-18 0.0764 1 7.6430874677e-20 0.0764 0.95 -1.4521845315e-18 
0.0764 0.9 1.6050504039e-18 0.0764 0.85 -1.047413444e-19 0.0764 0.8 4.0849111003e-18 
0.0764 0.75 1.6050368588e-18 0.0764 0.7 4.0849098595e-18 0.0764 0.65 1.9900846776e-18 
0.0764 0.6 -1.0474135086e-19 0.0764 0.55 -1.0474116345e-19 0.0764 0.5 -1.0474154473e-19 
0.0764 0.45 -1.0474043967e-19 0.0764 0.4 -1.0474482114e-19 0.0764 0.35 2.0421668641e-18 
0.0764 0.3 -1.0480382497e-18 0.0764 0.25 0 0.0764 0.2 7.5297934506e-20 
0.0764 0.15 0 0.0764 0.1 1.1421999411e-19 0.0764 0.05 3.0769115459e-19 
0.0764 0 3.8397868933e-22 -10.16 1.5 -3.035811918e-23 -10.16 1.45 -1.2203765767e-23 
-10.16 1.4 -1.5645167522e-23 -10.16 1.35 0 -10.16 1.3 0 
-10.16 1.25 -1.3057401619e-23 -10.16 1.2 -1.2810620684e-23 -10.16 1.15 -1.261654828e-23 
-10.16 1.1 1.4636993819e-23 -10.16 1.05 0 -10.16 1 0 
-10.16 0.95 -2.4504870659e-23 -10.16 0.9 0 -10.16 0.85 -4.9031549852e-22 
-10.16 0.8 0 -10.16 0.75 -1.2382490094e-23 -10.16 0.7 -4.9942740996e-22 
-10.16 0.65 0 -10.16 0.6 -5.8749261024e-22 -10.16 0.55 0 
-10.16 0.5 0 -10.16 0.45 0 -10.16 0.4 0 
-10.16 0.35 -1.4457710979e-23 -10.16 0.3 -1.5225316816e-23 -10.16 0.25 0 
-10.16 0.2 0 -10.16 0.15 1.5146582186e-23 -10.16 0.1 -1.4030208006e-22 
-10.16 0.05 0 -10.16 0 0 -9.9062046129 1.5 -5.0088073156e-23 
-9.9062046129 1.45 1.0615386919e-21 -9.9062046129 1.4 -3.4303194423e-24 -9.9062046129 1.35 0 
-9.9062046129 1.3 0 -9.9062046129 1.25 -2.2963955423e-25 -9.9062046129 1.2 1.4377674334e-24 
-9.9062046129 1.15 -1.4167091367e-25 -9.9062046129 1.1 0 -9.9062046129 1.05 2.604325671e-25 
-9.9062046129 1 0 -9.9062046129 0.95 -3.053458697e-27 -9.9062046129 0.9 0 
-9.9062046129 0.85 0 -9.9062046129 0.8 1.0404385087e-25 -9.9062046129 0.75 -1.1357575579e-26 
-9.9062046129 0.7 1.4443352921e-25 -9.9062046129 0.65 -3.4024261095e-25 -9.9062046129 0.6 7.1828965516e-26 
-9.9062046129 0.55 -2.1713495024e-25 -9.9062046129 0.5 0 -9.9062046129 0.45 1.1212178654e-25 
-9.9062046129 0.4 0 -9.9062046129 0.35 7.9254242046e-25 -9.9062046129 0.3 -1.0221011904e-25 
-9.9062046129 0.25 0 -9.9062046129 0.2 0 -9.9062046129 0.15 -1.1928149916e-22 
-9.9062046129 0.1 -4.1121990547e-23 -9.9062046129 0.05 0 -9.9062046129 0 0 
-9.6581863142 1.5 1.0140924319e-22 -9.6581863142 1.45 -2.6540414207e-23 -9.6581863142 1.4 6.9539390416e-24 
-9.6581863142 1.35 0 -9.6581863142 1.3 -1.8645814545e-23 -9.6581863142 1.25 -1.1829329192e-25 
-9.6581863142 1.2 1.0949318367e-24 -9.6581863142 1.15 0 -9.6581863142 1.1 0 
-9.6581863142 1.05 6.3201760789e-25 -9.6581863142 1 0 -9.6581863142 0.95 -1.408792178e-26 
-9.6581863142 0.9 1.1406041221e-25 -9.6581863142 0.85 0 -9.6581863142 0.8 4.7498301179e-26 
-9.6581863142 0.75 8.6078381914e-26 -9.6581863142 0.7 5.8871999103e-25 -9.6581863142 0.65 1.6058940055e-25 
-9.6581863142 0.6 5.3120512851e-25 -9.6581863142 0.55 0 -9.6581863142 0.5 0 
-9.6581863142 0.45 0 -9.6581863142 0.4 -8.5302980948e-26 -9.6581863142 0.35 5.7754010637e-25 
-9.6581863142 0.3 -1.0727822002e-24 -9.6581863142 0.25 2.8411714942e-24 -9.6581863142 0.2 0 
-9.6581863142 0.15 -3.9795710262e-23 -9.6581863142 0.1 3.0175579922e-23 -9.6581863142 0.05 5.7658663978e-23 
-9.6581863142 0 0 -9.4158136012 1.5 1.0260760495e-22 -9.4158136012 1.45 -2.6862319944e-23 
-9.4158136012 1.4 7.0690496249e-24 -9.4158136012 1.35 7.4234285049e-23 -9.4158136012 1.3 -4.6426722387e-25 
-9.4158136012 1.25 -1.138504273e-25 -9.4158136012 1.2 4.9727770009e-26 -9.4158136012 1.15 0 
-9.4158136012 1.1 0 -9.4158136012 1.05 -4.6528988342e-26 -9.4158136012 1 0 
-9.4158136012 0.95 6.4394079674e-25 -9.4158136012 0.9 3.0793086828e-25 -9.4158136012 0.85 0 
-9.4158136012 0.8 1.6058940055e-25 -9.4158136012 0.75 3.4945108291e-26 -9.4158136012 0.7 -2.1907357591e-25 
-9.4158136012 0.65 1.201997222e-25 -9.4158136012 0.6 3.4638192095e-25 -9.4158136012 0.55 4.1358991185e-26 
-9.4158136012 0.5 0 -9.4158136012 0.45 0 -9.4158136012 0.4 0 
-9.4158136012 0.35 -3.6431692015e-27 -9.4158136012 0.3 6.505161496e-26 -9.4158136012 0.25 2.8385865449e-26 
-9.4158136012 0.2 0 -9.4158136012 0.15 -9.0172386602e-24 -9.4158136012 0.1 2.6355525721e-23 
-9.4158136012 0.05 5.033641919e-23 -9.4158136012 0 0 -9.1789579647 1.5 1.0451931784e-22 
-9.1789579647 1.45 -2.7341341529e-23 -9.1789579647 1.4 -2.8071780658e-22 -9.1789579647 1.35 7.5510598885e-23 
-9.1789579647 1.3 0 -9.1789579647 1.25 0 -9.1789579647 1.2 1.409567431e-24 
-9.1789579647 1.15 2.1863748374e-25 -9.1789579647 1.1 -4.0583540915e-25 -9.1789579647 1.05 0 
-9.1789579647 1 2.4944669292e-25 -9.1789579647 0.95 -4.1391383786e-26 -9.1789579647 0.9 1.6252802623e-25 
-9.1789579647 0.85 0 -9.1789579647 0.8 0 -9.1789579647 0.75 -2.4495536266e-25 
-9.1789579647 0.7 -6.3654172518e-26 -9.1789579647 0.65 -1.7125184176e-26 -9.1789579647 0.6 -9.6931283729e-28 
-9.1789579647 0.55 0 -9.1789579647 0.5 1.8482320756e-25 -9.1789579647 0.45 0 
-9.1789579647 0.4 1.4184853063e-25 -9.1789579647 0.35 -2.1577783831e-25 -9.1789579647 0.3 5.4146401806e-26 
-9.1789579647 0.25 4.5473930269e-24 -9.1789579647 0.2 -8.5668937466e-24 -9.1789579647 0.15 0 
-9.1789579647 0.1 2.4743169762e-23 -9.1789579647 0.05 4.7207834706e-23 -9.1789579647 0 0 
-8.9474938207 1.5 -1.0714942428e-22 -8.9474938207 1.45 2.8044929726e-23 -8.9474938207 1.4 -7.378434561e-24 
-8.9474938207 1.35 0 -8.9474938207 1.3 0 -8.9474938207 1.25 6.017714975e-24 
-8.9474938207 1.2 1.1984585892e-24 -8.9474938207 1.15 4.2166834055e-27 -8.9474938207 1.1 -2.1196495308e-25 
-8.9474938207 1.05 6.656211103e-26 -8.9474938207 1 0 -8.9474938207 0.95 -1.6640527758e-27 
-8.9474938207 0.9 0 -8.9474938207 0.85 1.2730834504e-25 -8.9474938207 0.8 1.4443352921e-25 
-8.9474938207 0.75 -3.6593038722e-27 -8.9474938207 0.7 1.4637215489e-25 -8.9474938207 0.65 -2.8175843559e-25 
-8.9474938207 0.6 -1.796532104e-25 -8.9474938207 0.55 -2.8983637126e-25 -8.9474938207 0.5 1.567121492e-26 
-8.9474938207 0.45 6.0099861102e-26 -8.9474938207 0.4 0 -8.9474938207 0.35 1.16887739e-26 
-8.9474938207 0.3 -1.0989062165e-24 -8.9474938207 0.25 1.949997499e-24 -8.9474938207 0.2 0 
-8.9474938207 0.15 -3.7661469171e-23 -8.9474938207 0.1 -2.3919220323e-23 -8.9474938207 0.05 0 
-8.9474938207 0 0 -8.7212984439 1.5 1.1049045847e-22 -8.7212984439 1.45 -1.1851972458e-21 
-8.7212984439 1.4 7.5864414045e-24 -8.7212984439 1.35 0 -8.7212984439 1.3 0 
-8.7212984439 1.25 -1.4777775711e-25 -8.7212984439 1.2 1.3930076629e-24 -8.7212984439 1.15 8.014605423e-25 
-8.7212984439 1.1 0 -8.7212984439 1.05 -5.7967274253e-25 -8.7212984439 1 0 
-8.7212984439 0.95 -5.2021925433e-27 -8.7212984439 0.9 0 -8.7212984439 0.85 5.7870342969e-25 
-8.7212984439 0.8 4.2716127764e-25 -8.7212984439 0.75 6.9147109609e-27 -8.7212984439 0.7 2.2424357307e-25 
-8.7212984439 0.65 6.927638419e-25 -8.7212984439 0.6 6.119844852e-25 -8.7212984439 0.55 0 
-8.7212984439 0.5 7.9024141181e-26 -8.7212984439 0.45 -5.5576236849e-26 -8.7212984439 0.4 0 
-8.7212984439 0.35 -9.265393199e-27 -8.7212984439 0.3 -1.0909575555e-24 -8.7212984439 0.25 2.1989756085e-24 
-8.7212984439 0.2 -8.0862565743e-24 -8.7212984439 0.15 -3.0891802515e-23 -8.7212984439 0.1 2.3601757452e-23 
-8.7212984439 0.05 1.8034869858e-22 -8.7212984439 0 0 -8.5002519025 1.5 1.145552757e-22 
-8.5002519025 1.45 -1.2291799899e-21 -8.5002519025 1.4 7.861495114e-24 -8.5002519025 1.35 0 
-8.5002519025 1.3 0 -8.5002519025 1.25 5.9208523221e-24 -8.5002519025 1.2 1.409567431e-24 
-8.5002519025 1.15 2.8164538197e-25 -8.5002519025 1.1 0 -8.5002519025 1.05 3.5736779513e-25 
-8.5002519025 1 0 -8.5002519025 0.95 -4.3155567662e-25 -8.5002519025 0.9 -1.6866733622e-25 
-8.5002519025 0.85 0 -8.5002519025 0.8 -5.1601857001e-25 -8.5002519025 0.75 -8.0294700276e-27 
-8.5002519025 0.7 -3.806322893e-25 -8.5002519025 0.65 -7.3670733862e-26 -8.5002519025 0.6 2.3264494171e-26 
-8.5002519025 0.55 0 -8.5002519025 0.5 7.5932792508e-27 -8.5002519025 0.45 -2.7788118424e-26 
-8.5002519025 0.4 -3.5543114161e-27 -8.5002519025 0.35 6.9214182508e-25 -8.5002519025 0.3 5.0915227539e-26 
-8.5002519025 0.25 4.3414056673e-24 -8.5002519025 0.2 0 -8.5002519025 0.15 -3.1043263809e-23 
-8.5002519025 0.1 1.4220426983e-22 -8.5002519025 0.05 -1.8088103454e-22 -8.5002519025 0 0 
-8.2842369946 1.5 -1.1879659582e-22 -8.2842369946 1.45 3.1101216686e-23 -8.2842369946 1.4 -8.1369527204e-24 
-8.2842369946 1.35 0 -8.2842369946 1.3 0 -8.2842369946 1.25 7.4292775338e-26 
-8.2842369946 1.2 1.4058595876e-24 -8.2842369946 1.15 2.3991478799e-27 -8.2842369946 1.1 0 
-8.2842369946 1.05 -4.9889338583e-25 -8.2842369946 1 0 -8.2842369946 0.95 1.1260644295e-26 
-8.2842369946 0.9 5.5026893836e-25 -8.2842369946 0.85 0 -8.2842369946 0.8 -4.4525577466e-25 
-8.2842369946 0.75 -1.8761809244e-25 -8.2842369946 0.7 -2.756191256e-25 -8.2842369946 0.65 9.5965915196e-26 
-8.2842369946 0.6 2.8175843559e-25 -8.2842369946 0.55 1.0598247654e-25 -8.2842369946 0.5 9.0472485068e-27 
-8.2842369946 0.45 1.1632247086e-26 -8.2842369946 0.4 -1.0145885229e-25 -8.2842369946 0.35 1.7760959227e-25 
-8.2842369946 0.3 -6.7676944053e-26 -8.2842369946 0.25 -4.1515742777e-25 -8.2842369946 0.2 0 
-8.2842369946 0.15 -3.7709936785e-23 -8.2842369946 0.1 -2.3995960712e-23 -8.2842369946 0.05 -1.8323252161e-22 
-8.2842369946 0 0 -8.0731391864 1.5 -6.2149844749e-23 -8.0731391864 1.45 1.6267727082e-23 
-8.0731391864 1.4 -4.2607312291e-24 -8.0731391864 1.35 0 -8.0731391864 1.3 0 
-8.0731391864 1.25 8.0755123874e-26 -8.0731391864 1.2 2.2195096579e-24 -8.0731391864 1.15 1.4112154601e-26 
-8.0731391864 1.1 0 -8.0731391864 1.05 -1.4682456662e-24 -8.0731391864 1 0 
-8.0731391864 0.95 3.9762834681e-25 -8.0731391864 0.9 2.3522944725e-25 -8.0731391864 0.85 0 
-8.0731391864 0.8 -4.0486609631e-25 -8.0731391864 0.75 3.1555644152e-25 -8.0731391864 0.7 -7.3670733862e-26 
-8.0731391864 0.65 -3.2408673962e-25 -8.0731391864 0.6 1.2730834504e-25 -8.0731391864 0.55 -1.8482320756e-25 
-8.0731391864 0.5 1.2467946607e-25 -8.0731391864 0.45 0 -8.0731391864 0.4 0 
-8.0731391864 0.35 2.0305508963e-25 -8.0731391864 0.3 -5.5560040548e-26 -8.0731391864 0.25 -4.7089032253e-24 
-8.0731391864 0.2 8.4194714207e-24 -8.0731391864 0.15 -3.8856195856e-23 -8.0731391864 0.1 -1.47380611e-22 
-8.0731391864 0.05 1.8781432672e-22 -8.0731391864 0 -1.1776715127e-23 -7.8668465509 1.5 0 
-7.8668465509 1.45 -1.3605163187e-21 -7.8668465509 1.4 0 -7.8668465509 1.35 0 
-7.8668465509 1.3 0 -7.8668465509 1.25 0 -7.8668465509 1.2 1.2459407188e-24 
-7.8668465509 1.15 0 -7.8668465509 1.1 0 -7.8668465509 1.05 0 
-7.8668465509 1 -1.0582076005e-27 -7.8668465509 0.95 0 -7.8668465509 0.9 2.9160544115e-25 
-7.8668465509 0.85 -2.5038361315e-25 -7.8668465509 0.8 -2.3850908716e-25 -7.8668465509 0.75 -2.8579740343e-25 
-7.8668465509 0.7 -9.4317935461e-26 -7.8668465509 0.65 3.5392663595e-25 -7.8668465509 0.6 -3.0636374678e-25 
-7.8668465509 0.55 1.620756638e-25 -7.8668465509 0.5 -1.4184853063e-26 -7.8668465509 0.45 -7.8283252879e-26 
-7.8668465509 0.4 -2.1253046774e-26 -7.8668465509 0.35 1.0477083549e-26 -7.8668465509 0.3 -6.2325311672e-26 
-7.8668465509 0.25 -4.5857633199e-25 -7.8668465509 0.2 -1.7442767744e-24 -7.8668465509 0.15 -3.9907943081e-23 
-7.8668465509 0.1 0 -7.8668465509 0.05 4.8354598648e-23 -7.8668465509 0 0 
-7.6652497092 1.5 1.3623362776e-22 -7.6652497092 1.45 -3.5658586042e-23 -7.6652497092 1.4 9.348239174e-24 
-7.6652497092 1.35 -9.9203184203e-23 -7.6652497092 1.3 0 -7.6652497092 1.25 0 
-7.6652497092 1.2 1.2853691701e-24 -7.6652497092 1.15 -3.8119780396e-26 -7.6652497092 1.1 0 
-7.6652497092 1.05 -5.3928306418e-25 -7.6652497092 1 0 -7.6652497092 0.95 -7.1836282201e-25 
-7.6652497092 0.9 3.2214811394e-25 -7.6652497092 0.85 -2.130959824e-25 -7.6652497092 0.8 2.7303462006e-26 
-7.6652497092 0.75 -4.9873216238e-26 -7.6652497092 0.7 7.5771076023e-26 -7.6652497092 0.65 -7.3670733862e-26 
-7.6652497092 0.6 1.1147590667e-26 -7.6652497092 0.55 -1.2310766072e-25 -7.6652497092 0.5 0 
-7.6652497092 0.45 0 -7.6652497092 0.4 0 -7.6652497092 0.35 2.7004944713e-25 
-7.6652497092 0.3 0 -7.6652497092 0.25 0 -7.6652497092 0.2 0 
-7.6652497092 0.15 -3.4524857238e-23 -7.6652497092 0.1 2.6230317718e-23 -7.6652497092 0.05 5.013426885e-23 
-7.6652497092 0 1.2533567213e-23 -7.4682417717 1.5 -1.4247161163e-22 -7.4682417717 1.45 3.7287905667e-23 
-7.4682417717 1.4 -4.0094707478e-22 -7.4682417717 1.35 1.0351680185e-22 -7.4682417717 1.3 -2.6594501666e-23 
-7.4682417717 1.25 9.1054491852e-26 -7.4682417717 1.2 1.6451684318e-24 -7.4682417717 1.15 1.1890722292e-26 
-7.4682417717 1.1 2.8078912276e-25 -7.4682417717 1.05 -4.7465957882e-25 -7.4682417717 1 0 
-7.4682417717 0.95 -3.0918710462e-25 -7.4682417717 0.9 -1.4847249705e-25 -7.4682417717 0.85 2.4847738008e-25 
-7.4682417717 0.8 7.5771076023e-26 -7.4682417717 0.75 7.7661236055e-26 -7.4682417717 0.7 -2.4540772508e-25 
-7.4682417717 0.65 2.7303462006e-26 -7.4682417717 0.6 -2.0388701741e-25 -7.4682417717 0.55 0 
-7.4682417717 0.5 -1.948397689e-25 -7.4682417717 0.45 1.2617731571e-25 -7.4682417717 0.4 0 
-7.4682417717 0.35 -2.7416515634e-25 -7.4682417717 0.3 -1.5738888339e-24 -7.4682417717 0.25 4.4946079771e-24 
-7.4682417717 0.2 0 -7.4682417717 0.15 -4.2814788231e-23 -7.4682417717 0.1 -2.7222488589e-23 
-7.4682417717 0.05 0 -7.4682417717 0 0 -7.2757182825 1.5 0 
-7.2757182825 1.45 0 -7.2757182825 1.4 -4.13188328e-22 -7.2757182825 1.35 0 
-7.2757182825 1.3 0 -7.2757182825 1.25 0 -7.2757182825 1.2 1.9810328647e-24 
-7.2757182825 1.15 0 -7.2757182825 1.1 0 -7.2757182825 1.05 -3.8451052673e-26 
-7.2757182825 1 2.7040086001e-25 -7.2757182825 0.95 -3.8451052673e-26 -7.2757182825 0.9 -2.2930031938e-25 
-7.2757182825 0.85 4.5963473681e-27 -7.2757182825 0.8 -9.7662212662e-27 -7.2757182825 0.75 4.9436926854e-26 
-7.2757182825 0.7 5.078921687e-25 -7.2757182825 0.65 1.3893245699e-25 -7.2757182825 0.6 2.1328989427e-25 
-7.2757182825 0.55 -5.2797425007e-26 -7.2757182825 0.5 1.0924604341e-25 -7.2757182825 0.45 -1.0679840524e-25 
-7.2757182825 0.4 -1.4492622215e-25 -7.2757182825 0.35 1.0339919373e-24 -7.2757182825 0.3 -1.4593840958e-24 
-7.2757182825 0.25 4.8648803534e-24 -7.2757182825 0.2 -1.1845775955e-23 -7.2757182825 0.15 -7.5031424261e-24 
-7.2757182825 0.1 0 -7.2757182825 0.05 5.4526444422e-23 -7.2757182825 0 0 
-7.0875771629 1.5 0 -7.0875771629 1.45 1.6571865841e-21 -7.0875771629 1.4 0 
-7.0875771629 1.35 0 -7.0875771629 1.3 0 -7.0875771629 1.25 0 
-7.0875771629 1.2 1.779084473e-24 -7.0875771629 1.15 0 -7.0875771629 1.1 0 
-7.0875771629 1.05 -2.5655531575e-25 -7.0875771629 1 1.6861887058e-25 -7.0875771629 0.95 6.9631766028e-26 
-7.0875771629 0.9 -4.325410625e-25 -7.0875771629 0.85 1.567121492e-27 -7.0875771629 0.8 1.222111696e-25 
-7.0875771629 0.75 -4.7498301179e-26 -7.0875771629 0.7 -5.2586947056e-27 -7.0875771629 0.65 7.9559629824e-26 
-7.0875771629 0.6 -3.7458187407e-25 -7.0875771629 0.55 5.0802099954e-26 -7.0875771629 0.5 2.6517559329e-27 
-7.0875771629 0.45 -1.6427283864e-25 -7.0875771629 0.4 1.1675846442e-25 -7.0875771629 0.35 3.6845082246e-25 
-7.0875771629 0.3 -1.6438639516e-24 -7.0875771629 0.25 -5.3188359819e-25 -7.0875771629 0.2 8.3640886519e-24 
-7.0875771629 0.15 -4.7092055168e-23 -7.0875771629 0.1 0 -7.0875771629 0.05 5.7113504294e-23 
-7.0875771629 0 0 -6.903718658 1.5 -8.4222097146e-23 -6.903718658 1.45 1.7858631516e-21 
-6.903718658 1.4 -5.7839269738e-24 -6.903718658 1.35 0 -6.903718658 1.3 0 
-6.903718658 1.25 1.0811913095e-25 -6.903718658 1.2 2.0519934669e-24 -6.903718658 1.15 1.461702558e-26 
-6.903718658 1.1 0 -6.903718658 1.05 0 -6.903718658 1 0 
-6.903718658 0.95 5.6060893268e-27 -6.903718658 0.9 -7.1732108188e-26 -6.903718658 0.85 0 
-6.903718658 0.8 0 -6.903718658 0.75 -1.538845759e-27 -6.903718658 0.7 2.6463325142e-25 
-6.903718658 0.65 -1.7125184176e-26 -6.903718658 0.6 -5.9970586521e-25 -6.903718658 0.55 -6.7693140353e-26 
-6.903718658 0.5 0 -6.903718658 0.45 1.7125184176e-26 -6.903718658 0.4 0 
-6.903718658 0.35 8.2285489378e-25 -6.903718658 0.3 -1.5293592135e-24 -6.903718658 0.25 -5.7893757347e-25 
-6.903718658 0.2 -7.2518657977e-26 -6.903718658 0.15 -4.9889848187e-23 -6.903718658 0.1 -3.1693625982e-23 
-6.903718658 0.05 0 -6.903718658 0 -1.5255907264e-23 -6.7240452836 1.5 0 
-6.7240452836 1.45 3.7369463409e-21 -6.7240452836 1.4 0 -6.7240452836 1.35 0 
-6.7240452836 1.3 0 -6.7240452836 1.25 -9.2069076431e-24 -6.7240452836 1.2 2.0052666717e-24 
-6.7240452836 1.15 0 -6.7240452836 1.1 0 -6.7240452836 1.05 3.4250368352e-26 
-6.7240452836 1 9.6127631682e-28 -6.7240452836 0.95 -4.3459333345e-26 -6.7240452836 0.9 -1.5255993052e-25 
-6.7240452836 0.85 3.6660915272e-25 -6.7240452836 0.8 4.0372722768e-25 -6.7240452836 0.75 -3.7772435079e-25 
-6.7240452836 0.7 3.5946010077e-25 -6.7240452836 0.65 -1.7981443385e-26 -6.7240452836 0.6 3.9905021929e-27 
-6.7240452836 0.55 8.5948860814e-27 -6.7240452836 0.5 5.5002685667e-26 -6.7240452836 0.45 1.9406436794e-25 
-6.7240452836 0.4 -2.6737947344e-27 -6.7240452836 0.35 5.8473752536e-25 -6.7240452836 0.3 -8.2217228258e-26 
-6.7240452836 0.25 2.750621898e-24 -6.7240452836 0.2 9.2946668411e-24 -6.7240452836 0.15 -9.6840589968e-23 
-6.7240452836 0.1 -8.3793556348e-23 -6.7240452836 0.05 2.5609994421e-22 -6.7240452836 0 0 
-6.5484617746 1.5 0 -6.5484617746 1.45 -4.0095282021e-21 -6.5484617746 1.4 0 
-6.5484617746 1.35 0 -6.5484617746 1.3 0 -6.5484617746 1.25 0 
-6.5484617746 1.2 2.3930075838e-24 -6.5484617746 1.15 0 -6.5484617746 1.1 -1.2310766072e-25 
-6.5484617746 1.05 -2.0808770173e-25 -6.5484617746 1 1.3651731003e-27 -6.5484617746 0.95 -1.3538628071e-25 
-6.5484617746 0.9 9.2084719543e-28 -6.5484617746 0.85 -3.9186024517e-26 -6.5484617746 0.8 6.2595964918e-26 
-6.5484617746 0.75 0 -6.5484617746 0.7 -1.0177784792e-27 -6.5484617746 0.65 1.7690698838e-27 
-6.5484617746 0.6 -1.960999249e-25 -6.5484617746 0.55 -1.6608233764e-26 -6.5484617746 0.5 -7.3186077444e-27 
-6.5484617746 0.45 2.406415261e-26 -6.5484617746 0.4 -1.3579007888e-26 -6.5484617746 0.35 1.9564761178e-26 
-6.5484617746 0.3 -8.5650350917e-26 -6.5484617746 0.25 -6.4961951057e-25 -6.5484617746 0.2 -2.4597799263e-24 
-6.5484617746 0.15 -5.6053717e-23 -6.5484617746 0.1 -1.7809549726e-22 -6.5484617746 0.05 0 
-6.5484617746 0 0 -6.3768750341 1.5 -1.0031970637e-22 -6.3768750341 1.45 2.6253974079e-23 
-6.3768750341 1.4 -6.8939367034e-24 -6.3768750341 1.35 0 -6.3768750341 1.3 -3.8089407279e-23 
-6.3768750341 1.25 1.2144772481e-25 -6.3768750341 1.2 2.4189336947e-24 -6.3768750341 1.15 7.5049682446e-25 
-6.3768750341 1.1 0 -6.3768750341 1.05 -2.3232150874e-25 -6.3768750341 1 1.4039456138e-25 
-6.3768750341 0.95 9.241160378e-27 -6.3768750341 0.9 0 -6.3768750341 0.85 0 
-6.3768750341 0.8 2.5752462859e-25 -6.3768750341 0.75 1.1058695904e-26 -6.3768750341 0.7 2.2295181334e-26 
-6.3768750341 0.65 -5.1537269014e-26 -6.3768750341 0.6 6.7693140353e-26 -6.3768750341 0.55 0 
-6.3768750341 0.5 -2.1971994882e-27 -6.3768750341 0.45 0 -6.3768750341 0.4 -2.7513446918e-25 
-6.3768750341 0.35 2.0271580549e-26 -6.3768750341 0.3 -1.904680201e-24 -6.3768750341 0.25 -6.8294099521e-25 
-6.3768750341 0.2 0 -6.3768750341 0.15 -6.4933261567e-23 -6.3768750341 0.1 -1.9008920909e-23 
-6.3768750341 0.05 -7.2604359579e-23 -6.3768750341 0 0 -6.2091940848 1.5 -1.074695251e-22 
-6.2091940848 1.45 -2.2220844005e-21 -6.2091940848 1.4 -7.3873975986e-24 -6.2091940848 1.35 0 
-6.2091940848 1.3 4.0771281922e-23 -6.2091940848 1.25 1.3447339608e-25 -6.2091940848 1.2 2.7140812692e-24 
-6.2091940848 1.15 1.1587799704e-26 -6.2091940848 1.1 1.9580908174e-25 -6.2091940848 1.05 -5.3928306418e-25 
-6.2091940848 1 0 -6.2091940848 0.95 5.8355048691e-26 -6.2091940848 0.9 -1.888621754e-25 
-6.2091940848 0.85 -2.1503460808e-25 -6.2091940848 0.8 6.3654172518e-26 -6.2091940848 0.75 7.4236248524e-27 
-6.2091940848 0.7 2.1245010254e-26 -6.2091940848 0.65 -2.5203119846e-26 -6.2091940848 0.6 0 
-6.2091940848 0.55 -9.4996602359e-26 -6.2091940848 0.5 -1.4443352921e-25 -6.2091940848 0.45 -5.8080377185e-26 
-6.2091940848 0.4 0 -6.2091940848 0.35 4.4054637366e-25 -6.2091940848 0.3 -9.6757512463e-26 
-6.2091940848 0.25 -8.0432731213e-24 -6.2091940848 0.2 0 -6.2091940848 0.15 -6.3579525766e-23 
-6.2091940848 0.1 -4.0357211988e-23 -6.2091940848 0.05 0 -6.2091940848 0 0 
-6.0453300198 1.5 -1.1443115317e-22 -6.0453300198 1.45 -2.3658530761e-21 -6.0453300198 1.4 -7.8667725935e-24 
-6.0453300198 1.35 0 -6.0453300198 1.3 0 -6.0453300198 1.25 1.4189499947e-25 
-6.0453300198 1.2 3.1328717466e-24 -6.0453300198 1.15 9.7702641783e-27 -6.0453300198 1.1 0 
-6.0453300198 1.05 -2.2688287979e-25 -6.0453300198 1 0 -6.0453300198 0.95 -2.0101901498e-26 
-6.0453300198 0.9 2.9887967547e-27 -6.0453300198 0.85 0 -6.0453300198 0.8 5.8645891846e-26 
-6.0453300198 0.75 9.3563094183e-27 -6.0453300198 0.7 -1.1809938004e-25 -6.0453300198 0.65 -1.5445009056e-25 
-6.0453300198 0.6 -2.2513202766e-25 -6.0453300198 0.55 0 -6.0453300198 0.5 0 
-6.0453300198 0.45 -3.2836828218e-26 -6.0453300198 0.4 0 -6.0453300198 0.35 9.470531547e-25 
-6.0453300198 0.3 -2.1230873866e-24 -6.0453300198 0.25 -7.7472653926e-25 -6.0453300198 0.2 0 
-6.0453300198 0.15 -6.7693820351e-23 -6.0453300198 0.1 -1.5043429788e-22 -6.0453300198 0.05 0 
-6.0453300198 0 0 -5.8851959564 1.5 -1.2372697648e-22 -5.8851959564 1.45 2.653215944e-21 
-5.8851959564 1.4 -8.6030764298e-24 -5.8851959564 1.35 0 -5.8851959564 1.3 0 
-5.8851959564 1.25 1.5431482556e-25 -5.8851959564 1.2 3.2365722457e-24 -5.8851959564 1.15 1.1941209389e-26 
-5.8851959564 1.1 0 -5.8851959564 1.05 -3.8451052673e-26 -5.8851959564 1 0 
-5.8851959564 0.95 -9.943936837e-27 -5.8851959564 0.9 0 -5.8851959564 0.85 0 
-5.8851959564 0.8 0 -5.8851959564 0.75 1.0622505127e-27 -5.8851959564 0.7 6.9712624271e-26 
-5.8851959564 0.65 4.9081545016e-25 -5.8851959564 0.6 2.4039944441e-25 -5.8851959564 0.55 -2.1915443416e-25 
-5.8851959564 0.5 0 -5.8851959564 0.45 0 -5.8851959564 0.4 0 
-5.8851959564 0.35 1.19280009e-24 -5.8851959564 0.3 -2.2390825788e-25 -5.8851959564 0.25 -8.4318699475e-25 
-5.8851959564 0.2 0 -5.8851959564 0.15 -7.3256084905e-23 -5.8851959564 0.1 -4.6500179142e-23 
-5.8851959564 0.05 0 -5.8851959564 0 0 -5.7287069892 1.5 0 
-5.7287069892 1.45 -2.7830204943e-21 -5.7287069892 1.4 -1.4616660077e-21 -5.7287069892 1.35 0 
-5.7287069892 1.3 5.0303246012e-23 -5.7287069892 1.25 0 -5.7287069892 1.2 1.3516486323e-23 
-5.7287069892 1.15 0 -5.7287069892 1.1 0 -5.7287069892 1.05 -1.4346421638e-25 
-5.7287069892 1 -5.4000980229e-27 -5.7287069892 0.95 0 -5.7287069892 0.9 1.7690698838e-27 
-5.7287069892 0.85 5.1012183474e-27 -5.7287069892 0.8 7.6255732441e-27 -5.7287069892 0.75 0 
-5.7287069892 0.7 3.2909551333e-26 -5.7287069892 0.65 4.7752758125e-26 -5.7287069892 0.6 2.6296919864e-25 
-5.7287069892 0.55 1.3651731003e-27 -5.7287069892 0.5 -2.9411742079e-26 -5.7287069892 0.45 2.5445694574e-28 
-5.7287069892 0.4 -1.7517001527e-26 -5.7287069892 0.35 3.1277767898e-26 -5.7287069892 0.3 -1.2003206461e-25 
-5.7287069892 0.25 -9.0144910577e-25 -5.7287069892 0.2 -3.4463987941e-24 -5.7287069892 0.15 -7.8709297327e-23 
-5.7287069892 0.1 0 -5.7287069892 0.05 9.538721788e-23 -5.7287069892 0 0 
-5.5757801458 1.5 0 -5.5757801458 1.45 0 -5.5757801458 1.4 0 
-5.5757801458 1.35 0 -5.5757801458 1.3 1.0921757776e-22 -5.5757801458 1.25 0 
-5.5757801458 1.2 3.8712698113e-24 -5.5757801458 1.15 0 -5.5757801458 1.1 0 
-5.5757801458 1.05 0 -5.5757801458 1 -1.1620069045e-26 -5.5757801458 0.95 -1.8385389472e-25 
-5.5757801458 0.9 -6.4308483335e-26 -5.5757801458 0.85 3.0817344301e-27 -5.5757801458 0.8 -3.9246569592e-26 
-5.5757801458 0.75 0 -5.5757801458 0.7 1.1026796341e-27 -5.5757801458 0.65 -2.9775308349e-26 
-5.5757801458 0.6 -1.1976343282e-25 -5.5757801458 0.55 -9.4390658576e-27 -5.5757801458 0.5 -1.1591817964e-27 
-5.5757801458 0.45 -1.3913036247e-25 -5.5757801458 0.4 -2.3272530692e-26 -5.5757801458 0.35 1.4873155897e-24 
-5.5757801458 0.3 -2.654262144e-24 -5.5757801458 0.25 -9.7273688805e-25 -5.5757801458 0.2 -3.7225632198e-24 
-5.5757801458 0.15 -8.4857414165e-23 -5.5757801458 0.1 0 -5.5757801458 0.05 1.0286132786e-22 
-5.5757801458 0 0 -5.4263343424 1.5 0 -5.4263343424 1.45 -3.2637101732e-21 
-5.4263343424 1.4 0 -5.4263343424 1.35 0 -5.4263343424 1.3 0 
-5.4263343424 1.25 0 -5.4263343424 1.2 3.8914646505e-24 -5.4263343424 1.15 0 
-5.4263343424 1.1 0 -5.4263343424 1.05 -6.6723827516e-26 -5.4263343424 1 4.6973215639e-27 
-5.4263343424 0.95 0 -5.4263343424 0.9 1.4350415246e-26 -5.4263343424 0.85 -9.9766252607e-28 
-5.4263343424 0.8 5.6234590578e-26 -5.4263343424 0.75 0 -5.4263343424 0.7 -1.7172471457e-25 
-5.4263343424 0.65 1.1026796341e-27 -5.4263343424 0.6 2.7788118424e-27 -5.4263343424 0.55 -7.1982522221e-26 
-5.4263343424 0.5 -3.0809357084e-26 -5.4263343424 0.45 -1.8647932242e-26 -5.4263343424 0.4 -2.5594937197e-26 
-5.4263343424 0.35 0 -5.4263343424 0.3 2.8287719813e-24 -5.4263343424 0.25 4.2181043412e-24 
-5.4263343424 0.2 -4.0236682719e-24 -5.4263343424 0.15 -9.1930656586e-23 -5.4263343424 0.1 0 
-5.4263343424 0.05 1.113572967e-22 -5.4263343424 0 -5.6443199717e-23 -5.2802903408 1.5 0 
-5.2802903408 1.45 3.5699810651e-21 -5.2802903408 1.4 0 -5.2802903408 1.35 0 
-5.2802903408 1.3 6.5037397517e-23 -5.2802903408 1.25 0 -5.2802903408 1.2 4.5215436327e-24 
-5.2802903408 1.15 0 -5.2802903408 1.1 0 -5.2802903408 1.05 5.9775935093e-27 
-5.2802903408 1 -2.0679495592e-27 -5.2802903408 0.95 0 -5.2802903408 0.9 1.0643888188e-25 
-5.2802903408 0.85 -1.1591817964e-27 -5.2802903408 0.8 -8.3715644895e-26 -5.2802903408 0.75 1.7157527473e-25 
-5.2802903408 0.7 -1.006793098e-25 -5.2802903408 0.65 -8.1595186782e-26 -5.2802903408 0.6 -3.0420285955e-25 
-5.2802903408 0.55 -3.169381807e-26 -5.2802903408 0.5 -8.9341948783e-27 -5.2802903408 0.45 1.2641989044e-27 
-5.2802903408 0.4 -2.428227265e-26 -5.2802903408 0.35 0 -5.2802903408 0.3 -3.0589931479e-24 
-5.2802903408 0.25 -1.1397483066e-24 -5.2802903408 0.2 -4.3731399638e-24 -5.2802903408 0.15 -9.9861775774e-23 
-5.2802903408 0.1 0 -5.2802903408 0.05 1.2102688862e-22 -5.2802903408 0 -6.0513444309e-23 
-5.1375707065 1.5 0 -5.1375707065 1.45 -3.872120093e-21 -5.1375707065 1.4 0 
-5.1375707065 1.35 0 -5.1375707065 1.3 0 -5.1375707065 1.25 0 
-5.1375707065 1.2 4.8527389952e-24 -5.1375707065 1.15 0 -5.1375707065 1.1 0 
-5.1375707065 1.05 7.46400467e-26 -5.1375707065 1 -2.269897951e-27 -5.1375707065 0.95 -7.0277645894e-27 
-5.1375707065 0.9 -4.766785697e-26 -5.1375707065 0.85 -2.4718463427e-27 -5.1375707065 0.8 -1.4688506239e-25 
-5.1375707065 0.75 0 -5.1375707065 0.7 -7.2366105837e-26 -5.1375707065 0.65 -9.8558851688e-26 
-5.1375707065 0.6 -5.9946279745e-26 -5.1375707065 0.55 1.0821598828e-25 -5.1375707065 0.5 -2.7747689303e-27 
-5.1375707065 0.45 -1.2570079442e-25 -5.1375707065 0.4 -1.8728691877e-26 -5.1375707065 0.35 4.1274213289e-26 
-5.1375707065 0.3 -1.6390535272e-25 -5.1375707065 0.25 -1.8692625157e-24 -5.1375707065 0.2 -4.7720890117e-24 
-5.1375707065 0.15 -9.9812014428e-23 -5.1375707065 0.1 -1.7029689408e-22 -5.1375707065 0.05 5.203247771e-22 
-5.1375707065 0 0 -4.9980997677 1.5 0 -4.9980997677 1.45 -4.3093585559e-21 
-4.9980997677 1.4 -1.1320640181e-21 -4.9980997677 1.35 0 -4.9980997677 1.3 7.8228672776e-23 
-4.9980997677 1.25 0 -4.9980997677 1.2 5.297025457e-24 -4.9980997677 1.15 0 
-4.9980997677 1.1 0 -4.9980997677 1.05 1.5945837123e-25 -4.9980997677 1 -2.3679139184e-27 
-4.9980997677 0.95 0 -4.9980997677 0.9 -4.0874334766e-27 -4.9980997677 0.85 1.4661472962e-27 
-4.9980997677 0.8 -2.5452355518e-25 -4.9980997677 0.75 0 -4.9980997677 0.7 5.4114132465e-26 
-4.9980997677 0.65 -4.766785697e-26 -4.9980997677 0.6 -8.6312722907e-27 -4.9980997677 0.55 2.2241780381e-25 
-4.9980997677 0.5 -2.5728205386e-27 -4.9980997677 0.45 -3.5005751973e-26 -4.9980997677 0.4 -3.0598006456e-25 
-4.9980997677 0.35 1.8247208652e-24 -4.9980997677 0.3 3.5487179978e-24 -4.9980997677 0.25 -1.3472501805e-24 
-4.9980997677 0.2 -3.0836598029e-23 -4.9980997677 0.15 -1.1735252598e-22 -4.9980997677 0.1 0 
-4.9980997677 0.05 1.422348019e-22 -4.9980997677 0 3.6099303698e-23 -4.8618035751 1.5 -4.5450217268e-22 
-4.8618035751 1.45 4.8772616673e-21 -4.8618035751 1.4 1.218942822e-21 -4.8618035751 1.35 -3.2849339394e-22 
-4.8618035751 1.3 8.6431816449e-23 -4.8618035751 1.25 5.6066124401e-25 -4.8618035751 1.2 6.1322094579e-24 
-4.8618035751 1.15 2.0120119255e-26 -4.8618035751 1.1 0 -4.8618035751 1.05 -5.6626407929e-26 
-4.8618035751 1 0 -4.8618035751 0.95 -4.8728086027e-26 -4.8618035751 0.9 2.217389397e-26 
-4.8618035751 0.85 0 -4.8618035751 0.8 -9.8873853708e-26 -4.8618035751 0.75 6.6158312854e-27 
-4.8618035751 0.7 1.0000488303e-25 -4.8618035751 0.65 -9.3865573036e-26 -4.8618035751 0.6 -3.028215148e-27 
-4.8618035751 0.55 -1.0137848708e-26 -4.8618035751 0.5 6.969240971e-26 -4.8618035751 0.45 8.7867764966e-26 
-4.8618035751 0.4 0 -4.8618035751 0.35 2.0172281696e-24 -4.8618035751 0.3 3.8344749721e-24 
-4.8618035751 0.25 6.5442725294e-24 -4.8618035751 0.2 0 -4.8618035751 0.15 -1.2658409184e-22 
-4.8618035751 0.1 -8.033789751e-23 -4.8618035751 0.05 0 -4.8618035751 0 0 
-4.7286098626 1.5 -2.5379541014e-22 -4.7286098626 1.45 2.0791160463e-20 -4.7286098626 1.4 -1.7458462131e-23 
-4.7286098626 1.35 0 -4.7286098626 1.3 9.6470671002e-23 -4.7286098626 1.25 6.3336266504e-25 
-4.7286098626 1.2 6.5709423389e-24 -4.7286098626 1.15 1.7708158302e-24 -4.7286098626 1.1 0 
-4.7286098626 1.05 3.8289336187e-26 -4.7286098626 1 0 -4.7286098626 0.95 -6.7632496671e-27 
-4.7286098626 0.9 -4.5397959019e-26 -4.7286098626 0.85 -3.3361913758e-26 -4.7286098626 0.8 0 
-4.7286098626 0.75 -1.0582076005e-27 -4.7286098626 0.7 -4.4347787939e-26 -4.7286098626 0.65 2.0599130388e-27 
-4.7286098626 0.6 -1.5445009056e-25 -4.7286098626 0.55 0 -4.7286098626 0.5 -4.5923044559e-26 
-4.7286098626 0.45 0 -4.7286098626 0.4 3.8065250386e-25 -4.7286098626 0.35 0 
-4.7286098626 0.3 0 -4.7286098626 0.25 7.0465939103e-24 -4.7286098626 0.2 0 
-4.7286098626 0.15 -3.0345765618e-23 -4.7286098626 0.1 -8.6637324181e-23 -4.7286098626 0.05 0 
-4.7286098626 0 0 -4.5984480091 1.5 -2.955698991e-22 -4.5984480091 1.45 -6.113094544e-21 
-4.5984480091 1.4 -2.0337160725e-23 -4.5984480091 1.35 0 -4.5984480091 1.3 -1.1258009421e-22 
-4.5984480091 1.25 7.1446244717e-25 -4.5984480091 1.2 7.3364032631e-24 -4.5984480091 1.15 5.0943503272e-26 
-4.5984480091 1.1 -6.8452418974e-25 -4.5984480091 1.05 -4.047053659e-26 -4.5984480091 1 0 
-4.5984480091 0.95 -7.3442531194e-26 -4.5984480091 0.9 0 -4.5984480091 0.85 0 
-4.5984480091 0.8 -2.5437411535e-25 -4.5984480091 0.75 1.694305838e-25 -4.5984480091 0.7 0 
-4.5984480091 0.65 -1.8134926135e-26 -4.5984480091 0.6 0 -4.5984480091 0.55 1.0194350871e-25 
-4.5984480091 0.5 0 -4.5984480091 0.45 3.3846570177e-26 -4.5984480091 0.4 -3.0037801815e-25 
-4.5984480091 0.35 5.8162147548e-26 -4.5984480091 0.3 4.4827293096e-24 -4.5984480091 0.25 -1.6823835366e-24 
-4.5984480091 0.2 0 -4.5984480091 0.15 -1.466490782e-22 -4.5984480091 0.1 -9.3134559301e-23 
-4.5984480091 0.05 -7.1144843211e-22 -4.5984480091 0 0 -4.4712490012 1.5 0 
-4.4712490012 1.45 0 -4.4712490012 1.4 0 -4.4712490012 1.35 0 
-4.4712490012 1.3 0 -4.4712490012 1.25 0 -4.4712490012 1.2 8.7846745767e-24 
-4.4712490012 1.15 0 -4.4712490012 1.1 0 -4.4712490012 1.05 -1.0378034667e-25 
-4.4712490012 1 -1.3455514179e-25 -4.4712490012 0.95 -1.1601925245e-27 -4.4712490012 0.9 -6.3304682485e-26 
-4.4712490012 0.85 -4.446293698e-26 -4.4712490012 0.8 -3.8253023934e-26 -4.4712490012 0.75 2.3215979225e-25 
-4.4712490012 0.7 -8.7322464865e-27 -4.4712490012 0.65 -3.7340237911e-27 -4.4712490012 0.6 -1.1587693701e-25 
-4.4712490012 0.55 -5.0971754353e-27 -4.4712490012 0.5 -6.0059431981e-27 -4.4712490012 0.45 2.5204377093e-25 
-4.4712490012 0.4 -3.8014763288e-26 -4.4712490012 0.35 6.0459310504e-26 -4.4712490012 0.3 -2.3834857862e-25 
-4.4712490012 0.25 -1.8064303362e-24 -4.4712490012 0.2 -6.8395857648e-24 -4.4712490012 0.15 -1.562795931e-22 
-4.4712490012 0.1 0 -4.4712490012 0.05 1.8952722774e-22 -4.4712490012 0 0 
-4.3469453961 1.5 0 -4.3469453961 1.45 -8.4812047973e-21 -4.3469453961 1.4 2.2592208922e-21 
-4.3469453961 1.35 0 -4.3469453961 1.3 0 -4.3469453961 1.25 5.1075371233e-25 
-4.3469453961 1.2 1.0988184755e-23 -4.3469453961 1.15 5.4136924629e-24 -4.3469453961 1.1 0 
-4.3469453961 1.05 -1.0913298978e-25 -4.3469453961 1 -1.9669753634e-27 -4.3469453961 0.95 6.4583056234e-26 
-4.3469453961 0.9 -6.7632496671e-27 -4.3469453961 0.85 -9.7419884452e-27 -4.3469453961 0.8 -8.2273755072e-27 
-4.3469453961 0.75 1.7763372649e-25 -4.3469453961 0.7 -5.6149689423e-26 -4.3469453961 0.65 -3.9186024517e-26 
-4.3469453961 0.6 -8.6312722907e-27 -4.3469453961 0.55 2.7361172111e-25 -4.3469453961 0.5 -9.5905271514e-27 
-4.3469453961 0.45 1.6883102486e-27 -4.3469453961 0.4 -3.3067027691e-26 -4.3469453961 0.35 6.3311831537e-26 
-4.3469453961 0.3 4.9709395466e-24 -4.3469453961 0.25 -1.8622185795e-24 -4.3469453961 0.2 2.8551252209e-23 
-4.3469453961 0.15 -1.6298146505e-22 -4.3469453961 0.1 2.0707707309e-22 -4.3469453961 0.05 1.9783664675e-22 
-4.3469453961 0 0 -4.2254712866 1.5 -4.8583971631e-22 -4.2254712866 1.45 1.2733171741e-22 
-4.2254712866 1.4 -2.714424684e-21 -4.2254712866 1.35 -7.0530076966e-22 -4.2254712866 1.3 1.8589341886e-22 
-4.2254712866 1.25 6.0960745008e-25 -4.2254712866 1.2 1.2932569114e-23 -4.2254712866 1.15 4.0213984233e-26 
-4.2254712866 1.1 -2.1122184611e-24 -4.2254712866 1.05 -2.4645789616e-25 -4.2254712866 1 0 
-4.2254712866 0.95 -1.4378715631e-27 -4.2254712866 0.9 0 -4.2254712866 0.85 -8.5787637367e-26 
-4.2254712866 0.8 0 -4.2254712866 0.75 -8.4798109969e-27 -4.2254712866 0.7 -3.6310281391e-26 
-4.2254712866 0.65 -5.4485636647e-26 -4.2254712866 0.6 -9.2855831077e-26 -4.2254712866 0.55 0 
-4.2254712866 0.5 0 -4.2254712866 0.45 0 -4.2254712866 0.4 0 
-4.2254712866 0.35 5.9853465329e-26 -4.2254712866 0.3 -2.4577018202e-25 -4.2254712866 0.25 -1.8459617339e-24 
-4.2254712866 0.2 0 -4.2254712866 0.15 -1.6157863055e-22 -4.2254712866 0.1 -3.5980039288e-22 
-4.2254712866 0.05 -7.8646973529e-22 -4.2254712866 0 0 -4.1067622654 1.5 -6.3190277814e-22 
-4.1067622654 1.45 1.6579894804e-22 -4.1067622654 1.4 -3.5386564462e-21 -4.1067622654 1.35 0 
-4.1067622654 1.3 -9.8010815265e-22 -4.1067622654 1.25 7.9817676087e-25 -4.1067622654 1.2 6.8139482586e-23 
-4.1067622654 1.15 5.1750286111e-26 -4.1067622654 1.1 0 -4.1067622654 1.05 -3.0502292977e-25 
-4.1067622654 1 0 -4.1067622654 0.95 -1.1097054265e-27 -4.1067622654 0.9 -1.1502972505e-25 
-4.1067622654 0.85 0 -4.1067622654 0.8 0 -4.1067622654 0.75 1.4665084465e-25 
-4.1067622654 0.7 -1.1607989613e-25 -4.1067622654 0.65 -1.4031370314e-25 -4.1067622654 0.6 0 
-4.1067622654 0.55 0 -4.1067622654 0.5 0 -4.1067622654 0.45 1.0806260414e-25 
-4.1067622654 0.4 0 -4.1067622654 0.35 5.20027216e-26 -4.1067622654 0.3 4.1273001402e-24 
-4.1067622654 0.25 -1.5737353019e-24 -4.1067622654 0.2 0 -4.1067622654 0.15 -1.3893545743e-22 
-4.1067622654 0.1 -8.8804987731e-23 -4.1067622654 0.05 0 -4.1067622654 0 0 
-3.9907553914 1.5 -8.2650635736e-22 -3.9907553914 1.45 0 -3.9907553914 1.4 -5.733930784e-23 
-3.9907553914 1.35 4.965953362e-21 -3.9907553914 1.3 3.1989624896e-22 -3.9907553914 1.25 1.0528336828e-24 
-3.9907553914 1.2 2.2100091299e-23 -3.9907553914 1.15 7.1238305913e-26 -3.9907553914 1.1 0 
-3.9907553914 1.05 -2.0000976606e-25 -3.9907553914 1 0 -3.9907553914 0.95 5.2138997322e-26 
-3.9907553914 0.9 -4.8932055875e-26 -3.9907553914 0.85 -2.13984437e-25 -3.9907553914 0.8 0 
-3.9907553914 0.75 7.094645203e-26 -3.9907553914 0.7 -7.0641507986e-26 -3.9907553914 0.65 -1.1809938004e-25 
-3.9907553914 0.6 -1.3724404814e-25 -3.9907553914 0.55 -3.523989575e-28 -3.9907553914 0.5 -1.3621409162e-27 
-3.9907553914 0.45 3.8350990597e-26 -3.9907553914 0.4 -7.9254636476e-27 -3.9907553914 0.35 1.127140633e-24 
-3.9907553914 0.3 -2.4252526678e-24 -3.9907553914 0.25 -8.8670697178e-25 -3.9907553914 0.2 0 
-3.9907553914 0.15 -5.3264405813e-23 -3.9907553914 0.1 -5.3864280889e-23 -3.9907553914 0.05 7.6870998982e-23 
-3.9907553914 0 0 -3.8773891562 1.5 0 -3.8773891562 1.45 -2.7403013816e-20 
-3.8773891562 1.4 0 -3.8773891562 1.35 0 -3.8773891562 1.3 0 
-3.8773891562 1.25 3.6098460405e-24 -3.8773891562 1.2 1.5345157093e-22 -3.8773891562 1.15 0 
-3.8773891562 1.1 0 -3.8773891562 1.05 -5.3423435439e-25 -3.8773891562 1 -8.0001835665e-27 
-3.8773891562 0.95 0 -3.8773891562 0.9 -1.1923331829e-25 -3.8773891562 0.85 1.0979627389e-25 
-3.8773891562 0.8 1.4081857411e-25 -3.8773891562 0.75 9.4370444015e-26 -3.8773891562 0.7 1.0897127329e-25 
-3.8773891562 0.65 -5.9806996491e-27 -3.8773891562 0.6 -1.9344935226e-25 -3.8773891562 0.55 1.889347999e-25 
-3.8773891562 0.5 -2.6737947344e-27 -3.8773891562 0.45 -1.45130192e-26 -3.8773891562 0.4 5.4079250022e-27 
-3.8773891562 0.35 -4.9908517764e-25 -3.8773891562 0.3 2.1411377074e-24 -3.8773891562 0.25 1.6516077061e-24 
-3.8773891562 0.2 5.8557985131e-24 -3.8773891562 0.15 1.2494934485e-22 -3.8773891562 0.1 1.8482348366e-22 
-3.8773891562 0.05 -1.8622741626e-22 -3.8773891562 0 1.1263504942e-22 -3.7666034516 1.5 0 
-3.7666034516 1.45 0 -3.7666034516 1.4 0 -3.7666034516 1.35 0 
-3.7666034516 1.3 9.0242749208e-22 -3.7666034516 1.25 2.4358113817e-22 -3.7666034516 1.2 6.6530812185e-23 
-3.7666034516 1.15 0 -3.7666034516 1.1 0 -3.7666034516 1.05 -1.12998211e-24 
-3.7666034516 1 -1.2165369146e-26 -3.7666034516 0.95 0 -3.7666034516 0.9 -1.324861815e-25 
-3.7666034516 0.85 -9.6438393575e-26 -3.7666034516 0.8 -9.5378164518e-26 -3.7666034516 0.75 0 
-3.7666034516 0.7 -8.9846819762e-27 -3.7666034516 0.65 -1.7436522924e-25 -3.7666034516 0.6 -7.3643468857e-26 
-3.7666034516 0.55 7.2385334321e-26 -3.7666034516 0.5 3.809754438e-26 -3.7666034516 0.45 6.8360235647e-25 
-3.7666034516 0.4 2.8972223295e-25 -3.7666034516 0.35 -3.3730329057e-25 -3.7666034516 0.3 2.4743646234e-23 
-3.7666034516 0.25 8.430636169e-24 -3.7666034516 0.2 1.8095159026e-22 -3.7666034516 0.15 1.5079298347e-22 
-3.7666034516 0.1 0 -3.7666034516 0.05 -2.8551693845e-21 -3.7666034516 0 0 
-3.6583395375 1.5 0 -3.6583395375 1.45 0 -3.6583395375 1.4 0 
-3.6583395375 1.35 0 -3.6583395375 1.3 -2.5776399896e-21 -3.6583395375 1.25 0 
-3.6583395375 1.2 2.5508497684e-22 -3.6583395375 1.15 0 -3.6583395375 1.1 0 
-3.6583395375 1.05 5.5275218572e-23 -3.6583395375 1 0 -3.6583395375 0.95 0 
-3.6583395375 0.9 -1.3048815562e-21 -3.6583395375 0.85 0 -3.6583395375 0.8 -2.6078566124e-23 
-3.6583395375 0.75 0 -3.6583395375 0.7 -2.5843296247e-23 -3.6583395375 0.65 -2.6050293349e-23 
-3.6583395375 0.6 -2.6309797032e-23 -3.6583395375 0.55 2.7222605341e-23 -3.6583395375 0.5 -1.315918992e-23 
-3.6583395375 0.45 -3.338808974e-23 -3.6583395375 0.4 5.475305655e-24 -3.6583395375 0.35 -7.1937000924e-22 
-3.6583395375 0.3 0 -3.6583395375 0.25 -2.7496737661e-22 -3.6583395375 0.2 -7.2008384632e-22 
-3.6583395375 0.15 2.4660075635e-21 -3.6583395375 0.1 -3.3100876213e-21 -3.6583395375 0.05 3.9852229053e-21 
-3.6583395375 0 0 -3.552540011 1.5 0.00052153290017 -3.552540011 1.45 0.00034961747588 
-3.552540011 1.4 0.00032431617728 -3.552540011 1.35 0.00031164631946 -3.552540011 1.3 0.00030571952811 
-3.552540011 1.25 0.00030095301918 -3.552540011 1.2 0.0002959909034 -3.552540011 1.15 0.00029006201657 
-3.552540011 1.1 0.0002829504956 -3.552540011 1.05 0.00027473669616 -3.552540011 1 0.00026574151707 
-3.552540011 0.95 0.00025646921131 -3.552540011 0.9 0.00024755005143 -3.552540011 0.85 0.00023966337903 
-3.552540011 0.8 0.0002334456949 -3.552540011 0.75 0.00022940139752 -3.552540011 0.7 0.00022783818713 
-3.552540011 0.65 0.00022884186183 -3.552540011 0.6 0.0002322904038 -3.552540011 0.55 0.00023789267289 
-3.552540011 0.5 0.00024523364846 -3.552540011 0.45 0.00025381258456 -3.552540011 0.4 0.00026307458756 
-3.552540011 0.35 0.00027244767989 -3.552540011 0.3 0.00028141372604 -3.552540011 0.25 0.00028961815406 
-3.552540011 0.2 0.00029718849692 -3.552540011 0.15 0.00030488203629 -3.552540011 0.1 0.00031737642712 
-3.552540011 0.05 0.00034005680936 -3.552540011 0 0.00049190089339 -3.4491487757 1.5 0.031998805702 
-3.4491487757 1.45 0.028425060213 -3.4491487757 1.4 0.026642274112 -3.4491487757 1.35 0.025727441534 
-3.4491487757 1.3 0.025174865499 -3.4491487757 1.25 0.024740932509 -3.4491487757 1.2 0.024306260049 
-3.4491487757 1.15 0.023813638836 -3.4491487757 1.1 0.023242080584 -3.4491487757 1.05 0.022595204413 
-3.4491487757 1 0.021895259619 -3.4491487757 0.95 0.021178934723 -3.4491487757 0.9 0.020492848009 
-3.4491487757 0.85 0.019887680188 -3.4491487757 0.8 0.019411129877 -3.4491487757 0.75 0.019101031125 
-3.4491487757 0.7 0.018980398774 -3.4491487757 0.65 0.019055541605 -3.4491487757 0.6 0.019317192957 
-3.4491487757 0.55 0.019743543118 -3.4491487757 0.5 0.020303729922 -3.4491487757 0.45 0.020960789174 
-3.4491487757 0.4 0.02167410776 -3.4491487757 0.35 0.022402374074 -3.4491487757 0.3 0.023108769208 
-3.4491487757 0.25 0.023770501837 -3.4491487757 0.2 0.024395627901 -3.4491487757 0.15 0.025053430349 
-3.4491487757 0.1 0.025935146958 -3.4491487757 0.05 0.027476679534 -3.4491487757 0 0.030485184863 
-3.3481110123 1.5 0.087743222713 -3.3481110123 1.45 0.084429726005 -3.3481110123 1.4 0.082121774554 
-3.3481110123 1.35 0.080507025123 -3.3481110123 1.3 0.079246804118 -3.3481110123 1.25 0.07806840539 
-3.3481110123 1.2 0.076785750687 -3.3481110123 1.15 0.07529246062 -3.3481110123 1.1 0.073549896479 
-3.3481110123 1.05 0.07157626003 -3.3481110123 1 0.069438405335 -3.3481110123 0.95 0.06724537909 
-3.3481110123 0.9 0.065139293671 -3.3481110123 0.85 0.063278831542 -3.3481110123 0.8 0.061815146357 
-3.3481110123 0.75 0.060866698623 -3.3481110123 0.7 0.060501679778 -3.3481110123 0.65 0.060733232647 
-3.3481110123 0.6 0.061526354402 -3.3481110123 0.55 0.062810957432 -3.3481110123 0.5 0.06449469924 
-3.3481110123 0.45 0.066471390426 -3.3481110123 0.4 0.068624898791 -3.3481110123 0.35 0.070832714438 
-3.3481110123 0.3 0.07297475636 -3.3481110123 0.25 0.074952565134 -3.3481110123 0.2 0.076719596982 
-3.3481110123 0.15 0.078317560256 -3.3481110123 0.1 0.079905204475 -3.3481110123 0.05 0.081750668585 
-3.3481110123 0 0.084144741297 -3.2493731491 1.5 0.15496741235 -3.2493731491 1.45 0.15325006843 
-3.2493731491 1.4 0.15180681646 -3.2493731491 1.35 0.15049901605 -3.2493731491 1.3 0.14913059771 
-3.2493731491 1.25 0.1474942863 -3.2493731491 1.2 0.14541968703 -3.2493731491 1.15 0.14280860126 
-3.2493731491 1.1 0.1396458745 -3.2493731491 1.05 0.13599008322 -3.2493731491 1 0.13196504116 
-3.2493731491 0.95 0.12776778638 -3.2493731491 0.9 0.12367815524 -3.2493731491 0.85 0.12003598362 
-3.2493731491 0.8 0.11717603356 -3.2493731491 0.75 0.11535113305 -3.2493731491 0.7 0.11468521506 
-3.2493731491 0.65 0.11517198384 -3.2493731491 0.6 0.11670713872 -3.2493731491 0.55 0.11913258582 
-3.2493731491 0.5 0.12227211893 -3.2493731491 0.45 0.12594506145 -3.2493731491 0.4 0.12995824218 
-3.2493731491 0.35 0.13409002125 -3.2493731491 0.3 0.13808494806 -3.2493731491 0.25 0.14167448878 
-3.2493731491 0.2 0.14462685585 -3.2493731491 0.15 0.14680805802 -3.2493731491 0.1 0.14822249115 
-3.2493731491 0.05 0.14900812507 -3.2493731491 0 0.14938347042 -3.1528828341 1.5 0.22485722601 
-3.1528828341 1.45 0.22513440251 -3.1528828341 1.4 0.22510781884 -3.1528828341 1.35 0.2247299403 
-3.1528828341 1.3 0.22385376692 -3.1528828341 1.25 0.22224168479 -3.1528828341 1.2 0.21966777742 
-3.1528828341 1.15 0.2160435766 -3.1528828341 1.1 0.21144782007 -3.1528828341 1.05 0.20603168011 
-3.1528828341 1 0.19992770255 -3.1528828341 0.95 0.19332294166 -3.1528828341 0.9 0.18664132059 
-3.1528828341 0.85 0.18057577312 -3.1528828341 0.8 0.17585965991 -3.1528828341 0.75 0.17298476398 
-3.1528828341 0.7 0.17209880054 -3.1528828341 0.65 0.17307239771 -3.1528828341 0.6 0.1756118983 
-3.1528828341 0.55 0.17938174307 -3.1528828341 0.5 0.18410784006 -3.1528828341 0.45 0.18959003687 
-3.1528828341 0.4 0.19563621283 -3.1528828341 0.35 0.201979056 -3.1528828341 0.3 0.2082067132 
-3.1528828341 0.25 0.21375717223 -3.1528828341 0.2 0.21803481877 -3.1528828341 0.15 0.22059875727 
-3.1528828341 0.1 0.22128936648 -3.1528828341 0.05 0.22024208307 -3.1528828341 0 0.21781948209 
-3.0585889068 1.5 0.28992536664 -3.0585889068 1.45 0.29189270735 -3.0585889068 1.4 0.29313868284 
-3.0585889068 1.35 0.29385110736 -3.0585889068 1.3 0.29400873184 -3.0585889068 1.25 0.2930637002 
-3.0585889068 1.2 0.29035112262 -3.0585889068 1.15 0.28569442034 -3.0585889068 1.1 0.27961167693 
-3.0585889068 1.05 0.27277639508 -3.0585889068 1 0.26512885094 -3.0585889068 0.95 0.25606420636 
-3.0585889068 0.9 0.24585002661 -3.0585889068 0.85 0.23622217774 -3.0585889068 0.8 0.22910483181 
-3.0585889068 0.75 0.2252946496 -3.0585889068 0.7 0.22459813952 -3.0585889068 0.65 0.22657981515 
-3.0585889068 0.6 0.23056599498 -3.0585889068 0.55 0.23573182523 -3.0585889068 0.5 0.24176099896 
-3.0585889068 0.45 0.2486821115 -3.0585889068 0.4 0.25647717714 -3.0585889068 0.35 0.26505234838 
-3.0585889068 0.3 0.27401039004 -3.0585889068 0.25 0.28229480982 -3.0585889068 0.2 0.28844302893 
-3.0585889068 0.15 0.29148992896 -3.0585889068 0.1 0.29117780924 -3.0585889068 0.05 0.28777202964 
-3.0585889068 0 0.28199276328 -2.9664413714 1.5 0.34366247058 -2.9664413714 1.45 0.34615176916 
-2.9664413714 1.4 0.34814569354 -2.9664413714 1.35 0.3488560915 -2.9664413714 1.3 0.35113883018 
-2.9664413714 1.25 0.3519526124 -2.9664413714 1.2 0.34975364804 -2.9664413714 1.15 0.34336280823 
-2.9664413714 1.1 0.33457246423 -2.9664413714 1.05 0.32714530826 -2.9664413714 1 0.32103657722 
-2.9664413714 0.95 0.3109844625 -2.9664413714 0.9 0.2949077189 -2.9664413714 0.85 0.27932581306 
-2.9664413714 0.8 0.2699547708 -2.9664413714 0.75 0.26678904891 -2.9664413714 0.7 0.26655596495 
-2.9664413714 0.65 0.26976490021 -2.9664413714 0.6 0.2767021656 -2.9664413714 0.55 0.28244194388 
-2.9664413714 0.5 0.28860387206 -2.9664413714 0.45 0.29630094767 -2.9664413714 0.4 0.30472636223 
-2.9664413714 0.35 0.31460559368 -2.9664413714 0.3 0.32638776302 -2.9664413714 0.25 0.33938935399 
-2.9664413714 0.2 0.34773537517 -2.9664413714 0.15 0.35124880075 -2.9664413714 0.1 0.34996861219 
-2.9664413714 0.05 0.34412190318 -2.9664413714 0 0.33466017246 -2.8763913699 1.5 0.37898343801 
-2.8763913699 1.45 0.38000735641 -2.8763913699 1.4 0.38440230489 -2.8763913699 1.35 0.38158303499 
-2.8763913699 1.3 0.38768178225 -2.8763913699 1.25 0.38853317499 -2.8763913699 1.2 0.38786110282 
-2.8763913699 1.15 0.38029181957 -2.8763913699 1.1 0.36897397041 -2.8763913699 1.05 0.36113592982 
-2.8763913699 1 0.35808596015 -2.8763913699 0.95 0.34917834401 -2.8763913699 0.9 0.32754969597 
-2.8763913699 0.85 0.30792441964 -2.8763913699 0.8 0.29785194993 -2.8763913699 0.75 0.29686433077 
-2.8763913699 0.7 0.29606333375 -2.8763913699 0.65 0.29808360338 -2.8763913699 0.6 0.30989128351 
-2.8763913699 0.55 0.31332573295 -2.8763913699 0.5 0.31913766265 -2.8763913699 0.45 0.32765337825 
-2.8763913699 0.4 0.33516204357 -2.8763913699 0.35 0.34562349319 -2.8763913699 0.3 0.35679000616 
-2.8763913699 0.25 0.37554314733 -2.8763913699 0.2 0.3829472661 -2.8763913699 0.15 0.38746708632 
-2.8763913699 0.1 0.3859141767 -2.8763913699 0.05 0.37984082103 -2.8763913699 0 0.36849024892 
-2.7883911568 1.5 0.39172795415 -2.7883911568 1.45 0.39433348179 -2.7883911568 1.4 0.39605906606 
-2.7883911568 1.35 0.3973094523 -2.7883911568 1.3 0.39882537723 -2.7883911568 1.25 0.3993665874 
-2.7883911568 1.2 0.39748522639 -2.7883911568 1.15 0.39254233241 -2.7883911568 1.1 0.38549950719 
-2.7883911568 1.05 0.37804290652 -2.7883911568 1 0.36978051066 -2.7883911568 0.95 0.35822045803 
-2.7883911568 0.9 0.34312534332 -2.7883911568 0.85 0.32857176661 -2.7883911568 0.8 0.31863376498 
-2.7883911568 0.75 0.31406584382 -2.7883911568 0.7 0.3135573864 -2.7883911568 0.65 0.31661078334 
-2.7883911568 0.6 0.32219967246 -2.7883911568 0.55 0.327945292 -2.7883911568 0.5 0.33383712173 
-2.7883911568 0.45 0.34064796567 -2.7883911568 0.4 0.34860429168 -2.7883911568 0.35 0.3581444025 
-2.7883911568 0.3 0.36934888363 -2.7883911568 0.25 0.38079231977 -2.7883911568 0.2 0.38936805725 
-2.7883911568 0.15 0.39382499456 -2.7883911568 0.1 0.39398866892 -2.7883911568 0.05 0.39000630379 
-2.7883911568 0 0.38267913461 -2.702394073 1.5 0.39164552093 -2.702394073 1.45 0.39325779676 
-2.702394073 1.4 0.39415413141 -2.702394073 1.35 0.39477878809 -2.702394073 1.3 0.39523020387 
-2.702394073 1.25 0.39509868622 -2.702394073 1.2 0.39383482933 -2.702394073 1.15 0.39106997848 
-2.702394073 1.1 0.38668692112 -2.702394073 1.05 0.3804590106 -2.702394073 1 0.37167486548 
-2.702394073 0.95 0.36010542512 -2.702394073 0.9 0.34721824527 -2.702394073 0.85 0.33546575904 
-2.702394073 0.8 0.32671117783 -2.702394073 0.75 0.32180181146 -2.702394073 0.7 0.32089844346 
-2.702394073 0.65 0.32349619269 -2.702394073 0.6 0.32810607553 -2.702394073 0.55 0.33288404346 
-2.702394073 0.5 0.33724921942 -2.702394073 0.45 0.34202292562 -2.702394073 0.4 0.34818005562 
-2.702394073 0.35 0.35604175925 -2.702394073 0.3 0.36502689123 -2.702394073 0.25 0.37381464243 
-2.702394073 0.2 0.38098147511 -2.702394073 0.15 0.3856677413 -2.702394073 0.1 0.38762050867 
-2.702394073 0.05 0.3867764771 -2.702394073 0 0.38322088122 -2.6183545219 1.5 0.38520038128 
-2.6183545219 1.45 0.38521084189 -2.6183545219 1.4 0.3845897615 -2.6183545219 1.35 0.38423347473 
-2.6183545219 1.3 0.38452801108 -2.6183545219 1.25 0.38458323479 -2.6183545219 1.2 0.38446357846 
-2.6183545219 1.15 0.38380607963 -2.6183545219 1.1 0.38198524714 -2.6183545219 1.05 0.37914088368 
-2.6183545219 1 0.37232813239 -2.6183545219 0.95 0.3597021997 -2.6183545219 0.9 0.34591591358 
-2.6183545219 0.85 0.33543151617 -2.6183545219 0.8 0.32785150409 -2.6183545219 0.75 0.32283824682 
-2.6183545219 0.7 0.32165428996 -2.6183545219 0.65 0.3252864778 -2.6183545219 0.6 0.33193221688 
-2.6183545219 0.55 0.33579471707 -2.6183545219 0.5 0.33617648482 -2.6183545219 0.45 0.33705997467 
-2.6183545219 0.4 0.34048447013 -2.6183545219 0.35 0.34685832262 -2.6183545219 0.3 0.3549464643 
-2.6183545219 0.25 0.36262914538 -2.6183545219 0.2 0.36872544885 -2.6183545219 0.15 0.37290620804 
-2.6183545219 0.1 0.37614288926 -2.6183545219 0.05 0.37835282087 -2.6183545219 0 0.37774395943 
-2.5362279445 1.5 0.37769815326 -2.5362279445 1.45 0.37672045827 -2.5362279445 1.4 0.3746765554 
-2.5362279445 1.35 0.3726734519 -2.5362279445 1.3 0.37456154823 -2.5362279445 1.25 0.37478932738 
-2.5362279445 1.2 0.37581339478 -2.5362279445 1.15 0.37775370479 -2.5362279445 1.1 0.37592557073 
-2.5362279445 1.05 0.37898725271 -2.5362279445 1 0.37804725766 -2.5362279445 0.95 0.36249417067 
-2.5362279445 0.9 0.34435275197 -2.5362279445 0.85 0.33605292439 -2.5362279445 0.8 0.33024039865 
-2.5362279445 0.75 0.32430204749 -2.5362279445 0.7 0.32223749161 -2.5362279445 0.65 0.32534143329 
-2.5362279445 0.6 0.33917200565 -2.5362279445 0.55 0.3410795033 -2.5362279445 0.5 0.33405798674 
-2.5362279445 0.45 0.33189272881 -2.5362279445 0.4 0.33292213082 -2.5362279445 0.35 0.33888137341 
-2.5362279445 0.3 0.34781834483 -2.5362279445 0.25 0.35486027598 -2.5362279445 0.2 0.36085563898 
-2.5362279445 0.15 0.36285743117 -2.5362279445 0.1 0.36468243599 -2.5362279445 0.05 0.37049385905 
-2.5362279445 0 0.37073430419 -2.4559707962 1.5 0.37126302719 -2.4559707962 1.45 0.37150076032 
-2.4559707962 1.4 0.36818435788 -2.4559707962 1.35 0.36620557308 -2.4559707962 1.3 0.36667820811 
-2.4559707962 1.25 0.37278988957 -2.4559707962 1.2 0.37290194631 -2.4559707962 1.15 0.37475940585 
-2.4559707962 1.1 0.37393593788 -2.4559707962 1.05 0.37887072563 -2.4559707962 1 0.37821620703 
-2.4559707962 0.95 0.37418225408 -2.4559707962 0.9 0.35323256254 -2.4559707962 0.85 0.33879578114 
-2.4559707962 0.8 0.33750525117 -2.4559707962 0.75 0.33187782764 -2.4559707962 0.7 0.32967361808 
-2.4559707962 0.65 0.33185201883 -2.4559707962 0.6 0.34420529008 -2.4559707962 0.55 0.34219270945 
-2.4559707962 0.5 0.33507999778 -2.4559707962 0.45 0.33106216788 -2.4559707962 0.4 0.33294293284 
-2.4559707962 0.35 0.33805784583 -2.4559707962 0.3 0.34594026208 -2.4559707962 0.25 0.35288998485 
-2.4559707962 0.2 0.35862326622 -2.4559707962 0.15 0.3600410223 -2.4559707962 0.1 0.3572306335 
-2.4559707962 0.05 0.36038404703 -2.4559707962 0 0.36376497149 -2.3775405236 1.5 0.36148041487 
-2.3775405236 1.45 0.36521449685 -2.3775405236 1.4 0.35797265172 -2.3775405236 1.35 0.35933741927 
-2.3775405236 1.3 0.36279460788 -2.3775405236 1.25 0.37239956856 -2.3775405236 1.2 0.36990621686 
-2.3775405236 1.15 0.37320971489 -2.3775405236 1.1 0.37089598179 -2.3775405236 1.05 0.37853071094 
-2.3775405236 1 0.37796652317 -2.3775405236 0.95 0.37508115172 -2.3775405236 0.9 0.36314204335 
-2.3775405236 0.85 0.3440310657 -2.3775405236 0.8 0.34298357368 -2.3775405236 0.75 0.33877649903 
-2.3775405236 0.7 0.33694458008 -2.3775405236 0.65 0.33819442987 -2.3775405236 0.6 0.3480309546 
-2.3775405236 0.55 0.34303721786 -2.3775405236 0.5 0.3347350359 -2.3775405236 0.45 0.33083280921 
-2.3775405236 0.4 0.33200833201 -2.3775405236 0.35 0.33776578307 -2.3775405236 0.3 0.34450149536 
-2.3775405236 0.25 0.35052394867 -2.3775405236 0.2 0.35441452265 -2.3775405236 0.15 0.35024601221 
-2.3775405236 0.1 0.34840536118 -2.3775405236 0.05 0.35581120849 -2.3775405236 0 0.3526443541 
-2.3008955421 1.5 0.34866285324 -2.3008955421 1.45 0.35281327367 -2.3008955421 1.4 0.34864261746 
-2.3008955421 1.35 0.35705950856 -2.3008955421 1.3 0.35913234949 -2.3008955421 1.25 0.36990121007 
-2.3008955421 1.2 0.36579540372 -2.3008955421 1.15 0.36912614107 -2.3008955421 1.1 0.36689564586 
-2.3008955421 1.05 0.3760433495 -2.3008955421 1 0.37596172094 -2.3008955421 0.95 0.37585818768 
-2.3008955421 0.9 0.36417394876 -2.3008955421 0.85 0.3487251997 -2.3008955421 0.8 0.34642344713 
-2.3008955421 0.75 0.34534403682 -2.3008955421 0.7 0.34478211403 -2.3008955421 0.65 0.3448638618 
-2.3008955421 0.6 0.35002970695 -2.3008955421 0.55 0.34317484498 -2.3008955421 0.5 0.333563447 
-2.3008955421 0.45 0.33005487919 -2.3008955421 0.4 0.3317579627 -2.3008955421 0.35 0.3357078433 
-2.3008955421 0.3 0.34068915248 -2.3008955421 0.25 0.34690308571 -2.3008955421 0.2 0.35259333253 
-2.3008955421 0.15 0.34705710411 -2.3008955421 0.1 0.34353929758 -2.3008955421 0.05 0.34745687246 
-2.3008955421 0 0.34858000278 -2.2259952133 1.5 0.34167191386 -2.2259952133 1.45 0.3412604332 
-2.2259952133 1.4 0.34422177076 -2.2259952133 1.35 0.35228165984 -2.2259952133 1.3 0.35670518875 
-2.2259952133 1.25 0.36516022682 -2.2259952133 1.2 0.36209401488 -2.2259952133 1.15 0.36654436588 
-2.2259952133 1.1 0.36408162117 -2.2259952133 1.05 0.37135609984 -2.2259952133 1 0.37379398942 
-2.2259952133 0.95 0.37583652139 -2.2259952133 0.9 0.36707869172 -2.2259952133 0.85 0.35402694345 
-2.2259952133 0.8 0.35975858569 -2.2259952133 0.75 0.35355174541 -2.2259952133 0.7 0.3492769897 
-2.2259952133 0.65 0.34855490923 -2.2259952133 0.6 0.35203012824 -2.2259952133 0.55 0.34439694881 
-2.2259952133 0.5 0.33797633648 -2.2259952133 0.45 0.32994893193 -2.2259952133 0.4 0.32974857092 
-2.2259952133 0.35 0.33368343115 -2.2259952133 0.3 0.33874818683 -2.2259952133 0.25 0.34562465549 
-2.2259952133 0.2 0.35060155392 -2.2259952133 0.15 0.34674084187 -2.2259952133 0.1 0.33773118258 
-2.2259952133 0.05 0.33601737022 -2.2259952133 0 0.33646079898 -2.1527998241 1.5 0.3409358561 
-2.1527998241 1.45 0.33771413565 -2.1527998241 1.4 0.33946248889 -2.1527998241 1.35 0.34994971752 
-2.1527998241 1.3 0.35301816463 -2.1527998241 1.25 0.36160755157 -2.1527998241 1.2 0.3611138761 
-2.1527998241 1.15 0.36567014456 -2.1527998241 1.1 0.36307859421 -2.1527998241 1.05 0.36886754632 
-2.1527998241 1 0.37097519636 -2.1527998241 0.95 0.37570819259 -2.1527998241 0.9 0.36727440357 
-2.1527998241 0.85 0.36620387435 -2.1527998241 0.8 0.36613667011 -2.1527998241 0.75 0.3557946384 
-2.1527998241 0.7 0.35109868646 -2.1527998241 0.65 0.35106179118 -2.1527998241 0.6 0.354087919 
-2.1527998241 0.55 0.34629637003 -2.1527998241 0.5 0.33793267608 -2.1527998241 0.45 0.32804349065 
-2.1527998241 0.4 0.32773035765 -2.1527998241 0.35 0.33067449927 -2.1527998241 0.3 0.33559945226 
-2.1527998241 0.25 0.3416223526 -2.1527998241 0.2 0.34685531259 -2.1527998241 0.15 0.34771168232 
-2.1527998241 0.1 0.32811257243 -2.1527998241 0.05 0.33329796791 -2.1527998241 0 0.32857304811 
-2.0812705654 1.5 0.34206306934 -2.0812705654 1.45 0.33521094918 -2.0812705654 1.4 0.34703111649 
-2.0812705654 1.35 0.35201126337 -2.0812705654 1.3 0.35202145576 -2.0812705654 1.25 0.35891368985 
-2.0812705654 1.2 0.3599037528 -2.0812705654 1.15 0.36289057136 -2.0812705654 1.1 0.36206021905 
-2.0812705654 1.05 0.36995366216 -2.0812705654 1 0.369043082 -2.0812705654 0.95 0.37493631244 
-2.0812705654 0.9 0.36802276969 -2.0812705654 0.85 0.36598744988 -2.0812705654 0.8 0.36703824997 
-2.0812705654 0.75 0.36604386568 -2.0812705654 0.7 0.35210615396 -2.0812705654 0.65 0.35109433532 
-2.0812705654 0.6 0.35701367259 -2.0812705654 0.55 0.34905308485 -2.0812705654 0.5 0.33799752593 
-2.0812705654 0.45 0.32797896862 -2.0812705654 0.4 0.32496908307 -2.0812705654 0.35 0.32691591978 
-2.0812705654 0.3 0.33092847466 -2.0812705654 0.25 0.33797615767 -2.0812705654 0.2 0.34497341514 
-2.0812705654 0.15 0.34802147746 -2.0812705654 0.1 0.34312778711 -2.0812705654 0.05 0.33044049144 
-2.0812705654 0 0.34023207426 -2.0113695114 1.5 0.3457492888 -2.0113695114 1.45 0.34360411763 
-2.0113695114 1.4 0.34795707464 -2.0113695114 1.35 0.35201507807 -2.0113695114 1.3 0.35119497776 
-2.0113695114 1.25 0.35610565543 -2.0113695114 1.2 0.35354349017 -2.0113695114 1.15 0.35827663541 
-2.0113695114 1.1 0.36309862137 -2.0113695114 1.05 0.36898460984 -2.0113695114 1 0.36913496256 
-2.0113695114 0.95 0.37393540144 -2.0113695114 0.9 0.36807316542 -2.0113695114 0.85 0.36596095562 
-2.0113695114 0.8 0.36798614264 -2.0113695114 0.75 0.36960712075 -2.0113695114 0.7 0.35495352745 
-2.0113695114 0.65 0.3557009995 -2.0113695114 0.6 0.35879716277 -2.0113695114 0.55 0.35090768337 
-2.0113695114 0.5 0.33798405528 -2.0113695114 0.45 0.32617372274 -2.0113695114 0.4 0.32403945923 
-2.0113695114 0.35 0.3232396245 -2.0113695114 0.3 0.32728928328 -2.0113695114 0.25 0.33709201217 
-2.0113695114 0.2 0.34318065643 -2.0113695114 0.15 0.34803631902 -2.0113695114 0.1 0.34776714444 
-2.0113695114 0.05 0.34901148081 -2.0113695114 0 0.35040602088 -1.9430595997 1.5 0.34440460801 
-1.9430595997 1.45 0.34508180618 -1.9430595997 1.4 0.34736737609 -1.9430595997 1.35 0.35023620725 
-1.9430595997 1.3 0.35036945343 -1.9430595997 1.25 0.35226744413 -1.9430595997 1.2 0.34901753068 
-1.9430595997 1.15 0.35447070003 -1.9430595997 1.1 0.35747778416 -1.9430595997 1.05 0.36718657613 
-1.9430595997 1 0.37005347013 -1.9430595997 0.95 0.3712310195 -1.9430595997 0.9 0.36812233925 
-1.9430595997 0.85 0.36763390899 -1.9430595997 0.8 0.36981570721 -1.9430595997 0.75 0.37277755141 
-1.9430595997 0.7 0.35963562131 -1.9430595997 0.65 0.35695761442 -1.9430595997 0.6 0.35977506638 
-1.9430595997 0.55 0.35273164511 -1.9430595997 0.5 0.33802321553 -1.9430595997 0.45 0.32538017631 
-1.9430595997 0.4 0.32147181034 -1.9430595997 0.35 0.3198197186 -1.9430595997 0.3 0.32371652126 
-1.9430595997 0.25 0.33030682802 -1.9430595997 0.2 0.34054616094 -1.9430595997 0.15 0.34791830182 
-1.9430595997 0.1 0.34844067693 -1.9430595997 0.05 0.35202404857 -1.9430595997 0 0.35134980083 
-1.8763046114 1.5 0.34495383501 -1.8763046114 1.45 0.34442085028 -1.8763046114 1.4 0.34395715594 
-1.8763046114 1.35 0.3480489552 -1.8763046114 1.3 0.34918901324 -1.8763046114 1.25 0.34931790829 
-1.8763046114 1.2 0.34667947888 -1.8763046114 1.15 0.34831061959 -1.8763046114 1.1 0.35304224491 
-1.8763046114 1.05 0.36348116398 -1.8763046114 1 0.37034210563 -1.8763046114 0.95 0.37038633227 
-1.8763046114 0.9 0.36812734604 -1.8763046114 0.85 0.36809226871 -1.8763046114 0.8 0.37268394232 
-1.8763046114 0.75 0.37615281343 -1.8763046114 0.7 0.36282289028 -1.8763046114 0.65 0.35720175505 
-1.8763046114 0.6 0.35968127847 -1.8763046114 0.55 0.35291576385 -1.8763046114 0.5 0.33737152815 
-1.8763046114 0.45 0.32378715277 -1.8763046114 0.4 0.31723159552 -1.8763046114 0.35 0.31540942192 
-1.8763046114 0.3 0.31980997324 -1.8763046114 0.25 0.32684752345 -1.8763046114 0.2 0.33791846037 
-1.8763046114 0.15 0.34695625305 -1.8763046114 0.1 0.34697800875 -1.8763046114 0.05 0.35146135092 
-1.8763046114 0 0.35232302547 -1.8110691521 1.5 0.34296679497 -1.8110691521 1.45 0.34117239714 
-1.8110691521 1.4 0.33930051327 -1.8110691521 1.35 0.3418995738 -1.8110691521 1.3 0.34537512064 
-1.8110691521 1.25 0.34195712209 -1.8110691521 1.2 0.34025982022 -1.8110691521 1.15 0.34031027555 
-1.8110691521 1.1 0.34696024656 -1.8110691521 1.05 0.3577003777 -1.8110691521 1 0.36718425155 
-1.8110691521 0.95 0.36808040738 -1.8110691521 0.9 0.36788347363 -1.8110691521 0.85 0.36812344193 
-1.8110691521 0.8 0.37352249026 -1.8110691521 0.75 0.37822011113 -1.8110691521 0.7 0.36470472813 
-1.8110691521 0.65 0.35780158639 -1.8110691521 0.6 0.36009451747 -1.8110691521 0.55 0.35295277834 
-1.8110691521 0.5 0.33705198765 -1.8110691521 0.45 0.32183760405 -1.8110691521 0.4 0.31401452422 
-1.8110691521 0.35 0.31334027648 -1.8110691521 0.3 0.31732991338 -1.8110691521 0.25 0.32443118095 
-1.8110691521 0.2 0.33494356275 -1.8110691521 0.15 0.34512653947 -1.8110691521 0.1 0.34616819024 
-1.8110691521 0.05 0.3532397449 -1.8110691521 0 0.3538556993 -1.7473186332 1.5 0.34017270803 
-1.7473186332 1.45 0.33670195937 -1.7473186332 1.4 0.33560046554 -1.7473186332 1.35 0.33667430282 
-1.7473186332 1.3 0.34189364314 -1.7473186332 1.25 0.33563041687 -1.7473186332 1.2 0.33436486125 
-1.7473186332 1.15 0.3342807889 -1.7473186332 1.1 0.34163033962 -1.7473186332 1.05 0.35164737701 
-1.7473186332 1 0.36137577891 -1.7473186332 0.95 0.36543256044 -1.7473186332 0.9 0.36773467064 
-1.7473186332 0.85 0.36820757389 -1.7473186332 0.8 0.3738027215 -1.7473186332 0.75 0.3794106245 
-1.7473186332 0.7 0.36667686701 -1.7473186332 0.65 0.35920727253 -1.7473186332 0.6 0.36085575819 
-1.7473186332 0.55 0.35258349776 -1.7473186332 0.5 0.33653202653 -1.7473186332 0.45 0.32080760598 
-1.7473186332 0.4 0.31301030517 -1.7473186332 0.35 0.31165421009 -1.7473186332 0.3 0.31423038244 
-1.7473186332 0.25 0.32119196653 -1.7473186332 0.2 0.33268591762 -1.7473186332 0.15 0.34351149201 
-1.7473186332 0.1 0.34591919184 -1.7473186332 0.05 0.35448348522 -1.7473186332 0 0.35426899791 
-1.6850192533 1.5 0.33757203817 -1.6850192533 1.45 0.33222520351 -1.6850192533 1.4 0.33419278264 
-1.6850192533 1.35 0.33404880762 -1.6850192533 1.3 0.34049737453 -1.6850192533 1.25 0.33281216025 
-1.6850192533 1.2 0.33218535781 -1.6850192533 1.15 0.33157777786 -1.6850192533 1.1 0.33775651455 
-1.6850192533 1.05 0.34598016739 -1.6850192533 1 0.3564978838 -1.6850192533 0.95 0.36495706439 
-1.6850192533 0.9 0.36789450049 -1.6850192533 0.85 0.36790412664 -1.6850192533 0.8 0.37442475557 
-1.6850192533 0.75 0.38062262535 -1.6850192533 0.7 0.36875072122 -1.6850192533 0.65 0.36076587439 
-1.6850192533 0.6 0.3618709743 -1.6850192533 0.55 0.35234922171 -1.6850192533 0.5 0.33588820696 
-1.6850192533 0.45 0.31991046667 -1.6850192533 0.4 0.31231859326 -1.6850192533 0.35 0.30794742703 
-1.6850192533 0.3 0.30967730284 -1.6850192533 0.25 0.31701600552 -1.6850192533 0.2 0.33144140244 
-1.6850192533 0.15 0.34228393435 -1.6850192533 0.1 0.34528908134 -1.6850192533 0.05 0.35457640886 
-1.6850192533 0 0.35432180762 -1.6241379804 1.5 0.33297634125 -1.6241379804 1.45 0.32794117928 
-1.6241379804 1.4 0.33286559582 -1.6241379804 1.35 0.33098301291 -1.6241379804 1.3 0.33785706758 
-1.6241379804 1.25 0.32897761464 -1.6241379804 1.2 0.33090266585 -1.6241379804 1.15 0.32901400328 
-1.6241379804 1.1 0.33490180969 -1.6241379804 1.05 0.33801367879 -1.6241379804 1 0.35694637895 
-1.6241379804 0.95 0.36500644684 -1.6241379804 0.9 0.36794796586 -1.6241379804 0.85 0.36601576209 
-1.6241379804 0.8 0.37499573827 -1.6241379804 0.75 0.38092112541 -1.6241379804 0.7 0.3700376451 
-1.6241379804 0.65 0.36207255721 -1.6241379804 0.6 0.36300495267 -1.6241379804 0.55 0.35400116444 
-1.6241379804 0.5 0.33599674702 -1.6241379804 0.45 0.31904959679 -1.6241379804 0.4 0.31098094583 
-1.6241379804 0.35 0.30397805572 -1.6241379804 0.3 0.30590340495 -1.6241379804 0.25 0.31298992038 
-1.6241379804 0.2 0.32996073365 -1.6241379804 0.15 0.34094265103 -1.6241379804 0.1 0.34403553605 
-1.6241379804 0.05 0.3549669683 -1.6241379804 0 0.35501280427 -1.5646425344 1.5 0.33292096853 
-1.5646425344 1.45 0.32439374924 -1.5646425344 1.4 0.32854372263 -1.5646425344 1.35 0.32842230797 
-1.5646425344 1.3 0.33412465453 -1.5646425344 1.25 0.32635673881 -1.5646425344 1.2 0.32759746909 
-1.5646425344 1.15 0.32866734266 -1.5646425344 1.1 0.33223551512 -1.5646425344 1.05 0.3376634717 
-1.5646425344 1 0.35589724779 -1.5646425344 0.95 0.36446258426 -1.5646425344 0.9 0.36622479558 
-1.5646425344 0.85 0.36557772756 -1.5646425344 0.8 0.37496313453 -1.5646425344 0.75 0.37774157524 
-1.5646425344 0.7 0.37101107836 -1.5646425344 0.65 0.363999933 -1.5646425344 0.6 0.36366197467 
-1.5646425344 0.55 0.35398188233 -1.5646425344 0.5 0.33535379171 -1.5646425344 0.45 0.32081085443 
-1.5646425344 0.4 0.31036201119 -1.5646425344 0.35 0.30269920826 -1.5646425344 0.3 0.30202805996 
-1.5646425344 0.25 0.31237500906 -1.5646425344 0.2 0.3290271759 -1.5646425344 0.15 0.33919930458 
-1.5646425344 0.1 0.34438848495 -1.5646425344 0.05 0.35466063023 -1.5646425344 0 0.355099231 
-1.5065013701 1.5 0.32955673337 -1.5065013701 1.45 0.32153683901 -1.5065013701 1.4 0.3248269558 
-1.5065013701 1.35 0.32511734962 -1.5065013701 1.3 0.33053728938 -1.5065013701 1.25 0.32375219464 
-1.5065013701 1.2 0.32414439321 -1.5065013701 1.15 0.32312503457 -1.5065013701 1.1 0.33068796992 
-1.5065013701 1.05 0.3362981379 -1.5065013701 1 0.35318216681 -1.5065013701 0.95 0.36254107952 
-1.5065013701 0.9 0.36504119635 -1.5065013701 0.85 0.36518970132 -1.5065013701 0.8 0.37404900789 
-1.5065013701 0.75 0.37463778257 -1.5065013701 0.7 0.37043261528 -1.5065013701 0.65 0.3645439744 
-1.5065013701 0.6 0.36368763447 -1.5065013701 0.55 0.35334184766 -1.5065013701 0.5 0.3348698318 
-1.5065013701 0.45 0.32034668326 -1.5065013701 0.4 0.30532824993 -1.5065013701 0.35 0.29753050208 
-1.5065013701 0.3 0.29841420054 -1.5065013701 0.25 0.31013327837 -1.5065013701 0.2 0.32809725404 
-1.5065013701 0.15 0.33783450723 -1.5065013701 0.1 0.34446883202 -1.5065013701 0.05 0.35407593846 
-1.5065013701 0 0.35582885146 -1.4496836604 1.5 0.32529884577 -1.4496836604 1.45 0.3182978034 
-1.4496836604 1.4 0.32199251652 -1.4496836604 1.35 0.32167685032 -1.4496836604 1.3 0.3276771605 
-1.4496836604 1.25 0.32095256448 -1.4496836604 1.2 0.31991055608 -1.4496836604 1.15 0.31804862618 
-1.4496836604 1.1 0.3288179338 -1.4496836604 1.05 0.33469611406 -1.4496836604 1 0.35035088658 
-1.4496836604 0.95 0.36033055186 -1.4496836604 0.9 0.3643476069 -1.4496836604 0.85 0.36425256729 
-1.4496836604 0.8 0.37477356195 -1.4496836604 0.75 0.37710905075 -1.4496836604 0.7 0.37123525143 
-1.4496836604 0.65 0.36478170753 -1.4496836604 0.6 0.36367169023 -1.4496836604 0.55 0.35185331106 
-1.4496836604 0.5 0.3347441256 -1.4496836604 0.45 0.31828653812 -1.4496836604 0.4 0.2998419404 
-1.4496836604 0.35 0.29225590825 -1.4496836604 0.3 0.29423728585 -1.4496836604 0.25 0.30720064044 
-1.4496836604 0.2 0.32705339789 -1.4496836604 0.15 0.33661028743 -1.4496836604 0.1 0.34417515993 
-1.4496836604 0.05 0.35345184803 -1.4496836604 0 0.35562902689 -1.3941592795 1.5 0.32292163372 
-1.3941592795 1.45 0.31492862105 -1.3941592795 1.4 0.31972235441 -1.3941592795 1.35 0.31794458628 
-1.3941592795 1.3 0.32577595115 -1.3941592795 1.25 0.31898730993 -1.3941592795 1.2 0.31485629082 
-1.3941592795 1.15 0.31573531032 -1.3941592795 1.1 0.3245343864 -1.3941592795 1.05 0.33274656534 
-1.3941592795 1 0.34784600139 -1.3941592795 0.95 0.35788029432 -1.3941592795 0.9 0.36374849081 
-1.3941592795 0.85 0.36207923293 -1.3941592795 0.8 0.37500065565 -1.3941592795 0.75 0.38463360071 
-1.3941592795 0.7 0.37106269598 -1.3941592795 0.65 0.36506462097 -1.3941592795 0.6 0.36485344172 
-1.3941592795 0.55 0.34808817506 -1.3941592795 0.5 0.33575704694 -1.3941592795 0.45 0.31366360188 
-1.3941592795 0.4 0.29681590199 -1.3941592795 0.35 0.28981265426 -1.3941592795 0.3 0.29096525908 
-1.3941592795 0.25 0.30503129959 -1.3941592795 0.2 0.32682055235 -1.3941592795 0.15 0.33497700095 
-1.3941592795 0.1 0.343996346 -1.3941592795 0.05 0.35296311975 -1.3941592795 0 0.35393178463 
-1.3398987879 1.5 0.32203525305 -1.3398987879 1.45 0.31251940131 -1.3398987879 1.4 0.31560927629 
-1.3398987879 1.35 0.31558519602 -1.3398987879 1.3 0.32296717167 -1.3398987879 1.25 0.31848415732 
-1.3398987879 1.2 0.31260684133 -1.3398987879 1.15 0.31003084779 -1.3398987879 1.1 0.31554508209 
-1.3398987879 1.05 0.32659134269 -1.3398987879 1 0.34548598528 -1.3398987879 0.95 0.35516944528 
-1.3398987879 0.9 0.35918605328 -1.3398987879 0.85 0.36259180307 -1.3398987879 0.8 0.37493994832 
-1.3398987879 0.75 0.37603589892 -1.3398987879 0.7 0.37130281329 -1.3398987879 0.65 0.36545094848 
-1.3398987879 0.6 0.36343726516 -1.3398987879 0.55 0.34956240654 -1.3398987879 0.5 0.33220735192 
-1.3398987879 0.45 0.30597165227 -1.3398987879 0.4 0.29367634654 -1.3398987879 0.35 0.28572848439 
-1.3398987879 0.3 0.28996503353 -1.3398987879 0.25 0.30490869284 -1.3398987879 0.2 0.32379686832 
-1.3398987879 0.15 0.33385556936 -1.3398987879 0.1 0.34351745248 -1.3398987879 0.05 0.35279425979 
-1.3398987879 0 0.35252887011 -1.2868734159 1.5 0.32084897161 -1.2868734159 1.45 0.31022322178 
-1.2868734159 1.4 0.31198817492 -1.2868734159 1.35 0.31392627954 -1.2868734159 1.3 0.32181024551 
-1.2868734159 1.25 0.31717529893 -1.2868734159 1.2 0.31012943387 -1.2868734159 1.15 0.30659362674 
-1.2868734159 1.1 0.31123301387 -1.2868734159 1.05 0.32208243012 -1.2868734159 1 0.34246486425 
-1.2868734159 0.95 0.35234746337 -1.2868734159 0.9 0.35625830293 -1.2868734159 0.85 0.36255985498 
-1.2868734159 0.8 0.37284252048 -1.2868734159 0.75 0.37197831273 -1.2868734159 0.7 0.37023052573 
-1.2868734159 0.65 0.36512571573 -1.2868734159 0.6 0.36404410005 -1.2868734159 0.55 0.3538787365 
-1.2868734159 0.5 0.33010420203 -1.2868734159 0.45 0.30320778489 -1.2868734159 0.4 0.29082784057 
-1.2868734159 0.35 0.28217282891 -1.2868734159 0.3 0.28468030691 -1.2868734159 0.25 0.30050498247 
-1.2868734159 0.2 0.32050260901 -1.2868734159 0.15 0.3317039609 -1.2868734159 0.1 0.34194773436 
-1.2868734159 0.05 0.35191953182 -1.2868734159 0 0.35194465518 -1.2350550487 1.5 0.31963190436 
-1.2350550487 1.45 0.30807581544 -1.2350550487 1.4 0.30930995941 -1.2350550487 1.35 0.31181719899 
-1.2350550487 1.3 0.32123428583 -1.2350550487 1.25 0.31464445591 -1.2350550487 1.2 0.30750849843 
-1.2350550487 1.15 0.30464676023 -1.2350550487 1.1 0.31021371484 -1.2350550487 1.05 0.31884145737 
-1.2350550487 1 0.34030550718 -1.2350550487 0.95 0.34941279888 -1.2350550487 0.9 0.35334989429 
-1.2350550487 0.85 0.36189249158 -1.2350550487 0.8 0.37142068148 -1.2350550487 0.75 0.37116202712 
-1.2350550487 0.7 0.37080436945 -1.2350550487 0.65 0.36417040229 -1.2350550487 0.6 0.36385023594 
-1.2350550487 0.55 0.35666489601 -1.2350550487 0.5 0.32767397165 -1.2350550487 0.45 0.30291742086 
-1.2350550487 0.4 0.28954529762 -1.2350550487 0.35 0.27972045541 -1.2350550487 0.3 0.27861684561 
-1.2350550487 0.25 0.29588490725 -1.2350550487 0.2 0.31864568591 -1.2350550487 0.15 0.3299601078 
-1.2350550487 0.1 0.33988201618 -1.2350550487 0.05 0.35048979521 -1.2350550487 0 0.35042080283 
-1.1844162116 1.5 0.31821212173 -1.1844162116 1.45 0.30816301703 -1.1844162116 1.4 0.30651426315 
-1.1844162116 1.35 0.3093342185 -1.1844162116 1.3 0.31834298372 -1.1844162116 1.25 0.31203943491 
-1.1844162116 1.2 0.30486485362 -1.1844162116 1.15 0.30152952671 -1.1844162116 1.1 0.30557179451 
-1.1844162116 1.05 0.31639647484 -1.1844162116 1 0.33810955286 -1.1844162116 0.95 0.34715744853 
-1.1844162116 0.9 0.35027194023 -1.1844162116 0.85 0.36179754138 -1.1844162116 0.8 0.36815237999 
-1.1844162116 0.75 0.37129792571 -1.1844162116 0.7 0.37012267113 -1.1844162116 0.65 0.36375561357 
-1.1844162116 0.6 0.36305320263 -1.1844162116 0.55 0.34892532229 -1.1844162116 0.5 0.3250027895 
-1.1844162116 0.45 0.30170112848 -1.1844162116 0.4 0.28689232469 -1.1844162116 0.35 0.27906295657 
-1.1844162116 0.3 0.27619880438 -1.1844162116 0.25 0.29609674215 -1.1844162116 0.2 0.31743103266 
-1.1844162116 0.15 0.32946571708 -1.1844162116 0.1 0.33870860934 -1.1844162116 0.05 0.34836494923 
-1.1844162116 0 0.346478194 -1.1349300551 1.5 0.31751656532 -1.1349300551 1.45 0.30801019073 
-1.1349300551 1.4 0.30451235175 -1.1349300551 1.35 0.30666816235 -1.1349300551 1.3 0.31543686986 
-1.1349300551 1.25 0.31037345529 -1.1349300551 1.2 0.30204883218 -1.1349300551 1.15 0.29580777884 
-1.1349300551 1.1 0.29985761642 -1.1349300551 1.05 0.3140822947 -1.1349300551 1 0.33623039722 
-1.1349300551 0.95 0.34686145186 -1.1349300551 0.9 0.3576387167 -1.1349300551 0.85 0.35972890258 
-1.1349300551 0.8 0.3641346395 -1.1349300551 0.75 0.370203197 -1.1349300551 0.7 0.36811175942 
-1.1349300551 0.65 0.36241561174 -1.1349300551 0.6 0.36197081208 -1.1349300551 0.55 0.34812778234 
-1.1349300551 0.5 0.32261419296 -1.1349300551 0.45 0.29931908846 -1.1349300551 0.4 0.2849740386 
-1.1349300551 0.35 0.27567568421 -1.1349300551 0.3 0.27446597815 -1.1349300551 0.25 0.29141005874 
-1.1349300551 0.2 0.31354504824 -1.1349300551 0.15 0.3266877234 -1.1349300551 0.1 0.33636331558 
-1.1349300551 0.05 0.34683066607 -1.1349300551 0 0.34227392077 -1.086570341 1.5 0.31544312835 
-1.086570341 1.45 0.30530771613 -1.086570341 1.4 0.30124297738 -1.086570341 1.35 0.30269756913 
-1.086570341 1.3 0.31343856454 -1.086570341 1.25 0.30894142389 -1.086570341 1.2 0.29944062233 
-1.086570341 1.15 0.2896604836 -1.086570341 1.1 0.29579249024 -1.086570341 1.05 0.31339722872 
-1.086570341 1 0.33693659306 -1.086570341 0.95 0.34283208847 -1.086570341 0.9 0.36355081201 
-1.086570341 0.85 0.35224193335 -1.086570341 0.8 0.35978886485 -1.086570341 0.75 0.36984154582 
-1.086570341 0.7 0.36587038636 -1.086570341 0.65 0.35994505882 -1.086570341 0.6 0.36179879308 
-1.086570341 0.55 0.35047194362 -1.086570341 0.5 0.32228791714 -1.086570341 0.45 0.29854282737 
-1.086570341 0.4 0.28340691328 -1.086570341 0.35 0.27068790793 -1.086570341 0.3 0.27147090435 
-1.086570341 0.25 0.283493191 -1.086570341 0.2 0.30838814378 -1.086570341 0.15 0.32253563404 
-1.086570341 0.1 0.33171159029 -1.086570341 0.05 0.34501761198 -1.086570341 0 0.33618053794 
-1.0393114285 1.5 0.31036642194 -1.0393114285 1.45 0.29853439331 -1.0393114285 1.4 0.29430317879 
-1.0393114285 1.35 0.2991784215 -1.0393114285 1.3 0.30886825919 -1.0393114285 1.25 0.30838468671 
-1.0393114285 1.2 0.29368430376 -1.0393114285 1.15 0.28611129522 -1.0393114285 1.1 0.29340827465 
-1.0393114285 1.05 0.31566035748 -1.0393114285 1 0.33759588003 -1.0393114285 0.95 0.33868765831 
-1.0393114285 0.9 0.34091937542 -1.0393114285 0.85 0.34319221973 -1.0393114285 0.8 0.35839760303 
-1.0393114285 0.75 0.36878830194 -1.0393114285 0.7 0.36479139328 -1.0393114285 0.65 0.35831597447 
-1.0393114285 0.6 0.36009055376 -1.0393114285 0.55 0.3444890976 -1.0393114285 0.5 0.32358211279 
-1.0393114285 0.45 0.30339339375 -1.0393114285 0.4 0.27722191811 -1.0393114285 0.35 0.26854723692 
-1.0393114285 0.3 0.26815989614 -1.0393114285 0.25 0.28081384301 -1.0393114285 0.2 0.30533885956 
-1.0393114285 0.15 0.31862321496 -1.0393114285 0.1 0.32816261053 -1.0393114285 0.05 0.33736717701 
-1.0393114285 0 0.32855898142 -0.9931282601 1.5 0.30624905229 -0.9931282601 1.45 0.29272413254 
-0.9931282601 1.4 0.28975039721 -0.9931282601 1.35 0.29090037942 -0.9931282601 1.3 0.30619648099 
-0.9931282601 1.25 0.30652114749 -0.9931282601 1.2 0.28235939145 -0.9931282601 1.15 0.27953597903 
-0.9931282601 1.1 0.28349795938 -0.9931282601 1.05 0.30922648311 -0.9931282601 1 0.3339086771 
-0.9931282601 0.95 0.33402660489 -0.9931282601 0.9 0.33019411564 -0.9931282601 0.85 0.33290097117 
-0.9931282601 0.8 0.35239946842 -0.9931282601 0.75 0.36561945081 -0.9931282601 0.7 0.36241537333 
-0.9931282601 0.65 0.35536083579 -0.9931282601 0.6 0.35385042429 -0.9931282601 0.55 0.34073793888 
-0.9931282601 0.5 0.31853744388 -0.9931282601 0.45 0.29708632827 -0.9931282601 0.4 0.27184423804 
-0.9931282601 0.35 0.26626223326 -0.9931282601 0.3 0.26783838868 -0.9931282601 0.25 0.29375782609 
-0.9931282601 0.2 0.30484953523 -0.9931282601 0.15 0.31172502041 -0.9931282601 0.1 0.32217735052 
-0.9931282601 0.05 0.33191946149 -0.9931282601 0 0.3247153163 -0.94799634899 1.5 0.30450156331 
-0.94799634899 1.45 0.28895455599 -0.94799634899 1.4 0.28556033969 -0.94799634899 1.35 0.28934076428 
-0.94799634899 1.3 0.30551925302 -0.94799634899 1.25 0.30121123791 -0.94799634899 1.2 0.27471590042 
-0.94799634899 1.15 0.27456784248 -0.94799634899 1.1 0.27685785294 -0.94799634899 1.05 0.30335178971 
-0.94799634899 1 0.33058905602 -0.94799634899 0.95 0.33089950681 -0.94799634899 0.9 0.3274550736 
-0.94799634899 0.85 0.32530984282 -0.94799634899 0.8 0.34219571948 -0.94799634899 0.75 0.35933306813 
-0.94799634899 0.7 0.35860088468 -0.94799634899 0.65 0.35211053491 -0.94799634899 0.6 0.34726902843 
-0.94799634899 0.55 0.33915320039 -0.94799634899 0.5 0.31331664324 -0.94799634899 0.45 0.28783762455 
-0.94799634899 0.4 0.2688986063 -0.94799634899 0.35 0.26356723905 -0.94799634899 0.3 0.26460400224 
-0.94799634899 0.25 0.29479631782 -0.94799634899 0.2 0.30169075727 -0.94799634899 0.15 0.30649915338 
-0.94799634899 0.1 0.3147123456 -0.94799634899 0.05 0.32407212257 -0.94799634899 0 0.32176598907 
-0.90389176559 1.5 0.3010686636 -0.90389176559 1.45 0.28706222773 -0.90389176559 1.4 0.27867081761 
-0.90389176559 1.35 0.29270067811 -0.90389176559 1.3 0.30502817035 -0.90389176559 1.25 0.29470863938 
-0.90389176559 1.2 0.27244758606 -0.90389176559 1.15 0.26973849535 -0.90389176559 1.1 0.27820089459 
-0.90389176559 1.05 0.30027633905 -0.90389176559 1 0.32923200727 -0.90389176559 0.95 0.32369053364 
-0.90389176559 0.9 0.32035896182 -0.90389176559 0.85 0.31951364875 -0.90389176559 0.8 0.33281809092 
-0.90389176559 0.75 0.35132527351 -0.90389176559 0.7 0.35570845008 -0.90389176559 0.65 0.34673658013 
-0.90389176559 0.6 0.34479221702 -0.90389176559 0.55 0.33305084705 -0.90389176559 0.5 0.31055918336 
-0.90389176559 0.45 0.28820964694 -0.90389176559 0.4 0.26672589779 -0.90389176559 0.35 0.26192426682 
-0.90389176559 0.3 0.26101818681 -0.90389176559 0.25 0.2739931941 -0.90389176559 0.2 0.29856133461 
-0.90389176559 0.15 0.30263927579 -0.90389176559 0.1 0.30406814814 -0.90389176559 0.05 0.31379809976 
-0.90389176559 0 0.31393557787 -0.86079112508 1.5 0.29264217615 -0.86079112508 1.45 0.28655675054 
-0.86079112508 1.4 0.27669745684 -0.86079112508 1.35 0.28178939223 -0.86079112508 1.3 0.30468684435 
-0.86079112508 1.25 0.29491168261 -0.86079112508 1.2 0.26081937551 -0.86079112508 1.15 0.26335039735 
-0.86079112508 1.1 0.27227896452 -0.86079112508 1.05 0.29459109902 -0.86079112508 1 0.31988447905 
-0.86079112508 0.95 0.31753712893 -0.86079112508 0.9 0.3147379756 -0.86079112508 0.85 0.31772661209 
-0.86079112508 0.8 0.32330429554 -0.86079112508 0.75 0.33920955658 -0.86079112508 0.7 0.35324347019 
-0.86079112508 0.65 0.33952647448 -0.86079112508 0.6 0.33818015456 -0.86079112508 0.55 0.32455062866 
-0.86079112508 0.5 0.30235812068 -0.86079112508 0.45 0.28746107221 -0.86079112508 0.4 0.26377663016 
-0.86079112508 0.35 0.2603752017 -0.86079112508 0.3 0.25650051236 -0.86079112508 0.25 0.27420189977 
-0.86079112508 0.2 0.29349893332 -0.86079112508 0.15 0.29132142663 -0.86079112508 0.1 0.2913416326 
-0.86079112508 0.05 0.30525243282 -0.86079112508 0 0.30555975437 -0.81867157493 1.5 0.28687015176 
-0.81867157493 1.45 0.27915391326 -0.81867157493 1.4 0.27175453305 -0.81867157493 1.35 0.2792532444 
-0.81867157493 1.3 0.29973232746 -0.81867157493 1.25 0.29327777028 -0.81867157493 1.2 0.25831589103 
-0.81867157493 1.15 0.25572258234 -0.81867157493 1.1 0.26072907448 -0.81867157493 1.05 0.30215516686 
-0.81867157493 1 0.31898969412 -0.81867157493 0.95 0.31088173389 -0.81867157493 0.9 0.30983924866 
-0.81867157493 0.85 0.31204667687 -0.81867157493 0.8 0.31178203225 -0.81867157493 0.75 0.32681512833 
-0.81867157493 0.7 0.34165486693 -0.81867157493 0.65 0.3305529654 -0.81867157493 0.6 0.3249849081 
-0.81867157493 0.55 0.31791001558 -0.81867157493 0.5 0.29166334867 -0.81867157493 0.45 0.27918508649 
-0.81867157493 0.4 0.25968888402 -0.81867157493 0.35 0.25200554729 -0.81867157493 0.3 0.24826751649 
-0.81867157493 0.25 0.27595975995 -0.81867157493 0.2 0.28526425362 -0.81867157493 0.15 0.28058668971 
-0.81867157493 0.1 0.2806289494 -0.81867157493 0.05 0.29367360473 -0.81867157493 0 0.29816022515 
-0.77751078279 1.5 0.27720287442 -0.77751078279 1.45 0.271669209 -0.77751078279 1.4 0.26575165987 
-0.77751078279 1.35 0.27821934223 -0.77751078279 1.3 0.29282343388 -0.77751078279 1.25 0.28343114257 
-0.77751078279 1.2 0.25945800543 -0.77751078279 1.15 0.25320807099 -0.77751078279 1.1 0.25793111324 
-0.77751078279 1.05 0.28344836831 -0.77751078279 1 0.31443437934 -0.77751078279 0.95 0.30919805169 
-0.77751078279 0.9 0.29848659039 -0.77751078279 0.85 0.29805338383 -0.77751078279 0.8 0.29805508256 
-0.77751078279 0.75 0.31420406699 -0.77751078279 0.7 0.3300704062 -0.77751078279 0.65 0.31750068069 
-0.77751078279 0.6 0.31063470244 -0.77751078279 0.55 0.30727958679 -0.77751078279 0.5 0.28159075975 
-0.77751078279 0.45 0.26895409822 -0.77751078279 0.4 0.25777599216 -0.77751078279 0.35 0.24934068322 
-0.77751078279 0.3 0.24797682464 -0.77751078279 0.25 0.26518237591 -0.77751078279 0.2 0.27644109726 
-0.77751078279 0.15 0.26599141955 -0.77751078279 0.1 0.26678037643 -0.77751078279 0.05 0.28013271093 
-0.77751078279 0 0.28671833873 -0.73728692467 1.5 0.26648935676 -0.73728692467 1.45 0.26436212659 
-0.73728692467 1.4 0.25900644064 -0.73728692467 1.35 0.26978510618 -0.73728692467 1.3 0.2858902216 
-0.73728692467 1.25 0.27402788401 -0.73728692467 1.2 0.25355893373 -0.73728692467 1.15 0.25006073713 
-0.73728692467 1.1 0.26024031639 -0.73728692467 1.05 0.26947459579 -0.73728692467 1 0.30658015609 
-0.73728692467 0.95 0.30101582408 -0.73728692467 0.9 0.28457677364 -0.73728692467 0.85 0.28366300464 
-0.73728692467 0.8 0.28067472577 -0.73728692467 0.75 0.2993606329 -0.73728692467 0.7 0.31708195806 
-0.73728692467 0.65 0.30417141318 -0.73728692467 0.6 0.29763939977 -0.73728692467 0.55 0.29378411174 
-0.73728692467 0.5 0.26848459244 -0.73728692467 0.45 0.25778785348 -0.73728692467 0.4 0.25327274203 
-0.73728692467 0.35 0.24564525485 -0.73728692467 0.3 0.24379689991 -0.73728692467 0.25 0.25480899215 
-0.73728692467 0.2 0.26517739892 -0.73728692467 0.15 0.25354152918 -0.73728692467 0.1 0.25183305144 
-0.73728692467 0.05 0.26758563519 -0.73728692467 0 0.27570644021 -0.69797867334 1.5 0.25483232737 
-0.69797867334 1.45 0.25489762425 -0.69797867334 1.4 0.25148916245 -0.69797867334 1.35 0.25918352604 
-0.69797867334 1.3 0.2751930058 -0.69797867334 1.25 0.26650562882 -0.69797867334 1.2 0.24343778193 
-0.69797867334 1.15 0.23781755567 -0.69797867334 1.1 0.25433635712 -0.69797867334 1.05 0.26690402627 
-0.69797867334 1 0.29868039489 -0.69797867334 0.95 0.28828451037 -0.69797867334 0.9 0.27393901348 
-0.69797867334 0.85 0.2706386447 -0.69797867334 0.8 0.25797182322 -0.69797867334 0.75 0.27967658639 
-0.69797867334 0.7 0.2999509871 -0.69797867334 0.65 0.28853988647 -0.69797867334 0.6 0.27795869112 
-0.69797867334 0.55 0.27770912647 -0.69797867334 0.5 0.25699329376 -0.69797867334 0.45 0.24318903685 
-0.69797867334 0.4 0.24210608006 -0.69797867334 0.35 0.23670613766 -0.69797867334 0.3 0.23581284285 
-0.69797867334 0.25 0.24767547846 -0.69797867334 0.2 0.2543195188 -0.69797867334 0.15 0.24055017531 
-0.69797867334 0.1 0.23523117602 -0.69797867334 0.05 0.2523445785 -0.69797867334 0 0.26254543662 
-0.65956518705 1.5 0.24165563285 -0.65956518705 1.45 0.24277673662 -0.65956518705 1.4 0.24381928146 
-0.65956518705 1.35 0.25376668572 -0.65956518705 1.3 0.25664362311 -0.65956518705 1.25 0.25644662976 
-0.65956518705 1.2 0.23804213107 -0.65956518705 1.15 0.22501730919 -0.65956518705 1.1 0.23598557711 
-0.65956518705 1.05 0.26463079453 -0.65956518705 1 0.28231060505 -0.65956518705 0.95 0.27460846305 
-0.65956518705 0.9 0.26446568966 -0.65956518705 0.85 0.25564071536 -0.65956518705 0.8 0.23366713524 
-0.65956518705 0.75 0.25745511055 -0.65956518705 0.7 0.27739557624 -0.65956518705 0.65 0.27047523856 
-0.65956518705 0.6 0.2495944649 -0.65956518705 0.55 0.25847423077 -0.65956518705 0.5 0.248466447 
-0.65956518705 0.45 0.22467559576 -0.65956518705 0.4 0.22657315433 -0.65956518705 0.35 0.2257130295 
-0.65956518705 0.3 0.22660791874 -0.65956518705 0.25 0.23645778 -0.65956518705 0.2 0.23928968608 
-0.65956518705 0.15 0.22151657939 -0.65956518705 0.1 0.21655297279 -0.65956518705 0.05 0.23266731203 
-0.65956518705 0 0.24451079965 -0.62202609846 1.5 0.22563691437 -0.62202609846 1.45 0.2325258106 
-0.62202609846 1.4 0.23415899277 -0.62202609846 1.35 0.24133276939 -0.62202609846 1.3 0.23994746804 
-0.62202609846 1.25 0.23037499189 -0.62202609846 1.2 0.23913784325 -0.62202609846 1.15 0.22576850653 
-0.62202609846 1.1 0.23578521609 -0.62202609846 1.05 0.24724562466 -0.62202609846 1 0.25179639459 
-0.62202609846 0.95 0.25793460011 -0.62202609846 0.9 0.23968051374 -0.62202609846 0.85 0.23992539942 
-0.62202609846 0.8 0.21780815721 -0.62202609846 0.75 0.23354466259 -0.62202609846 0.7 0.25061497092 
-0.62202609846 0.65 0.24684378505 -0.62202609846 0.6 0.23119407892 -0.62202609846 0.55 0.23482882977 
-0.62202609846 0.5 0.22369161248 -0.62202609846 0.45 0.20944492519 -0.62202609846 0.4 0.20685535669 
-0.62202609846 0.35 0.21151295304 -0.62202609846 0.3 0.20686197281 -0.62202609846 0.25 0.21054083109 
-0.62202609846 0.2 0.20593105257 -0.62202609846 0.15 0.19896997511 -0.62202609846 0.1 0.19553346932 
-0.62202609846 0.05 0.21783240139 -0.62202609846 0 0.22188386321 -0.58534150385 1.5 0.20825365186 
-0.58534150385 1.45 0.21992652118 -0.58534150385 1.4 0.21873800457 -0.58534150385 1.35 0.21884834766 
-0.58534150385 1.3 0.21868492663 -0.58534150385 1.25 0.21114878356 -0.58534150385 1.2 0.22455261648 
-0.58534150385 1.15 0.22388850152 -0.58534150385 1.1 0.22706468403 -0.58534150385 1.05 0.22906418145 
-0.58534150385 1 0.23712068796 -0.58534150385 0.95 0.24379248917 -0.58534150385 0.9 0.22601673007 
-0.58534150385 0.85 0.21879331768 -0.58534150385 0.8 0.1993252039 -0.58534150385 0.75 0.21169622242 
-0.58534150385 0.7 0.23000003397 -0.58534150385 0.65 0.2218786478 -0.58534150385 0.6 0.21252533793 
-0.58534150385 0.55 0.20986391604 -0.58534150385 0.5 0.20377154648 -0.58534150385 0.45 0.19054661691 
-0.58534150385 0.4 0.1873613596 -0.58534150385 0.35 0.18926014006 -0.58534150385 0.3 0.18305152655 
-0.58534150385 0.25 0.18346433342 -0.58534150385 0.2 0.17544049025 -0.58534150385 0.15 0.17288756371 
-0.58534150385 0.1 0.17449770868 -0.58534150385 0.05 0.19797924161 -0.58534150385 0 0.19886271656 
-0.54949195257 1.5 0.19122555852 -0.54949195257 1.45 0.20397771895 -0.54949195257 1.4 0.19889472425 
-0.54949195257 1.35 0.18982164562 -0.54949195257 1.3 0.19404402375 -0.54949195257 1.25 0.19329763949 
-0.54949195257 1.2 0.2030826509 -0.54949195257 1.15 0.21095846593 -0.54949195257 1.1 0.20981912315 
-0.54949195257 1.05 0.20997966826 -0.54949195257 1 0.22158806026 -0.54949195257 0.95 0.22342093289 
-0.54949195257 0.9 0.21421161294 -0.54949195257 0.85 0.18996334076 -0.54949195257 0.8 0.17364054918 
-0.54949195257 0.75 0.19081753492 -0.54949195257 0.7 0.21143688262 -0.54949195257 0.65 0.19593058527 
-0.54949195257 0.6 0.18777602911 -0.54949195257 0.55 0.18336631358 -0.54949195257 0.5 0.18343450129 
-0.54949195257 0.45 0.16831938922 -0.54949195257 0.4 0.16584391892 -0.54949195257 0.35 0.16142563522 
-0.54949195257 0.3 0.15752218664 -0.54949195257 0.25 0.15912109613 -0.54949195257 0.2 0.1535962373 
-0.54949195257 0.15 0.14946459234 -0.54949195257 0.1 0.15301723778 -0.54949195257 0.05 0.17191752791 
-0.54949195257 0 0.17510429025 -0.51445843669 1.5 0.1759750098 -0.51445843669 1.45 0.1831433475 
-0.51445843669 1.4 0.17883148789 -0.51445843669 1.35 0.16368149221 -0.51445843669 1.3 0.16932724416 
-0.51445843669 1.25 0.16968853772 -0.51445843669 1.2 0.18936730921 -0.51445843669 1.15 0.19012998044 
-0.51445843669 1.1 0.19096434116 -0.51445843669 1.05 0.18839895725 -0.51445843669 1 0.18613106012 
-0.51445843669 0.95 0.1857779026 -0.51445843669 0.9 0.19032271206 -0.51445843669 0.85 0.15544332564 
-0.51445843669 0.8 0.14606438577 -0.51445843669 0.75 0.17077791691 -0.51445843669 0.7 0.18659983575 
-0.51445843669 0.65 0.17243385315 -0.51445843669 0.6 0.15673586726 -0.51445843669 0.55 0.15780514479 
-0.51445843669 0.5 0.15442994237 -0.51445843669 0.45 0.14619509876 -0.51445843669 0.4 0.14311945438 
-0.51445843669 0.35 0.13391524553 -0.51445843669 0.3 0.13340474665 -0.51445843669 0.25 0.13288927078 
-0.51445843669 0.2 0.13630115986 -0.51445843669 0.15 0.12878730893 -0.51445843669 0.1 0.13515368104 
-0.51445843669 0.05 0.14381696284 -0.51445843669 0 0.15379157662 -0.480222381 1.5 0.15712052584 
-0.480222381 1.45 0.15609245002 -0.480222381 1.4 0.15278530121 -0.480222381 1.35 0.14531673491 
-0.480222381 1.3 0.14965078235 -0.480222381 1.25 0.14245559275 -0.480222381 1.2 0.17408140004 
-0.480222381 1.15 0.16897372901 -0.480222381 1.1 0.1574408859 -0.480222381 1.05 0.16323778033 
-0.480222381 1 0.15300141275 -0.480222381 0.95 0.15067242086 -0.480222381 0.9 0.14135159552 
-0.480222381 0.85 0.1352302134 -0.480222381 0.8 0.1249262467 -0.480222381 0.75 0.14871996641 
-0.480222381 0.7 0.16412831843 -0.480222381 0.65 0.1480435133 -0.480222381 0.6 0.13385502994 
-0.480222381 0.55 0.13087818027 -0.480222381 0.5 0.13003773987 -0.480222381 0.45 0.12502093613 
-0.480222381 0.4 0.12122873962 -0.480222381 0.35 0.1147954613 -0.480222381 0.3 0.10943685472 
-0.480222381 0.25 0.10969104618 -0.480222381 0.2 0.10938568413 -0.480222381 0.15 0.10898032039 
-0.480222381 0.1 0.11831054837 -0.480222381 0.05 0.1301368475 -0.480222381 0 0.13430590928 
-0.44676563308 1.5 0.13615162671 -0.44676563308 1.45 0.13120338321 -0.44676563308 1.4 0.12602525949 
-0.44676563308 1.35 0.12366652489 -0.44676563308 1.3 0.12909659743 -0.44676563308 1.25 0.11733021587 
-0.44676563308 1.2 0.15401870012 -0.44676563308 1.15 0.14679419994 -0.44676563308 1.1 0.13098573685 
-0.44676563308 1.05 0.14318194985 -0.44676563308 1 0.1306720674 -0.44676563308 0.95 0.12324550748 
-0.44676563308 0.9 0.10654838383 -0.44676563308 0.85 0.12436725199 -0.44676563308 0.8 0.11138086021 
-0.44676563308 0.75 0.13246437907 -0.44676563308 0.7 0.14420841634 -0.44676563308 0.65 0.12855552137 
-0.44676563308 0.6 0.11673286557 -0.44676563308 0.55 0.10757832974 -0.44676563308 0.5 0.11011182517 
-0.44676563308 0.45 0.10125264525 -0.44676563308 0.4 0.10107699782 -0.44676563308 0.35 0.097338229418 
-0.44676563308 0.3 0.090740077198 -0.44676563308 0.25 0.09039003402 -0.44676563308 0.2 0.084277749062 
-0.44676563308 0.15 0.08835593611 -0.44676563308 0.1 0.10174003243 -0.44676563308 0.05 0.11790405959 
-0.44676563308 0 0.1168922931 -0.41407045372 1.5 0.11562922597 -0.41407045372 1.45 0.11528848112 
-0.41407045372 1.4 0.10300915688 -0.41407045372 1.35 0.096557371318 -0.41407045372 1.3 0.10213840753 
-0.41407045372 1.25 0.10181484371 -0.41407045372 1.2 0.12708114088 -0.41407045372 1.15 0.124970451 
-0.41407045372 1.1 0.122709997 -0.41407045372 1.05 0.12587669492 -0.41407045372 1 0.11716018617 
-0.41407045372 0.95 0.099737942219 -0.41407045372 0.9 0.10300970078 -0.41407045372 0.85 0.11093612015 
-0.41407045372 0.8 0.10090640932 -0.41407045372 0.75 0.12153468281 -0.41407045372 0.7 0.1222749427 
-0.41407045372 0.65 0.11367848516 -0.41407045372 0.6 0.099979698658 -0.41407045372 0.55 0.087640911341 
-0.41407045372 0.5 0.09282515198 -0.41407045372 0.45 0.073555104434 -0.41407045372 0.4 0.083101533353 
-0.41407045372 0.35 0.075370371342 -0.41407045372 0.3 0.077210180461 -0.41407045372 0.25 0.073029659688 
-0.41407045372 0.2 0.067645132542 -0.41407045372 0.15 0.067779414356 -0.41407045372 0.1 0.084286950529 
-0.41407045372 0.05 0.096484333277 -0.41407045372 0 0.099398881197 -0.3821195075 1.5 0.099460728467 
-0.3821195075 1.45 0.10018264502 -0.3821195075 1.4 0.087252683938 -0.3821195075 1.35 0.073011301458 
-0.3821195075 1.3 0.080416306853 -0.3821195075 1.25 0.084680244327 -0.3821195075 1.2 0.10392017663 
-0.3821195075 1.15 0.1089707315 -0.3821195075 1.1 0.1061277464 -0.3821195075 1.05 0.10561040044 
-0.3821195075 1 0.096081927419 -0.3821195075 0.95 0.088278107345 -0.3821195075 0.9 0.096867278218 
-0.3821195075 0.85 0.092534743249 -0.3821195075 0.8 0.086788967252 -0.3821195075 0.75 0.10281548649 
-0.3821195075 0.7 0.099795877934 -0.3821195075 0.65 0.092480242252 -0.3821195075 0.6 0.079694792628 
-0.3821195075 0.55 0.072459116578 -0.3821195075 0.5 0.072036504745 -0.3821195075 0.45 0.056913714856 
-0.3821195075 0.4 0.063096754253 -0.3821195075 0.35 0.055410765111 -0.3821195075 0.3 0.059407588094 
-0.3821195075 0.25 0.053569879383 -0.3821195075 0.2 0.051253918558 -0.3821195075 0.15 0.049706250429 
-0.3821195075 0.1 0.065999098122 -0.3821195075 0.05 0.072094969451 -0.3821195075 0 0.078369349241 
-0.35089585362 1.5 0.086374431849 -0.35089585362 1.45 0.084289453924 -0.35089585362 1.4 0.072915703058 
-0.35089585362 1.35 0.05389226228 -0.35089585362 1.3 0.062877625227 -0.35089585362 1.25 0.066577605903 
-0.35089585362 1.2 0.085505731404 -0.35089585362 1.15 0.095775157213 -0.35089585362 1.1 0.085971519351 
-0.35089585362 1.05 0.085791677237 -0.35089585362 1 0.075206629932 -0.35089585362 0.95 0.079199023545 
-0.35089585362 0.9 0.087481282651 -0.35089585362 0.85 0.07465082407 -0.35089585362 0.8 0.069783337414 
-0.35089585362 0.75 0.080768510699 -0.35089585362 0.7 0.07709287107 -0.35089585362 0.65 0.070148281753 
-0.35089585362 0.6 0.061310064048 -0.35089585362 0.55 0.061811517924 -0.35089585362 0.5 0.056878011674 
-0.35089585362 0.45 0.048123586923 -0.35089585362 0.4 0.049928117543 -0.35089585362 0.35 0.041162651032 
-0.35089585362 0.3 0.04602021724 -0.35089585362 0.25 0.038351301104 -0.35089585362 0.2 0.040109898895 
-0.35089585362 0.15 0.037476826459 -0.35089585362 0.1 0.053817696869 -0.35089585362 0.05 0.053955867887 
-0.35089585362 0 0.061663154513 -0.32038293686 1.5 0.076431177557 -0.32038293686 1.45 0.067199103534 
-0.32038293686 1.4 0.053801517934 -0.32038293686 1.35 0.04128793627 -0.32038293686 1.3 0.044061884284 
-0.32038293686 1.25 0.052086118609 -0.32038293686 1.2 0.070461541414 -0.32038293686 1.15 0.082513518631 
-0.32038293686 1.1 0.074323497713 -0.32038293686 1.05 0.073341242969 -0.32038293686 1 0.064875327051 
-0.32038293686 0.95 0.067690618336 -0.32038293686 0.9 0.078171618283 -0.32038293686 0.85 0.066506251693 
-0.32038293686 0.8 0.056540627033 -0.32038293686 0.75 0.062086928636 -0.32038293686 0.7 0.060320902616 
-0.32038293686 0.65 0.053890954703 -0.32038293686 0.6 0.051604442298 -0.32038293686 0.55 0.054811559618 
-0.32038293686 0.5 0.050418332219 -0.32038293686 0.45 0.042618311942 -0.32038293686 0.4 0.04435730353 
-0.32038293686 0.35 0.036520708352 -0.32038293686 0.3 0.041435390711 -0.32038293686 0.25 0.035305127501 
-0.32038293686 0.2 0.035732455552 -0.32038293686 0.15 0.034720946103 -0.32038293686 0.1 0.047605019063 
-0.32038293686 0.05 0.048449225724 -0.32038293686 0 0.054320089519 -0.29056457889 1.5 0.069108478725 
-0.29056457889 1.45 0.053404841572 -0.29056457889 1.4 0.041650295258 -0.29056457889 1.35 0.033982358873 
-0.29056457889 1.3 0.032302372158 -0.29056457889 1.25 0.044436074793 -0.29056457889 1.2 0.060394652188 
-0.29056457889 1.15 0.073064349592 -0.29056457889 1.1 0.06984501332 -0.29056457889 1.05 0.064597502351 
-0.29056457889 1 0.058216683567 -0.29056457889 0.95 0.058749847114 -0.29056457889 0.9 0.069794997573 
-0.29056457889 0.85 0.057131126523 -0.29056457889 0.8 0.048640500754 -0.29056457889 0.75 0.053435120732 
-0.29056457889 0.7 0.051849972457 -0.29056457889 0.65 0.047100763768 -0.29056457889 0.6 0.04483775422 
-0.29056457889 0.55 0.048725970089 -0.29056457889 0.5 0.044281791896 -0.29056457889 0.45 0.037599623203 
-0.29056457889 0.4 0.040671482682 -0.29056457889 0.35 0.03357924521 -0.29056457889 0.3 0.039347074926 
-0.29056457889 0.25 0.034295309335 -0.29056457889 0.2 0.03316853568 -0.29056457889 0.15 0.03298702091 
-0.29056457889 0.1 0.043530367315 -0.29056457889 0.05 0.045050948858 -0.29056457889 0 0.049068771303 
-0.26142496962 1.5 0.063415043056 -0.26142496962 1.45 0.043343443424 -0.26142496962 1.4 0.037591420114 
-0.26142496962 1.35 0.032116919756 -0.26142496962 1.3 0.026994593441 -0.26142496962 1.25 0.04376892373 
-0.26142496962 1.2 0.054335042834 -0.26142496962 1.15 0.066455081105 -0.26142496962 1.1 0.069919161499 
-0.26142496962 1.05 0.056796230376 -0.26142496962 1 0.053179163486 -0.26142496962 0.95 0.051812633872 
-0.26142496962 0.9 0.061899237335 -0.26142496962 0.85 0.045077644289 -0.26142496962 0.8 0.044815573841 
-0.26142496962 0.75 0.052768427879 -0.26142496962 0.7 0.049340184778 -0.26142496962 0.65 0.045407939702 
-0.26142496962 0.6 0.03785848245 -0.26142496962 0.55 0.042507857084 -0.26142496962 0.5 0.038276180625 
-0.26142496962 0.45 0.032378897071 -0.26142496962 0.4 0.036124054343 -0.26142496962 0.35 0.029305208474 
-0.26142496962 0.3 0.035891789943 -0.26142496962 0.25 0.031801730394 -0.26142496962 0.2 0.029090989381 
-0.26142496962 0.15 0.029933253303 -0.26142496962 0.1 0.038342773914 -0.26142496962 0.05 0.040321979672 
-0.26142496962 0 0.042686656117 -0.23294865883 1.5 0.055033285171 -0.23294865883 1.45 0.036106888205 
-0.23294865883 1.4 0.03548117727 -0.23294865883 1.35 0.030631085858 -0.23294865883 1.3 0.025628345087 
-0.23294865883 1.25 0.043257001787 -0.23294865883 1.2 0.049444802105 -0.23294865883 1.15 0.062387794256 
-0.23294865883 1.1 0.063903801143 -0.23294865883 1.05 0.055827196687 -0.23294865883 1 0.047329060733 
-0.23294865883 0.95 0.045519188046 -0.23294865883 0.9 0.052089441568 -0.23294865883 0.85 0.040008537471 
-0.23294865883 0.8 0.04058900848 -0.23294865883 0.75 0.05096097663 -0.23294865883 0.7 0.048838566989 
-0.23294865883 0.65 0.035620462149 -0.23294865883 0.6 0.031721759588 -0.23294865883 0.55 0.036628901958 
-0.23294865883 0.5 0.040546521544 -0.23294865883 0.45 0.027921715751 -0.23294865883 0.4 0.030894523486 
-0.23294865883 0.35 0.025246951729 -0.23294865883 0.3 0.031829651445 -0.23294865883 0.25 0.029015460983 
-0.23294865883 0.2 0.025246847421 -0.23294865883 0.15 0.026816438884 -0.23294865883 0.1 0.032953336835 
-0.23294865883 0.05 0.036119624972 -0.23294865883 0 0.036226645112 -0.20512054801 1.5 0.046574208885 
-0.20512054801 1.45 0.030385326594 -0.20512054801 1.4 0.03593704477 -0.20512054801 1.35 0.030950723216 
-0.20512054801 1.3 0.026890480891 -0.20512054801 1.25 0.044856604189 -0.20512054801 1.2 0.045280553401 
-0.20512054801 1.15 0.058290965855 -0.20512054801 1.1 0.054653629661 -0.20512054801 1.05 0.056924242526 
-0.20512054801 1 0.043254371732 -0.20512054801 0.95 0.042196106166 -0.20512054801 0.9 0.046336878091 
-0.20512054801 0.85 0.040893927217 -0.20512054801 0.8 0.037218093872 -0.20512054801 0.75 0.045418873429 
-0.20512054801 0.7 0.045287720859 -0.20512054801 0.65 0.021958980709 -0.20512054801 0.6 0.027290198952 
-0.20512054801 0.55 0.030432950705 -0.20512054801 0.5 0.044718660414 -0.20512054801 0.45 0.022399671376 
-0.20512054801 0.4 0.027230348438 -0.20512054801 0.35 0.021278118715 -0.20512054801 0.3 0.029164435342 
-0.20512054801 0.25 0.027121396735 -0.20512054801 0.2 0.022202497348 -0.20512054801 0.15 0.024178851396 
-0.20512054801 0.1 0.0283113271 -0.20512054801 0.05 0.033190891147 -0.20512054801 0 0.030396251008 
-0.17792588233 1.5 0.040749922395 -0.17792588233 1.45 0.028045639396 -0.17792588233 1.4 0.039533384144 
-0.17792588233 1.35 0.033940430731 -0.17792588233 1.3 0.03480328247 -0.17792588233 1.25 0.046636767685 
-0.17792588233 1.2 0.047464326024 -0.17792588233 1.15 0.048049561679 -0.17792588233 1.1 0.051105145365 
-0.17792588233 1.05 0.04903248325 -0.17792588233 1 0.04547027871 -0.17792588233 0.95 0.045132759959 
-0.17792588233 0.9 0.048841051757 -0.17792588233 0.85 0.043953996152 -0.17792588233 0.8 0.038809835911 
-0.17792588233 0.75 0.034739289433 -0.17792588233 0.7 0.030534934253 -0.17792588233 0.65 0.018930161372 
-0.17792588233 0.6 0.024032948539 -0.17792588233 0.55 0.026337068528 -0.17792588233 0.5 0.03188226372 
-0.17792588233 0.45 0.019298037514 -0.17792588233 0.4 0.023470463231 -0.17792588233 0.35 0.019141586497 
-0.17792588233 0.3 0.027442576364 -0.17792588233 0.25 0.026800086722 -0.17792588233 0.2 0.019929936156 
-0.17792588233 0.15 0.021103896201 -0.17792588233 0.1 0.025039680302 -0.17792588233 0.05 0.030559649691 
-0.17792588233 0 0.025702746585 -0.15135024281 1.5 0.032257545739 -0.15135024281 1.45 0.020531501621 
-0.15135024281 1.4 0.037166930735 -0.15135024281 1.35 0.029364911839 -0.15135024281 1.3 0.034255996346 
-0.15135024281 1.25 0.040110468864 -0.15135024281 1.2 0.042072009295 -0.15135024281 1.15 0.043061126024 
-0.15135024281 1.1 0.042034965008 -0.15135024281 1.05 0.033209372312 -0.15135024281 1 0.040091320872 
-0.15135024281 0.95 0.04012228176 -0.15135024281 0.9 0.04402526468 -0.15135024281 0.85 0.038159698248 
-0.15135024281 0.8 0.034223068506 -0.15135024281 0.75 0.020473513752 -0.15135024281 0.7 0.014587542042 
-0.15135024281 0.65 0.015632942319 -0.15135024281 0.6 0.01955123432 -0.15135024281 0.55 0.01854497008 
-0.15135024281 0.5 0.015564958565 -0.15135024281 0.45 0.012680748478 -0.15135024281 0.4 0.018558280542 
-0.15135024281 0.35 0.013682987541 -0.15135024281 0.3 0.022482408211 -0.15135024281 0.25 0.022488381714 
-0.15135024281 0.2 0.014656895772 -0.15135024281 0.15 0.015624690801 -0.15135024281 0.1 0.018565896899 
-0.15135024281 0.05 0.024428768083 -0.15135024281 0 0.018564976752 -0.12537953871 1.5 0.014076311141 
-0.12537953871 1.45 0.0090476255864 -0.12537953871 1.4 0.016704682261 -0.12537953871 1.35 0.013699809089 
-0.12537953871 1.3 0.015913562849 -0.12537953871 1.25 0.018234254792 -0.12537953871 1.2 0.0192354545 
-0.12537953871 1.15 0.019925134256 -0.12537953871 1.1 0.018396291882 -0.12537953871 1.05 0.013921217062 
-0.12537953871 1 0.017800496891 -0.12537953871 0.95 0.018501803279 -0.12537953871 0.9 0.020048942417 
-0.12537953871 0.85 0.017476979643 -0.12537953871 0.8 0.015167696401 -0.12537953871 0.75 0.0077340593562 
-0.12537953871 0.7 0.0046998821199 -0.12537953871 0.65 0.0066644591279 -0.12537953871 0.6 0.0085584083572 
-0.12537953871 0.55 0.0074803121388 -0.12537953871 0.5 0.0051244706847 -0.12537953871 0.45 0.0049388050102 
-0.12537953871 0.4 0.0077818259597 -0.12537953871 0.35 0.005925714504 -0.12537953871 0.3 0.0098079638556 
-0.12537953871 0.25 0.0099432561547 -0.12537953871 0.2 0.0062708975747 -0.12537953871 0.15 0.006477563642 
-0.12537953871 0.1 0.0079543758184 -0.12537953871 0.05 0.010465277359 -0.12537953871 0 0.0079335337505 

CELLS 4741 18960
OFFSETS vtktypeint64
0 4 8 12 16 20 24 28 32 
36 40 44 48 52 56 60 64 68 
72 76 80 84 88 92 96 100 104 
108 112 116 120 124 128 132 136 140 
144 148 152 156 160 164 168 172 176 
180 184 188 192 196 200 204 208 212 
216 220 224 228 232 236 240 244 248 
252 256 260 264 268 272 276 280 284 
288 292 296 300 304 308 312 316 320 
324 328 332 336 340 344 348 352 356 
360 364 368 372 376 380 384 388 392 
396 400 404 408 412 416 420 424 428 
432 436 440 444 448 452 456 460 464 
468 472 476 480 484 488 492 496 500 
504 508 512 516 520 524 528 532 536 
540 544 548 552 556 560 564 568 572 
576 580 584 588 592 596 600 604 608 
612 616 620 624 628 632 636 640 644 
648 652 656 660 664 668 672 676 680 
684 688 692 696 700 704 708 712 716 
720 724 728 732 736 740 744 748 752 
756 760 764 768 772 776 780 784 788 
792 796 800 804 808 812 816 820 824 
828 832 836 840 844 848 852 856 860 
864 868 872 876 880 884 888 892 896 
900 904 908 912 916 920 924 928 932 
936 940 944 948 952 956 960 964 968 
972 976 980 984 988 992 996 1000 1004 
1008 1012 1016 1020 1024 1028 1032 1036 1040 
1044 1048 1052 1056 1060 1064 1068 1072 1076 
1080 1084 1088 1092 1096 1100 1104 1108 1112 
1116 1120 1124 1128 1132 1136 1140 1144 1148 
1152 1156 1160 1164 1168 1172 1176 1180 1184 
1188 1192 1196 1200 1204 1208 1212 1216 1220 
1224 1228 1232 1236 1240 1244 1248 1252 1256 
1260 1264 1268 1272 1276 1280 1284 1288 1292 
1296 1300 1304 1308 1312 1316 1320 1324 1328 
1332 1336 1340 1344 1348 1352 1356 1360 1364 
1368 1372 1376 1380 1384 1388 1392 1396 1400 
1404 1408 1412 1416 1420 1424 1428 1432 1436 
1440 1444 1448 1452 1456 1460 1464 1468 1472 
1476 1480 1484 1488 1492 1496 1500 1504 1508 
1512 1516 1520 1524 1528 1532 1536 1540 1544 
1548 1552 1556 1560 1564 1568 1572 1576 1580 
1584 1588 1592 1596 1600 1604 1608 1612 1616 
1620 1624 1628 1632 1636 1640 1644 1648 1652 
1656 1660 1664 1668 1672 1676 1680 1684 1688 
1692 1696 1700 1704 1708 1712 1716 1720 1724 
1728 1732 1736 1740 1744 1748 1752 1756 1760 
1764 1768 1772 1776 1780 1784 1788 1792 1796 
1800 1804 1808 1812 1816 1820 1824 1828 1832 
1836 1840 1844 1848 1852 1856 1860 1864 1868 
1872 1876 1880 1884 1888 1892 1896 1900 1904 
1908 1912 1916 1920 1924 1928 1932 1936 1940 
1944 1948 1952 1956 1960 1964 1968 1972 1976 
1980 1984 1988 1992 1996 2000 2004 2008 2012 
2016 2020 2024 2028 2032 2036 2040 2044 2048 
2052 2056 2060 2064 2068 2072 2076 2080 2084 
2088 2092 2096 2100 2104 2108 2112 2116 2120 
2124 2128 2132 2136 2140 2144 2148 2152 2156 
2160 2164 2168 2172 2176 2180 2184 2188 2192 
2196 2200 2204 2208 2212 2216 2220 2224 2228 
2232 2236 2240 2244 2248 2252 2256 2260 2264 
2268 2272 2276 2280 2284 2288 2292 2296 2300 
2304 2308 2312 2316 2320 2324 2328 2332 2336 
2340 2344 2348 2352 2356 2360 2364 2368 2372 
2376 2380 2384 2388 2392 2396 2400 2404 2408 
2412 2416 2420 2424 2428 2432 2436 2440 2444 
2448 2452 2456 2460 2464 2468 2472 2476 2480 
2484 2488 2492 2496 2500 2504 2508 2512 2516 
2520 2524 2528 2532 2536 2540 2544 2548 2552 
2556 2560 2564 2568 2572 2576 2580 2584 2588 
2592 2596 2600 2604 2608 2612 2616 2620 2624 
2628 2632 2636 2640 2644 2648 2652 2656 2660 
2664 2668 2672 2676 2680 2684 2688 2692 2696 
2700 2704 2708 2712 2716 2720 2724 2728 2732 
2736 2740 2744 2748 2752 2756 2760 2764 2768 
2772 2776 2780 2784 2788 2792 2796 2800 2804 
2808 2812 2816 2820 2824 2828 2832 2836 2840 
2844 2848 2852 2856 2860 2864 2868 2872 2876 
2880 2884 2888 2892 2896 2900 2904 2908 2912 
2916 2920 2924 2928 2932 2936 2940 2944 2948 
2952 2956 2960 2964 2968 2972 2976 2980 2984 
2988 2992 2996 3000 3004 3008 3012 3016 3020 
3024 3028 3032 3036 3040 3044 3048 3052 3056 
3060 3064 3068 3072 3076 3080 3084 3088 3092 
3096 3100 3104 3108 3112 3116 3120 3124 3128 
3132 3136 3140 3144 3148 3152 3156 3160 3164 
3168 3172 3176 3180 3184 3188 3192 3196 3200 
3204 3208 3212 3216 3220 3224 3228 3232 3236 
3240 3244 3248 3252 3256 3260 3264 3268 3272 
3276 3280 3284 3288 3292 3296 3300 3304 3308 
3312 3316 3320 3324 3328 3332 3336 3340 3344 
3348 3352 3356 3360 3364 3368 3372 3376 3380 
3384 3388 3392 3396 3400 3404 3408 3412 3416 
3420 3424 3428 3432 3436 3440 3444 3448 3452 
3456 3460 3464 3468 3472 3476 3480 3484 3488 
3492 3496 3500 3504 3508 3512 3516 3520 3524 
3528 3532 3536 3540 3544 3548 3552 3556 3560 
3564 3568 3572 3576 3580 3584 3588 3592 3596 
3600 3604 3608 3612 3616 3620 3624 3628 3632 
3636 3640 3644 3648 3652 3656 3660 3664 3668 
3672 3676 3680 3684 3688 3692 3696 3700 3704 
3708 3712 3716 3720 3724 3728 3732 3736 3740 
3744 3748 3752 3756 3760 3764 3768 3772 3776 
3780 3784 3788 3792 3796 3800 3804 3808 3812 
3816 3820 3824 3828 3832 3836 3840 3844 3848 
3852 3856 3860 3864 3868 3872 3876 3880 3884 
3888 3892 3896 3900 3904 3908 3912 3916 3920 
3924 3928 3932 3936 3940 3944 3948 3952 3956 
3960 3964 3968 3972 3976 3980 3984 3988 3992 
3996 4000 4004 4008 4012 4016 4020 4024 4028 
4032 4036 4040 4044 4048 4052 4056 4060 4064 
4068 4072 4076 4080 4084 4088 4092 4096 4100 
4104 4108 4112 4116 4120 4124 4128 4132 4136 
4140 4144 4148 4152 4156 4160 4164 4168 4172 
4176 4180 4184 4188 4192 4196 4200 4204 4208 
4212 4216 4220 4224 4228 4232 4236 4240 4244 
4248 4252 4256 4260 4264 4268 4272 4276 4280 
4284 4288 4292 4296 4300 4304 4308 4312 4316 
4320 4324 4328 4332 4336 4340 4344 4348 4352 
4356 4360 4364 4368 4372 4376 4380 4384 4388 
4392 4396 4400 4404 4408 4412 4416 4420 4424 
4428 4432 4436 4440 4444 4448 4452 4456 4460 
4464 4468 4472 4476 4480 4484 4488 4492 4496 
4500 4504 4508 4512 4516 4520 4524 4528 4532 
4536 4540 4544 4548 4552 4556 4560 4564 4568 
4572 4576 4580 4584 4588 4592 4596 4600 4604 
4608 4612 4616 4620 4624 4628 4632 4636 4640 
4644 4648 4652 4656 4660 4664 4668 4672 4676 
4680 4684 4688 4692 4696 4700 4704 4708 4712 
4716 4720 4724 4728 4732 4736 4740 4744 4748 
4752 4756 4760 4764 4768 4772 4776 4780 4784 
4788 4792 4796 4800 4804 4808 4812 4816 4820 
4824 4828 4832 4836 4840 4844 4848 4852 4856 
4860 4864 4868 4872 4876 4880 4884 4888 4892 
4896 4900 4904 4908 4912 4916 4920 4924 4928 
4932 4936 4940 4944 4948 4952 4956 4960 4964 
4968 4972 4976 4980 4984 4988 4992 4996 5000 
5004 5008 5012 5016 5020 5024 5028 5032 5036 
5040 5044 5048 5052 5056 5060 5064 5068 5072 
5076 5080 5084 5088 5092 5096 5100 5104 5108 
5112 5116 5120 5124 5128 5132 5136 5140 5144 
5148 5152 5156 5160 5164 5168 5172 5176 5180 
5184 5188 5192 5196 5200 5204 5208 5212 5216 
5220 5224 5228 5232 5236 5240 5244 5248 5252 
5256 5260 5264 5268 5272 5276 5280 5284 5288 
5292 5296 5300 5304 5308 5312 5316 5320 5324 
5328 5332 5336 5340 5344 5348 5352 5356 5360 
5364 5368 5372 5376 5380 5384 5388 5392 5396 
5400 5404 5408 5412 5416 5420 5424 5428 5432 
5436 5440 5444 5448 5452 5456 5460 5464 5468 
5472 5476 5480 5484 5488 5492 5496 5500 5504 
5508 5512 5516 5520 5524 5528 5532 5536 5540 
5544 5548 5552 5556 5560 5564 5568 5572 5576 
5580 5584 5588 5592 5596 5600 5604 5608 5612 
5616 5620 5624 5628 5632 5636 5640 5644 5648 
5652 5656 5660 5664 5668 5672 5676 5680 5684 
5688 5692 5696 5700 5704 5708 5712 5716 5720 
5724 5728 5732 5736 5740 5744 5748 5752 5756 
5760 5764 5768 5772 5776 5780 5784 5788 5792 
5796 5800 5804 5808 5812 5816 5820 5824 5828 
5832 5836 5840 5844 5848 5852 5856 5860 5864 
5868 5872 5876 5880 5884 5888 5892 5896 5900 
5904 5908 5912 5916 5920 5924 5928 5932 5936 
5940 5944 5948 5952 5956 5960 5964 5968 5972 
5976 5980 5984 5988 5992 5996 6000 6004 6008 
6012 6016 6020 6024 6028 6032 6036 6040 6044 
6048 6052 6056 6060 6064 6068 6072 6076 6080 
6084 6088 6092 6096 6100 6104 6108 6112 6116 
6120 6124 6128 6132 6136 6140 6144 6148 6152 
6156 6160 6164 6168 6172 6176 6180 6184 6188 
6192 6196 6200 6204 6208 6212 6216 6220 6224 
6228 6232 6236 6240 6244 6248 6252 6256 6260 
6264 6268 6272 6276 6280 6284 6288 6292 6296 
6300 6304 6308 6312 6316 6320 6324 6328 6332 
6336 6340 6344 6348 6352 6356 6360 6364 6368 
6372 6376 6380 6384 6388 6392 6396 6400 6404 
6408 6412 6416 6420 6424 6428 6432 6436 6440 
6444 6448 6452 6456 6460 6464 6468 6472 6476 
6480 6484 6488 6492 6496 6500 6504 6508 6512 
6516 6520 6524 6528 6532 6536 6540 6544 6548 
6552 6556 6560 6564 6568 6572 6576 6580 6584 
6588 6592 6596 6600 6604 6608 6612 6616 6620 
6624 6628 6632 6636 6640 6644 6648 6652 6656 
6660 6664 6668 6672 6676 6680 6684 6688 6692 
6696 6700 6704 6708 6712 6716 6720 6724 6728 
6732 6736 6740 6744 6748 6752 6756 6760 6764 
6768 6772 6776 6780 6784 6788 6792 6796 6800 
6804 6808 6812 6816 6820 6824 6828 6832 6836 
6840 6844 6848 6852 6856 6860 6864 6868 6872 
6876 6880 6884 6888 6892 6896 6900 6904 6908 
6912 6916 6920 6924 6928 6932 6936 6940 6944 
6948 6952 6956 6960 6964 6968 6972 6976 6980 
6984 6988 6992 6996 7000 7004 7008 7012 7016 
7020 7024 7028 7032 7036 7040 7044 7048 7052 
7056 7060 7064 7068 7072 7076 7080 7084 7088 
7092 7096 7100 7104 7108 7112 7116 7120 7124 
7128 7132 7136 7140 7144 7148 7152 7156 7160 
7164 7168 7172 7176 7180 7184 7188 7192 7196 
7200 7204 7208 7212 7216 7220 7224 7228 7232 
7236 7240 7244 7248 7252 7256 7260 7264 7268 
7272 7276 7280 7284 7288 7292 7296 7300 7304 
7308 7312 7316 7320 7324 7328 7332 7336 7340 
7344 7348 7352 7356 7360 7364 7368 7372 7376 
7380 7384 7388 7392 7396 7400 7404 7408 7412 
7416 7420 7424 7428 7432 7436 7440 7444 7448 
7452 7456 7460 7464 7468 7472 7476 7480 7484 
7488 7492 7496 7500 7504 7508 7512 7516 7520 
7524 7528 7532 7536 7540 7544 7548 7552 7556 
7560 7564 7568 7572 7576 7580 7584 7588 7592 
7596 7600 7604 7608 7612 7616 7620 7624 7628 
7632 7636 7640 7644 7648 7652 7656 7660 7664 
7668 7672 7676 7680 7684 7688 7692 7696 7700 
7704 7708 7712 7716 7720 7724 7728 7732 7736 
7740 7744 7748 7752 7756 7760 7764 7768 7772 
7776 7780 7784 7788 7792 7796 7800 7804 7808 
7812 7816 7820 7824 7828 7832 7836 7840 7844 
7848 7852 7856 7860 7864 7868 7872 7876 7880 
7884 7888 7892 7896 7900 7904 7908 7912 7916 
7920 7924 7928 7932 7936 7940 7944 7948 7952 
7956 7960 7964 7968 7972 7976 7980 7984 7988 
7992 7996 8000 8004 8008 8012 8016 8020 8024 
8028 8032 8036 8040 8044 8048 8052 8056 8060 
8064 8068 8072 8076 8080 8084 8088 8092 8096 
8100 8104 8108 8112 8116 8120 8124 8128 8132 
8136 8140 8144 8148 8152 8156 8160 8164 8168 
8172 8176 8180 8184 8188 8192 8196 8200 8204 
8208 8212 8216 8220 8224 8228 8232 8236 8240 
8244 8248 8252 8256 8260 8264 8268 8272 8276 
8280 8284 8288 8292 8296 8300 8304 8308 8312 
8316 8320 8324 8328 8332 8336 8340 8344 8348 
8352 8356 8360 8364 8368 8372 8376 8380 8384 
8388 8392 8396 8400 8404 8408 8412 8416 8420 
8424 8428 8432 8436 8440 8444 8448 8452 8456 
8460 8464 8468 8472 8476 8480 8484 8488 8492 
8496 8500 8504 8508 8512 8516 8520 8524 8528 
8532 8536 8540 8544 8548 8552 8556 8560 8564 
8568 8572 8576 8580 8584 8588 8592 8596 8600 
8604 8608 8612 8616 8620 8624 8628 8632 8636 
8640 8644 8648 8652 8656 8660 8664 8668 8672 
8676 8680 8684 8688 8692 8696 8700 8704 8708 
8712 8716 8720 8724 8728 8732 8736 8740 8744 
8748 8752 8756 8760 8764 8768 8772 8776 8780 
8784 8788 8792 8796 8800 8804 8808 8812 8816 
8820 8824 8828 8832 8836 8840 8844 8848 8852 
8856 8860 8864 8868 8872 8876 8880 8884 8888 
8892 8896 8900 8904 8908 8912 8916 8920 8924 
8928 8932 8936 8940 8944 8948 8952 8956 8960 
8964 8968 8972 8976 8980 8984 8988 8992 8996 
9000 9004 9008 9012 9016 9020 9024 9028 9032 
9036 9040 9044 9048 9052 9056 9060 9064 9068 
9072 9076 9080 9084 9088 9092 9096 9100 9104 
9108 9112 9116 9120 9124 9128 9132 9136 9140 
9144 9148 9152 9156 9160 9164 9168 9172 9176 
9180 9184 9188 9192 9196 9200 9204 9208 9212 
9216 9220 9224 9228 9232 9236 9240 9244 9248 
9252 9256 9260 9264 9268 9272 9276 9280 9284 
9288 9292 9296 9300 9304 9308 9312 9316 9320 
9324 9328 9332 9336 9340 9344 9348 9352 9356 
9360 9364 9368 9372 9376 9380 9384 9388 9392 
9396 9400 9404 9408 9412 9416 9420 9424 9428 
9432 9436 9440 9444 9448 9452 9456 9460 9464 
9468 9472 9476 9480 9484 9488 9492 9496 9500 
9504 9508 9512 9516 9520 9524 9528 9532 9536 
9540 9544 9548 9552 9556 9560 9564 9568 9572 
9576 9580 9584 9588 9592 9596 9600 9604 9608 
9612 9616 9620 9624 9628 9632 9636 9640 9644 
9648 9652 9656 9660 9664 9668 9672 9676 9680 
9684 9688 9692 9696 9700 9704 9708 9712 9716 
9720 9724 9728 9732 9736 9740 9744 9748 9752 
9756 9760 9764 9768 9772 9776 9780 9784 9788 
9792 9796 9800 9804 9808 9812 9816 9820 9824 
9828 9832 9836 9840 9844 9848 9852 9856 9860 
9864 9868 9872 9876 9880 9884 9888 9892 9896 
9900 9904 9908 9912 9916 9920 9924 9928 9932 
9936 9940 9944 9948 9952 9956 9960 9964 9968 
9972 9976 9980 9984 9988 9992 9996 10000 10004 
10008 10012 10016 10020 10024 10028 10032 10036 10040 
10044 10048 10052 10056 10060 10064 10068 10072 10076 
10080 10084 10088 10092 10096 10100 10104 10108 10112 
10116 10120 10124 10128 10132 10136 10140 10144 10148 
10152 10156 10160 10164 10168 10172 10176 10180 10184 
10188 10192 10196 10200 10204 10208 10212 10216 10220 
10224 10228 10232 10236 10240 10244 10248 10252 10256 
10260 10264 10268 10272 10276 10280 10284 10288 10292 
10296 10300 10304 10308 10312 10316 10320 10324 10328 
10332 10336 10340 10344 10348 10352 10356 10360 10364 
10368 10372 10376 10380 10384 10388 10392 10396 10400 
10404 10408 10412 10416 10420 10424 10428 10432 10436 
10440 10444 10448 10452 10456 10460 10464 10468 10472 
10476 10480 10484 10488 10492 10496 10500 10504 10508 
10512 10516 10520 10524 10528 10532 10536 10540 10544 
10548 10552 10556 10560 10564 10568 10572 10576 10580 
10584 10588 10592 10596 10600 10604 10608 10612 10616 
10620 10624 10628 10632 10636 10640 10644 10648 10652 
10656 10660 10664 10668 10672 10676 10680 10684 10688 
10692 10696 10700 10704 10708 10712 10716 10720 10724 
10728 10732 10736 10740 10744 10748 10752 10756 10760 
10764 10768 10772 10776 10780 10784 10788 10792 10796 
10800 10804 10808 10812 10816 10820 10824 10828 10832 
10836 10840 10844 10848 10852 10856 10860 10864 10868 
10872 10876 10880 10884 10888 10892 10896 10900 10904 
10908 10912 10916 10920 10924 10928 10932 10936 10940 
10944 10948 10952 10956 10960 10964 10968 10972 10976 
10980 10984 10988 10992 10996 11000 11004 11008 11012 
11016 11020 11024 11028 11032 11036 11040 11044 11048 
11052 11056 11060 11064 11068 11072 11076 11080 11084 
11088 11092 11096 11100 11104 11108 11112 11116 11120 
11124 11128 11132 11136 11140 11144 11148 11152 11156 
11160 11164 11168 11172 11176 11180 11184 11188 11192 
11196 11200 11204 11208 11212 11216 11220 11224 11228 
11232 11236 11240 11244 11248 11252 11256 11260 11264 
11268 11272 11276 11280 11284 11288 11292 11296 11300 
11304 11308 11312 11316 11320 11324 11328 11332 11336 
11340 11344 11348 11352 11356 11360 11364 11368 11372 
11376 11380 11384 11388 11392 11396 11400 11404 11408 
11412 11416 11420 11424 11428 11432 11436 11440 11444 
11448 11452 11456 11460 11464 11468 11472 11476 11480 
11484 11488 11492 11496 11500 11504 11508 11512 11516 
11520 11524 11528 11532 11536 11540 11544 11548 11552 
11556 11560 11564 11568 11572 11576 11580 11584 11588 
11592 11596 11600 11604 11608 11612 11616 11620 11624 
11628 11632 11636 11640 11644 11648 11652 11656 11660 
11664 11668 11672 11676 11680 11684 11688 11692 11696 
11700 11704 11708 11712 11716 11720 11724 11728 11732 
11736 11740 11744 11748 11752 11756 11760 11764 11768 
11772 11776 11780 11784 11788 11792 11796 11800 11804 
11808 11812 11816 11820 11824 11828 11832 11836 11840 
11844 11848 11852 11856 11860 11864 11868 11872 11876 
11880 11884 11888 11892 11896 11900 11904 11908 11912 
11916 11920 11924 11928 11932 11936 11940 11944 11948 
11952 11956 11960 11964 11968 11972 11976 11980 11984 
11988 11992 11996 12000 12004 12008 12012 12016 12020 
12024 12028 12032 12036 12040 12044 12048 12052 12056 
12060 12064 12068 12072 12076 12080 12084 12088 12092 
12096 12100 12104 12108 12112 12116 12120 12124 12128 
12132 12136 12140 12144 12148 12152 12156 12160 12164 
12168 12172 12176 12180 12184 12188 12192 12196 12200 
12204 12208 12212 12216 12220 12224 12228 12232 12236 
12240 12244 12248 12252 12256 12260 12264 12268 12272 
12276 12280 12284 12288 12292 12296 12300 12304 12308 
12312 12316 12320 12324 12328 12332 12336 12340 12344 
12348 12352 12356 12360 12364 12368 12372 12376 12380 
12384 12388 12392 12396 12400 12404 12408 12412 12416 
12420 12424 12428 12432 12436 12440 12444 12448 12452 
12456 12460 12464 12468 12472 12476 12480 12484 12488 
12492 12496 12500 12504 12508 12512 12516 12520 12524 
12528 12532 12536 12540 12544 12548 12552 12556 12560 
12564 12568 12572 12576 12580 12584 12588 12592 12596 
12600 12604 12608 12612 12616 12620 12624 12628 12632 
12636 12640 12644 12648 12652 12656 12660 12664 12668 
12672 12676 12680 12684 12688 12692 12696 12700 12704 
12708 12712 12716 12720 12724 12728 12732 12736 12740 
12744 12748 12752 12756 12760 12764 12768 12772 12776 
12780 12784 12788 12792 12796 12800 12804 12808 12812 
12816 12820 12824 12828 12832 12836 12840 12844 12848 
12852 12856 12860 12864 12868 12872 12876 12880 12884 
12888 12892 12896 12900 12904 12908 12912 12916 12920 
12924 12928 12932 12936 12940 12944 12948 12952 12956 
12960 12964 12968 12972 12976 12980 12984 12988 12992 
12996 13000 13004 13008 13012 13016 13020 13024 13028 
13032 13036 13040 13044 13048 13052 13056 13060 13064 
13068 13072 13076 13080 13084 13088 13092 13096 13100 
13104 13108 13112 13116 13120 13124 13128 13132 13136 
13140 13144 13148 13152 13156 13160 13164 13168 13172 
13176 13180 13184 13188 13192 13196 13200 13204 13208 
13212 13216 13220 13224 13228 13232 13236 13240 13244 
13248 13252 13256 13260 13264 13268 13272 13276 13280 
13284 13288 13292 13296 13300 13304 13308 13312 13316 
13320 13324 13328 13332 13336 13340 13344 13348 13352 
13356 13360 13364 13368 13372 13376 13380 13384 13388 
13392 13396 13400 13404 13408 13412 13416 13420 13424 
13428 13432 13436 13440 13444 13448 13452 13456 13460 
13464 13468 13472 13476 13480 13484 13488 13492 13496 
13500 13504 13508 13512 13516 13520 13524 13528 13532 
13536 13540 13544 13548 13552 13556 13560 13564 13568 
13572 13576 13580 13584 13588 13592 13596 13600 13604 
13608 13612 13616 13620 13624 13628 13632 13636 13640 
13644 13648 13652 13656 13660 13664 13668 13672 13676 
13680 13684 13688 13692 13696 13700 13704 13708 13712 
13716 13720 13724 13728 13732 13736 13740 13744 13748 
13752 13756 13760 13764 13768 13772 13776 13780 13784 
13788 13792 13796 13800 13804 13808 13812 13816 13820 
13824 13828 13832 13836 13840 13844 13848 13852 13856 
13860 13864 13868 13872 13876 13880 13884 13888 13892 
13896 13900 13904 13908 13912 13916 13920 13924 13928 
13932 13936 13940 13944 13948 13952 13956 13960 13964 
13968 13972 13976 13980 13984 13988 13992 13996 14000 
14004 14008 14012 14016 14020 14024 14028 14032 14036 
14040 14044 14048 14052 14056 14060 14064 14068 14072 
14076 14080 14084 14088 14092 14096 14100 14104 14108 
14112 14116 14120 14124 14128 14132 14136 14140 14144 
14148 14152 14156 14160 14164 14168 14172 14176 14180 
14184 14188 14192 14196 14200 14204 14208 14212 14216 
14220 14224 14228 14232 14236 14240 14244 14248 14252 
14256 14260 14264 14268 14272 14276 14280 14284 14288 
14292 14296 14300 14304 14308 14312 14316 14320 14324 
14328 14332 14336 14340 14344 14348 14352 14356 14360 
14364 14368 14372 14376 14380 14384 14388 14392 14396 
14400 14404 14408 14412 14416 14420 14424 14428 14432 
14436 14440 14444 14448 14452 14456 14460 14464 14468 
14472 14476 14480 14484 14488 14492 14496 14500 14504 
14508 14512 14516 14520 14524 14528 14532 14536 14540 
14544 14548 14552 14556 14560 14564 14568 14572 14576 
14580 14584 14588 14592 14596 14600 14604 14608 14612 
14616 14620 14624 14628 14632 14636 14640 14644 14648 
14652 14656 14660 14664 14668 14672 14676 14680 14684 
14688 14692 14696 14700 14704 14708 14712 14716 14720 
14724 14728 14732 14736 14740 14744 14748 14752 14756 
14760 14764 14768 14772 14776 14780 14784 14788 14792 
14796 14800 14804 14808 14812 14816 14820 14824 14828 
14832 14836 14840 14844 14848 14852 14856 14860 14864 
14868 14872 14876 14880 14884 14888 14892 14896 14900 
14904 14908 14912 14916 14920 14924 14928 14932 14936 
14940 14944 14948 14952 14956 14960 14964 14968 14972 
14976 14980 14984 14988 14992 14996 15000 15004 15008 
15012 15016 15020 15024 15028 15032 15036 15040 15044 
15048 15052 15056 15060 15064 15068 15072 15076 15080 
15084 15088 15092 15096 15100 15104 15108 15112 15116 
15120 15124 15128 15132 15136 15140 15144 15148 15152 
15156 15160 15164 15168 15172 15176 15180 15184 15188 
15192 15196 15200 15204 15208 15212 15216 15220 15224 
15228 15232 15236 15240 15244 15248 15252 15256 15260 
15264 15268 15272 15276 15280 15284 15288 15292 15296 
15300 15304 15308 15312 15316 15320 15324 15328 15332 
15336 15340 15344 15348 15352 15356 15360 15364 15368 
15372 15376 15380 15384 15388 15392 15396 15400 15404 
15408 15412 15416 15420 15424 15428 15432 15436 15440 
15444 15448 15452 15456 15460 15464 15468 15472 15476 
15480 15484 15488 15492 15496 15500 15504 15508 15512 
15516 15520 15524 15528 15532 15536 15540 15544 15548 
15552 15556 15560 15564 15568 15572 15576 15580 15584 
15588 15592 15596 15600 15604 15608 15612 15616 15620 
15624 15628 15632 15636 15640 15644 15648 15652 15656 
15660 15664 15668 15672 15676 15680 15684 15688 15692 
15696 15700 15704 15708 15712 15716 15720 15724 15728 
15732 15736 15740 15744 15748 15752 15756 15760 15764 
15768 15772 15776 15780 15784 15788 15792 15796 15800 
15804 15808 15812 15816 15820 15824 15828 15832 15836 
15840 15844 15848 15852 15856 15860 15864 15868 15872 
15876 15880 15884 15888 15892 15896 15900 15904 15908 
15912 15916 15920 15924 15928 15932 15936 15940 15944 
15948 15952 15956 15960 15964 15968 15972 15976 15980 
15984 15988 15992 15996 16000 16004 16008 16012 16016 
16020 16024 16028 16032 16036 16040 16044 16048 16052 
16056 16060 16064 16068 16072 16076 16080 16084 16088 
16092 16096 16100 16104 16108 16112 16116 16120 16124 
16128 16132 16136 16140 16144 16148 16152 16156 16160 
16164 16168 16172 16176 16180 16184 16188 16192 16196 
16200 16204 16208 16212 16216 16220 16224 16228 16232 
16236 16240 16244 16248 16252 16256 16260 16264 16268 
16272 16276 16280 16284 16288 16292 16296 16300 16304 
16308 16312 16316 16320 16324 16328 16332 16336 16340 
16344 16348 16352 16356 16360 16364 16368 16372 16376 
16380 16384 16388 16392 16396 16400 16404 16408 16412 
16416 16420 16424 16428 16432 16436 16440 16444 16448 
16452 16456 16460 16464 16468 16472 16476 16480 16484 
16488 16492 16496 16500 16504 16508 16512 16516 16520 
16524 16528 16532 16536 16540 16544 16548 16552 16556 
16560 16564 16568 16572 16576 16580 16584 16588 16592 
16596 16600 16604 16608 16612 16616 16620 16624 16628 
16632 16636 16640 16644 16648 16652 16656 16660 16664 
16668 16672 16676 16680 16684 16688 16692 16696 16700 
16704 16708 16712 16716 16720 16724 16728 16732 16736 
16740 16744 16748 16752 16756 16760 16764 16768 16772 
16776 16780 16784 16788 16792 16796 16800 16804 16808 
16812 16816 16820 16824 16828 16832 16836 16840 16844 
16848 16852 16856 16860 16864 16868 16872 16876 16880 
16884 16888 16892 16896 16900 16904 16908 16912 16916 
16920 16924 16928 16932 16936 16940 16944 16948 16952 
16956 16960 16964 16968 16972 16976 16980 16984 16988 
16992 16996 17000 17004 17008 17012 17016 17020 17024 
17028 17032 17036 17040 17044 17048 17052 17056 17060 
17064 17068 17072 17076 17080 17084 17088 17092 17096 
17100 17104 17108 17112 17116 17120 17124 17128 17132 
17136 17140 17144 17148 17152 17156 17160 17164 17168 
17172 17176 17180 17184 17188 17192 17196 17200 17204 
17208 17212 17216 17220 17224 17228 17232 17236 17240 
17244 17248 17252 17256 17260 17264 17268 17272 17276 
17280 17284 17288 17292 17296 17300 17304 17308 17312 
17316 17320 17324 17328 17332 17336 17340 17344 17348 
17352 17356 17360 17364 17368 17372 17376 17380 17384 
17388 17392 17396 17400 17404 17408 17412 17416 17420 
17424 17428 17432 17436 17440 17444 17448 17452 17456 
17460 17464 17468 17472 17476 17480 17484 17488 17492 
17496 17500 17504 17508 17512 17516 17520 17524 17528 
17532 17536 17540 17544 17548 17552 17556 17560 17564 
17568 17572 17576 17580 17584 17588 17592 17596 17600 
17604 17608 17612 17616 17620 17624 17628 17632 17636 
17640 17644 17648 17652 17656 17660 17664 17668 17672 
17676 17680 17684 17688 17692 17696 17700 17704 17708 
17712 17716 17720 17724 17728 17732 17736 17740 17744 
17748 17752 17756 17760 17764 17768 17772 17776 17780 
17784 17788 17792 17796 17800 17804 17808 17812 17816 
17820 17824 17828 17832 17836 17840 17844 17848 17852 
17856 17860 17864 17868 17872 17876 17880 17884 17888 
17892 17896 17900 17904 17908 17912 17916 17920 17924 
17928 17932 17936 17940 17944 17948 17952 17956 17960 
17964 17968 17972 17976 17980 17984 17988 17992 17996 
18000 18004 18008 18012 18016 18020 18024 18028 18032 
18036 18040 18044 18048 18052 18056 18060 18064 18068 
18072 18076 18080 18084 18088 18092 18096 18100 18104 
18108 18112 18116 18120 18124 18128 18132 18136 18140 
18144 18148 18152 18156 18160 18164 18168 18172 18176 
18180 18184 18188 18192 18196 18200 18204 18208 18212 
18216 18220 18224 18228 18232 18236 18240 18244 18248 
18252 18256 18260 18264 18268 18272 18276 18280 18284 
18288 18292 18296 18300 18304 18308 18312 18316 18320 
18324 18328 18332 18336 18340 18344 18348 18352 18356 
18360 18364 18368 18372 18376 18380 18384 18388 18392 
18396 18400 18404 18408 18412 18416 18420 18424 18428 
18432 18436 18440 18444 18448 18452 18456 18460 18464 
18468 18472 18476 18480 18484 18488 18492 18496 18500 
18504 18508 18512 18516 18520 18524 18528 18532 18536 
18540 18544 18548 18552 18556 18560 18564 18568 18572 
18576 18580 18584 18588 18592 18596 18600 18604 18608 
18612 18616 18620 18624 18628 18632 18636 18640 18644 
18648 18652 18656 18660 18664 18668 18672 18676 18680 
18684 18688 18692 18696 18700 18704 18708 18712 18716 
18720 18724 18728 18732 18736 18740 18744 18748 18752 
18756 18760 18764 18768 18772 18776 18780 18784 18788 
18792 18796 18800 18804 18808 18812 18816 18820 18824 
18828 18832 18836 18840 18844 18848 18852 18856 18860 
18864 18868 18872 18876 18880 18884 18888 18892 18896 
18900 18904 18908 18912 18916 18920 18924 18928 18932 
18936 18940 18944 18948 18952 18956 18960 
CONNECTIVITY vtktypeint64
0 1 63 62 1 2 64 63 2 
3 65 64 3 4 66 65 4 5 
67 66 5 6 68 67 6 7 69 
68 7 8 70 69 8 9 71 70 
9 10 72 71 10 11 73 72 11 
12 74 73 12 13 75 74 13 14 
76 75 14 15 77 76 15 16 78 
77 16 17 79 78 17 18 80 79 
18 19 81 80 19 20 82 81 20 
21 83 82 21 22 84 83 22 23 
85 84 23 24 86 85 24 25 87 
86 25 26 88 87 26 27 89 88 
27 28 90 89 28 29 91 90 29 
30 92 91 62 63 94 93 63 64 
95 94 64 65 96 95 65 66 97 
96 66 67 98 97 67 68 99 98 
68 69 100 99 69 70 101 100 70 
71 102 101 71 72 103 102 72 73 
104 103 73 74 105 104 74 75 106 
105 75 76 107 106 76 77 108 107 
77 78 109 108 78 79 110 109 79 
80 111 110 80 81 112 111 81 82 
113 112 82 83 114 113 83 84 115 
114 84 85 116 115 85 86 117 116 
86 87 118 117 87 88 119 118 88 
89 120 119 89 90 121 120 90 91 
122 121 91 92 123 122 93 94 125 
124 94 95 126 125 95 96 127 126 
96 97 128 127 97 98 129 128 98 
99 130 129 99 100 131 130 100 101 
132 131 101 102 133 132 102 103 134 
133 103 104 135 134 104 105 136 135 
105 106 137 136 106 107 138 137 107 
108 139 138 108 109 140 139 109 110 
141 140 110 111 142 141 111 112 143 
142 112 113 144 143 113 114 145 144 
114 115 146 145 115 116 147 146 116 
117 148 147 117 118 149 148 118 119 
150 149 119 120 151 150 120 121 152 
151 121 122 153 152 122 123 154 153 
124 125 156 155 125 126 157 156 126 
127 158 157 127 128 159 158 128 129 
160 159 129 130 161 160 130 131 162 
161 131 132 163 162 132 133 164 163 
133 134 165 164 134 135 166 165 135 
136 167 166 136 137 168 167 137 138 
169 168 138 139 170 169 139 140 171 
170 140 141 172 171 141 142 173 172 
142 143 174 173 143 144 175 174 144 
145 176 175 145 146 177 176 146 147 
178 177 147 148 179 178 148 149 180 
179 149 150 181 180 150 151 182 181 
151 152 183 182 152 153 184 183 153 
154 185 184 155 156 187 186 156 157 
188 187 157 158 189 188 158 159 190 
189 159 160 191 190 160 161 192 191 
161 162 193 192 162 163 194 193 163 
164 195 194 164 165 196 195 165 166 
197 196 166 167 198 197 167 168 199 
198 168 169 200 199 169 170 201 200 
170 171 202 201 171 172 203 202 172 
173 204 203 173 174 205 204 174 175 
206 205 175 176 207 206 176 177 208 
207 177 178 209 208 178 179 210 209 
179 180 211 210 180 181 212 211 181 
182 213 212 182 183 214 213 183 184 
215 214 184 185 216 215 186 187 218 
217 187 188 219 218 188 189 220 219 
189 190 221 220 190 191 222 221 191 
192 223 222 192 193 224 223 193 194 
225 224 194 195 226 225 195 196 227 
226 196 197 228 227 197 198 229 228 
198 199 230 229 199 200 231 230 200 
201 232 231 201 202 233 232 202 203 
234 233 203 204 235 234 204 205 236 
235 205 206 237 236 206 207 238 237 
207 208 239 238 208 209 240 239 209 
210 241 240 210 211 242 241 211 212 
243 242 212 213 244 243 213 214 245 
244 214 215 246 245 215 216 247 246 
217 218 249 248 218 219 250 249 219 
220 251 250 220 221 252 251 221 222 
253 252 222 223 254 253 223 224 255 
254 224 225 256 255 225 226 257 256 
226 227 258 257 227 228 259 258 228 
229 260 259 229 230 261 260 230 231 
262 261 231 232 263 262 232 233 264 
263 233 234 265 264 234 235 266 265 
235 236 267 266 236 237 268 267 237 
238 269 268 238 239 270 269 239 240 
271 270 240 241 272 271 241 242 273 
272 242 243 274 273 243 244 275 274 
244 245 276 275 245 246 277 276 246 
247 278 277 248 249 280 279 249 250 
281 280 250 251 282 281 251 252 283 
282 252 253 284 283 253 254 285 284 
254 255 286 285 255 256 287 286 256 
257 288 287 257 258 289 288 258 259 
290 289 259 260 291 290 260 261 292 
291 261 262 293 292 262 263 294 293 
263 264 295 294 264 265 296 295 265 
266 297 296 266 267 298 297 267 268 
299 298 268 269 300 299 269 270 301 
300 270 271 302 301 271 272 303 302 
272 273 304 303 273 274 305 304 274 
275 306 305 275 276 307 306 276 277 
308 307 277 278 309 308 279 280 311 
310 280 281 312 311 281 282 313 312 
282 283 314 313 283 284 315 314 284 
285 316 315 285 286 317 316 286 287 
318 317 287 288 319 318 288 289 320 
319 289 290 321 320 290 291 322 321 
291 292 323 322 292 293 324 323 293 
294 325 324 294 295 326 325 295 296 
327 326 296 297 328 327 297 298 329 
328 298 299 330 329 299 300 331 330 
300 301 332 331 301 302 333 332 302 
303 334 333 303 304 335 334 304 305 
336 335 305 306 337 336 306 307 338 
337 307 308 339 338 308 309 340 339 
310 311 342 341 311 312 343 342 312 
313 344 343 313 314 345 344 314 315 
346 345 315 316 347 346 316 317 348 
347 317 318 349 348 318 319 350 349 
319 320 351 350 320 321 352 351 321 
322 353 352 322 323 354 353 323 324 
355 354 324 325 356 355 325 326 357 
356 326 327 358 357 327 328 359 358 
328 329 360 359 329 330 361 360 330 
331 362 361 331 332 363 362 332 333 
364 363 333 334 365 364 334 335 366 
365 335 336 367 366 336 337 368 367 
337 338 369 368 338 339 370 369 339 
340 371 370 341 342 373 372 342 343 
374 373 343 344 375 374 344 345 376 
375 345 346 377 376 346 347 378 377 
347 348 379 378 348 349 380 379 349 
350 381 380 350 351 382 381 351 352 
383 382 352 353 384 383 353 354 385 
384 354 355 386 385 355 356 387 386 
356 357 388 387 357 358 389 388 358 
359 390 389 359 360 391 390 360 361 
392 391 361 362 393 392 362 363 394 
393 363 364 395 394 364 365 396 395 
365 366 397 396 366 367 398 397 367 
368 399 398 368 369 400 399 369 370 
401 400 370 371 402 401 372 373 404 
403 373 374 405 404 374 375 406 405 
375 376 407 406 376 377 408 407 377 
378 409 408 378 379 410 409 379 380 
411 410 380 381 412 411 381 382 413 
412 382 383 414 413 383 384 415 414 
384 385 416 415 385 386 417 416 386 
387 418 417 387 388 419 418 388 389 
420 419 389 390 421 420 390 391 422 
421 391 392 423 422 392 393 424 423 
393 394 425 424 394 395 426 425 395 
396 427 426 396 397 428 427 397 398 
429 428 398 399 430 429 399 400 431 
430 400 401 432 431 401 402 433 432 
403 404 435 434 404 405 436 435 405 
406 437 436 406 407 438 437 407 408 
439 438 408 409 440 439 409 410 441 
440 410 411 442 441 411 412 443 442 
412 413 444 443 413 414 445 444 414 
415 446 445 415 416 447 446 416 417 
448 447 417 418 449 448 418 419 450 
449 419 420 451 450 420 421 452 451 
421 422 453 452 422 423 454 453 423 
424 455 454 424 425 456 455 425 426 
457 456 426 427 458 457 427 428 459 
458 428 429 460 459 429 430 461 460 
430 431 462 461 431 432 463 462 432 
433 464 463 434 435 466 465 435 436 
467 466 436 437 468 467 437 438 469 
468 438 439 470 469 439 440 471 470 
440 441 472 471 441 442 473 472 442 
443 474 473 443 444 475 474 444 445 
476 475 445 446 477 476 446 447 478 
477 447 448 479 478 448 449 480 479 
449 450 481 480 450 451 482 481 451 
452 483 482 452 453 484 483 453 454 
485 484 454 455 486 485 455 456 487 
486 456 457 488 487 457 458 489 488 
458 459 490 489 459 460 491 490 460 
461 492 491 461 462 493 492 462 463 
494 493 463 464 495 494 465 466 497 
496 466 467 498 497 467 468 499 498 
468 469 500 499 469 470 501 500 470 
471 502 501 471 472 503 502 472 473 
504 503 473 474 505 504 474 475 506 
505 475 476 507 506 476 477 508 507 
477 478 509 508 478 479 510 509 479 
480 511 510 480 481 512 511 481 482 
513 512 482 483 514 513 483 484 515 
514 484 485 516 515 485 486 517 516 
486 487 518 517 487 488 519 518 488 
489 520 519 489 490 521 520 490 491 
522 521 491 492 523 522 492 493 524 
523 493 494 525 524 494 495 526 525 
496 497 528 527 497 498 529 528 498 
499 530 529 499 500 531 530 500 501 
532 531 501 502 533 532 502 503 534 
533 503 504 535 534 504 505 536 535 
505 506 537 536 506 507 538 537 507 
508 539 538 508 509 540 539 509 510 
541 540 510 511 542 541 511 512 543 
542 512 513 544 543 513 514 545 544 
514 515 546 545 515 516 547 546 516 
517 548 547 517 518 549 548 518 519 
550 549 519 520 551 550 520 521 552 
551 521 522 553 552 522 523 554 553 
523 524 555 554 524 525 556 555 525 
526 557 556 527 528 559 558 528 529 
560 559 529 530 561 560 530 531 562 
561 531 532 563 562 532 533 564 563 
533 534 565 564 534 535 566 565 535 
536 567 566 536 537 568 567 537 538 
569 568 538 539 570 569 539 540 571 
570 540 541 572 571 541 542 573 572 
542 543 574 573 543 544 575 574 544 
545 576 575 545 546 577 576 546 547 
578 577 547 548 579 578 548 549 580 
579 549 550 581 580 550 551 582 581 
551 552 583 582 552 553 584 583 553 
554 585 584 554 555 586 585 555 556 
587 586 556 557 588 587 558 559 590 
589 559 560 591 590 560 561 592 591 
561 562 593 592 562 563 594 593 563 
564 595 594 564 565 596 595 565 566 
597 596 566 567 598 597 567 568 599 
598 568 569 600 599 569 570 601 600 
570 571 602 601 571 572 603 602 572 
573 604 603 573 574 605 604 574 575 
606 605 575 576 607 606 576 577 608 
607 577 578 609 608 578 579 610 609 
579 580 611 610 580 581 612 611 581 
582 613 612 582 583 614 613 583 584 
615 614 584 585 616 615 585 586 617 
616 586 587 618 617 587 588 619 618 
589 590 621 620 590 591 622 621 591 
592 623 622 592 593 624 623 593 594 
625 624 594 595 626 625 595 596 627 
626 596 597 628 627 597 598 629 628 
598 599 630 629 599 600 631 630 600 
601 632 631 601 602 633 632 602 603 
634 633 603 604 635 634 604 605 636 
635 605 606 637 636 606 607 638 637 
607 608 639 638 608 609 640 639 609 
610 641 640 610 611 642 641 611 612 
643 642 612 613 644 643 613 614 645 
644 614 615 646 645 615 616 647 646 
616 617 648 647 617 618 649 648 618 
619 650 649 620 621 652 651 621 622 
653 652 622 623 654 653 623 624 655 
654 624 625 656 655 625 626 657 656 
626 627 658 657 627 628 659 658 628 
629 660 659 629 630 661 660 630 631 
662 661 631 632 663 662 632 633 664 
663 633 634 665 664 634 635 666 665 
635 636 667 666 636 637 668 667 637 
638 669 668 638 639 670 669 639 640 
671 670 640 641 672 671 641 642 673 
672 642 643 674 673 643 644 675 674 
644 645 676 675 645 646 677 676 646 
647 678 677 647 648 679 678 648 649 
680 679 649 650 681 680 651 652 683 
682 652 653 684 683 653 654 685 684 
654 655 686 685 655 656 687 686 656 
657 688 687 657 658 689 688 658 659 
690 689 659 660 691 690 660 661 692 
691 661 662 693 692 662 663 694 693 
663 664 695 694 664 665 696 695 665 
666 697 696 666 667 698 697 667 668 
699 698 668 669 700 699 669 670 701 
700 670 671 702 701 671 672 703 702 
672 673 704 703 673 674 705 704 674 
675 706 705 675 676 707 706 676 677 
708 707 677 678 709 708 678 679 710 
709 679 680 711 710 680 681 712 711 
682 683 714 713 683 684 715 714 684 
685 716 715 685 686 717 716 686 687 
718 717 687 688 719 718 688 689 720 
719 689 690 721 720 690 691 722 721 
691 692 723 722 692 693 724 723 693 
694 725 724 694 695 726 725 695 696 
727 726 696 697 728 727 697 698 729 
728 698 699 730 729 699 700 731 730 
700 701 732 731 701 702 733 732 702 
703 734 733 703 704 735 734 704 705 
736 735 705 706 737 736 706 707 738 
737 707 708 739 738 708 709 740 739 
709 710 741 740 710 711 742 741 711 
712 743 742 713 714 745 744 714 715 
746 745 715 716 747 746 716 717 748 
747 717 718 749 748 718 719 750 749 
719 720 751 750 720 721 752 751 721 
722 753 752 722 723 754 753 723 724 
755 754 724 725 756 755 725 726 757 
756 726 727 758 757 727 728 759 758 
728 729 760 759 729 730 761 760 730 
731 762 761 731 732 763 762 732 733 
764 763 733 734 765 764 734 735 766 
765 735 736 767 766 736 737 768 767 
737 738 769 768 738 739 770 769 739 
740 771 770 740 741 772 771 741 742 
773 772 742 743 774 773 744 745 776 
775 745 746 777 776 746 747 778 777 
747 748 779 778 748 749 780 779 749 
750 781 780 750 751 782 781 751 752 
783 782 752 753 784 783 753 754 785 
784 754 755 786 785 755 756 787 786 
756 757 788 787 757 758 789 788 758 
759 790 789 759 760 791 790 760 761 
792 791 761 762 793 792 762 763 794 
793 763 764 795 794 764 765 796 795 
765 766 797 796 766 767 798 797 767 
768 799 798 768 769 800 799 769 770 
801 800 770 771 802 801 771 772 803 
802 772 773 804 803 773 774 805 804 
775 776 807 806 776 777 808 807 777 
778 809 808 778 779 810 809 779 780 
811 810 780 781 812 811 781 782 813 
812 782 783 814 813 783 784 815 814 
784 785 816 815 785 786 817 816 786 
787 818 817 787 788 819 818 788 789 
820 819 789 790 821 820 790 791 822 
821 791 792 823 822 792 793 824 823 
793 794 825 824 794 795 826 825 795 
796 827 826 796 797 828 827 797 798 
829 828 798 799 830 829 799 800 831 
830 800 801 832 831 801 802 833 832 
802 803 834 833 803 804 835 834 804 
805 836 835 806 807 838 837 807 808 
839 838 808 809 840 839 809 810 841 
840 810 811 842 841 811 812 843 842 
812 813 844 843 813 814 845 844 814 
815 846 845 815 816 847 846 816 817 
848 847 817 818 849 848 818 819 850 
849 819 820 851 850 820 821 852 851 
821 822 853 852 822 823 854 853 823 
824 855 854 824 825 856 855 825 826 
857 856 826 827 858 857 827 828 859 
858 828 829 860 859 829 830 861 860 
830 831 862 861 831 832 863 862 832 
833 864 863 833 834 865 864 834 835 
866 865 835 836 867 866 837 838 869 
868 838 839 870 869 839 840 871 870 
840 841 872 871 841 842 873 872 842 
843 874 873 843 844 875 874 844 845 
876 875 845 846 877 876 846 847 878 
877 847 848 879 878 848 849 880 879 
849 850 881 880 850 851 882 881 851 
852 883 882 852 853 884 883 853 854 
885 884 854 855 886 885 855 856 887 
886 856 857 888 887 857 858 889 888 
858 859 890 889 859 860 891 890 860 
861 892 891 861 862 893 892 862 863 
894 893 863 864 895 894 864 865 896 
895 865 866 897 896 866 867 898 897 
868 869 900 899 869 870 901 900 870 
871 902 901 871 872 903 902 872 873 
904 903 873 874 905 904 874 875 906 
905 875 876 907 906 876 877 908 907 
877 878 909 908 878 879 910 909 879 
880 911 910 880 881 912 911 881 882 
913 912 882 883 914 913 883 884 915 
914 884 885 916 915 885 886 917 916 
886 887 918 917 887 888 919 918 888 
889 920 919 889 890 921 920 890 891 
922 921 891 892 923 922 892 893 924 
923 893 894 925 924 894 895 926 925 
895 896 927 926 896 897 928 927 897 
898 929 928 899 900 931 930 900 901 
932 931 901 902 933 932 902 903 934 
933 903 904 935 934 904 905 936 935 
905 906 937 936 906 907 938 937 907 
908 939 938 908 909 940 939 909 910 
941 940 910 911 942 941 911 912 943 
942 912 913 944 943 913 914 945 944 
914 915 946 945 915 916 947 946 916 
917 948 947 917 918 949 948 918 919 
950 949 919 920 951 950 920 921 952 
951 921 922 953 952 922 923 954 953 
923 924 955 954 924 925 956 955 925 
926 957 956 926 927 958 957 927 928 
959 958 928 929 960 959 930 931 962 
961 931 932 963 962 932 933 964 963 
933 934 965 964 934 935 966 965 935 
936 967 966 936 937 968 967 937 938 
969 968 938 939 970 969 939 940 971 
970 940 941 972 971 941 942 973 972 
942 943 974 973 943 944 975 974 944 
945 976 975 945 946 977 976 946 947 
978 977 947 948 979 978 948 949 980 
979 949 950 981 980 950 951 982 981 
951 952 983 982 952 953 984 983 953 
954 985 984 954 955 986 985 955 956 
987 986 956 957 988 987 957 958 989 
988 958 959 990 989 959 960 991 990 
961 962 993 992 962 963 994 993 963 
964 995 994 964 965 996 995 965 966 
997 996 966 967 998 997 967 968 999 
998 968 969 1000 999 969 970 1001 1000 
970 971 1002 1001 971 972 1003 1002 972 
973 1004 1003 973 974 1005 1004 974 975 
1006 1005 975 976 1007 1006 976 977 1008 
1007 977 978 1009 1008 978 979 1010 1009 
979 980 1011 1010 980 981 1012 1011 981 
982 1013 1012 982 983 1014 1013 983 984 
1015 1014 984 985 1016 1015 985 986 1017 
1016 986 987 1018 1017 987 988 1019 1018 
988 989 1020 1019 989 990 1021 1020 990 
991 1022 1021 992 993 1024 1023 993 994 
1025 1024 994 995 1026 1025 995 996 1027 
1026 996 997 1028 1027 997 998 1029 1028 
998 999 1030 1029 999 1000 1031 1030 1000 
1001 1032 1031 1001 1002 1033 1032 1002 1003 
1034 1033 1003 1004 1035 1034 1004 1005 1036 
1035 1005 1006 1037 1036 1006 1007 1038 1037 
1007 1008 1039 1038 1008 1009 1040 1039 1009 
1010 1041 1040 1010 1011 1042 1041 1011 1012 
1043 1042 1012 1013 1044 1043 1013 1014 1045 
1044 1014 1015 1046 1045 1015 1016 1047 1046 
1016 1017 1048 1047 1017 1018 1049 1048 1018 
1019 1050 1049 1019 1020 1051 1050 1020 1021 
1052 1051 1021 1022 1053 1052 1023 1024 1055 
1054 1024 1025 1056 1055 1025 1026 1057 1056 
1026 1027 1058 1057 1027 1028 1059 1058 1028 
1029 1060 1059 1029 1030 1061 1060 1030 1031 
1062 1061 1031 1032 1063 1062 1032 1033 1064 
1063 1033 1034 1065 1064 1034 1035 1066 1065 
1035 1036 1067 1066 1036 1037 1068 1067 1037 
1038 1069 1068 1038 1039 1070 1069 1039 1040 
1071 1070 1040 1041 1072 1071 1041 1042 1073 
1072 1042 1043 1074 1073 1043 1044 1075 1074 
1044 1045 1076 1075 1045 1046 1077 1076 1046 
1047 1078 1077 1047 1048 1079 1078 1048 1049 
1080 1079 1049 1050 1081 1080 1050 1051 1082 
1081 1051 1052 1083 1082 1052 1053 1084 1083 
1054 1055 1086 1085 1055 1056 1087 1086 1056 
1057 1088 1087 1057 1058 1089 1088 1058 1059 
1090 1089 1059 1060 1091 1090 1060 1061 1092 
1091 1061 1062 1093 1092 1062 1063 1094 1093 
1063 1064 1095 1094 1064 1065 1096 1095 1065 
1066 1097 1096 1066 1067 1098 1097 1067 1068 
1099 1098 1068 1069 1100 1099 1069 1070 1101 
1100 1070 1071 1102 1101 1071 1072 1103 1102 
1072 1073 1104 1103 1073 1074 1105 1104 1074 
1075 1106 1105 1075 1076 1107 1106 1076 1077 
1108 1107 1077 1078 1109 1108 1078 1079 1110 
1109 1079 1080 1111 1110 1080 1081 1112 1111 
1081 1082 1113 1112 1082 1083 1114 1113 1083 
1084 1115 1114 1085 1086 1117 1116 1086 1087 
1118 1117 1087 1088 1119 1118 1088 1089 1120 
1119 1089 1090 1121 1120 1090 1091 1122 1121 
1091 1092 1123 1122 1092 1093 1124 1123 1093 
1094 1125 1124 1094 1095 1126 1125 1095 1096 
1127 1126 1096 1097 1128 1127 1097 1098 1129 
1128 1098 1099 1130 1129 1099 1100 1131 1130 
1100 1101 1132 1131 1101 1102 1133 1132 1102 
1103 1134 1133 1103 1104 1135 1134 1104 1105 
1136 1135 1105 1106 1137 1136 1106 1107 1138 
1137 1107 1108 1139 1138 1108 1109 1140 1139 
1109 1110 1141 1140 1110 1111 1142 1141 1111 
1112 1143 1142 1112 1113 1144 1143 1113 1114 
1145 1144 1114 1115 1146 1145 1116 1117 1148 
1147 1117 1118 1149 1148 1118 1119 1150 1149 
1119 1120 1151 1150 1120 1121 1152 1151 1121 
1122 1153 1152 1122 1123 1154 1153 1123 1124 
1155 1154 1124 1125 1156 1155 1125 1126 1157 
1156 1126 1127 1158 1157 1127 1128 1159 1158 
1128 1129 1160 1159 1129 1130 1161 1160 1130 
1131 1162 1161 1131 1132 1163 1162 1132 1133 
1164 1163 1133 1134 1165 1164 1134 1135 1166 
1165 1135 1136 1167 1166 1136 1137 1168 1167 
1137 1138 1169 1168 1138 1139 1170 1169 1139 
1140 1171 1170 1140 1141 1172 1171 1141 1142 
1173 1172 1142 1143 1174 1173 1143 1144 1175 
1174 1144 1145 1176 1175 1145 1146 1177 1176 
1147 1148 1179 1178 1148 1149 1180 1179 1149 
1150 1181 1180 1150 1151 1182 1181 1151 1152 
1183 1182 1152 1153 1184 1183 1153 1154 1185 
1184 1154 1155 1186 1185 1155 1156 1187 1186 
1156 1157 1188 1187 1157 1158 1189 1188 1158 
1159 1190 1189 1159 1160 1191 1190 1160 1161 
1192 1191 1161 1162 1193 1192 1162 1163 1194 
1193 1163 1164 1195 1194 1164 1165 1196 1195 
1165 1166 1197 1196 1166 1167 1198 1197 1167 
1168 1199 1198 1168 1169 1200 1199 1169 1170 
1201 1200 1170 1171 1202 1201 1171 1172 1203 
1202 1172 1173 1204 1203 1173 1174 1205 1204 
1174 1175 1206 1205 1175 1176 1207 1206 1176 
1177 1208 1207 1178 1179 1210 1209 1179 1180 
1211 1210 1180 1181 1212 1211 1181 1182 1213 
1212 1182 1183 1214 1213 1183 1184 1215 1214 
1184 1185 1216 1215 1185 1186 1217 1216 1186 
1187 1218 1217 1187 1188 1219 1218 1188 1189 
1220 1219 1189 1190 1221 1220 1190 1191 1222 
1221 1191 1192 1223 1222 1192 1193 1224 1223 
1193 1194 1225 1224 1194 1195 1226 1225 1195 
1196 1227 1226 1196 1197 1228 1227 1197 1198 
1229 1228 1198 1199 1230 1229 1199 1200 1231 
1230 1200 1201 1232 1231 1201 1202 1233 1232 
1202 1203 1234 1233 1203 1204 1235 1234 1204 
1205 1236 1235 1205 1206 1237 1236 1206 1207 
1238 1237 1207 1208 1239 1238 1209 1210 1241 
1240 1210 1211 1242 1241 1211 1212 1243 1242 
1212 1213 1244 1243 1213 1214 1245 1244 1214 
1215 1246 1245 1215 1216 1247 1246 1216 1217 
1248 1247 1217 1218 1249 1248 1218 1219 1250 
1249 1219 1220 1251 1250 1220 1221 1252 1251 
1221 1222 1253 1252 1222 1223 1254 1253 1223 
1224 1255 1254 1224 1225 1256 1255 1225 1226 
1257 1256 1226 1227 1258 1257 1227 1228 1259 
1258 1228 1229 1260 1259 1229 1230 1261 1260 
1230 1231 1262 1261 1231 1232 1263 1262 1232 
1233 1264 1263 1233 1234 1265 1264 1234 1235 
1266 1265 1235 1236 1267 1266 1236 1237 1268 
1267 1237 1238 1269 1268 1238 1239 1270 1269 
1240 1241 1272 1271 1241 1242 1273 1272 1242 
1243 1274 1273 1243 1244 1275 1274 1244 1245 
1276 1275 1245 1246 1277 1276 1246 1247 1278 
1277 1247 1248 1279 1278 1248 1249 1280 1279 
1249 1250 1281 1280 1250 1251 1282 1281 1251 
1252 1283 1282 1252 1253 1284 1283 1253 1254 
1285 1284 1254 1255 1286 1285 1255 1256 1287 
1286 1256 1257 1288 1287 1257 1258 1289 1288 
1258 1259 1290 1289 1259 1260 1291 1290 1260 
1261 1292 1291 1261 1262 1293 1292 1262 1263 
1294 1293 1263 1264 1295 1294 1264 1265 1296 
1295 1265 1266 1297 1296 1266 1267 1298 1297 
1267 1268 1299 1298 1268 1269 1300 1299 1269 
1270 1301 1300 1271 1272 1303 1302 1272 1273 
1304 1303 1273 1274 1305 1304 1274 1275 1306 
1305 1275 1276 1307 1306 1276 1277 1308 1307 
1277 1278 1309 1308 1278 1279 1310 1309 1279 
1280 1311 1310 1280 1281 1312 1311 1281 1282 
1313 1312 1282 1283 1314 1313 1283 1284 1315 
1314 1284 1285 1316 1315 1285 1286 1317 1316 
1286 1287 1318 1317 1287 1288 1319 1318 1288 
1289 1320 1319 1289 1290 1321 1320 1290 1291 
1322 1321 1291 1292 1323 1322 1292 1293 1324 
1323 1293 1294 1325 1324 1294 1295 1326 1325 
1295 1296 1327 1326 1296 1297 1328 1327 1297 
1298 1329 1328 1298 1299 1330 1329 1299 1300 
1331 1330 1300 1301 1332 1331 1302 1303 1334 
1333 1303 1304 1335 1334 1304 1305 1336 1335 
1305 1306 1337 1336 1306 1307 1338 1337 1307 
1308 1339 1338 1308 1309 1340 1339 1309 1310 
1341 1340 1310 1311 1342 1341 1311 1312 1343 
1342 1312 1313 1344 1343 1313 1314 1345 1344 
1314 1315 1346 1345 1315 1316 1347 1346 1316 
1317 1348 1347 1317 1318 1349 1348 1318 1319 
1350 1349 1319 1320 1351 1350 1320 1321 1352 
1351 1321 1322 1353 1352 1322 1323 1354 1353 
1323 1324 1355 1354 1324 1325 1356 1355 1325 
1326 1357 1356 1326 1327 1358 1357 1327 1328 
1359 1358 1328 1329 1360 1359 1329 1330 1361 
1360 1330 1331 1362 1361 1331 1332 1363 1362 
1333 1334 1365 1364 1334 1335 1366 1365 1335 
1336 1367 1366 1336 1337 1368 1367 1337 1338 
1369 1368 1338 1339 1370 1369 1339 1340 1371 
1370 1340 1341 1372 1371 1341 1342 1373 1372 
1342 1343 1374 1373 1343 1344 1375 1374 1344 
1345 1376 1375 1345 1346 1377 1376 1346 1347 
1378 1377 1347 1348 1379 1378 1348 1349 1380 
1379 1349 1350 1381 1380 1350 1351 1382 1381 
1351 1352 1383 1382 1352 1353 1384 1383 1353 
1354 1385 1384 1354 1355 1386 1385 1355 1356 
1387 1386 1356 1357 1388 1387 1357 1358 1389 
1388 1358 1359 1390 1389 1359 1360 1391 1390 
1360 1361 1392 1391 1361 1362 1393 1392 1362 
1363 1394 1393 1364 1365 1396 1395 1365 1366 
1397 1396 1366 1367 1398 1397 1367 1368 1399 
1398 1368 1369 1400 1399 1369 1370 1401 1400 
1370 1371 1402 1401 1371 1372 1403 1402 1372 
1373 1404 1403 1373 1374 1405 1404 1374 1375 
1406 1405 1375 1376 1407 1406 1376 1377 1408 
1407 1377 1378 1409 1408 1378 1379 1410 1409 
1379 1380 1411 1410 1380 1381 1412 1411 1381 
1382 1413 1412 1382 1383 1414 1413 1383 1384 
1415 1414 1384 1385 1416 1415 1385 1386 1417 
1416 1386 1387 1418 1417 1387 1388 1419 1418 
1388 1389 1420 1419 1389 1390 1421 1420 1390 
1391 1422 1421 1391 1392 1423 1422 1392 1393 
1424 1423 1393 1394 1425 1424 1395 1396 1427 
1426 1396 1397 1428 1427 1397 1398 1429 1428 
1398 1399 1430 1429 1399 1400 1431 1430 1400 
1401 1432 1431 1401 1402 1433 1432 1402 1403 
1434 1433 1403 1404 1435 1434 1404 1405 1436 
1435 1405 1406 1437 1436 1406 1407 1438 1437 
1407 1408 1439 1438 1408 1409 1440 1439 1409 
1410 1441 1440 1410 1411 1442 1441 1411 1412 
1443 1442 1412 1413 1444 1443 1413 1414 1445 
1444 1414 1415 1446 1445 1415 1416 1447 1446 
1416 1417 1448 1447 1417 1418 1449 1448 1418 
1419 1450 1449 1419 1420 1451 1450 1420 1421 
1452 1451 1421 1422 1453 1452 1422 1423 1454 
1453 1423 1424 1455 1454 1424 1425 1456 1455 
1426 1427 1458 1457 1427 1428 1459 1458 1428 
1429 1460 1459 1429 1430 1461 1460 1430 1431 
1462 1461 1431 1432 1463 1462 1432 1433 1464 
1463 1433 1434 1465 1464 1434 1435 1466 1465 
1435 1436 1467 1466 1436 1437 1468 1467 1437 
1438 1469 1468 1438 1439 1470 1469 1439 1440 
1471 1470 1440 1441 1472 1471 1441 1442 1473 
1472 1442 1443 1474 1473 1443 1444 1475 1474 
1444 1445 1476 1475 1445 1446 1477 1476 1446 
1447 1478 1477 1447 1448 1479 1478 1448 1449 
1480 1479 1449 1450 1481 1480 1450 1451 1482 
1481 1451 1452 1483 1482 1452 1453 1484 1483 
1453 1454 1485 1484 1454 1455 1486 1485 1455 
1456 1487 1486 1457 1458 1489 1488 1458 1459 
1490 1489 1459 1460 1491 1490 1460 1461 1492 
1491 1461 1462 1493 1492 1462 1463 1494 1493 
1463 1464 1495 1494 1464 1465 1496 1495 1465 
1466 1497 1496 1466 1467 1498 1497 1467 1468 
1499 1498 1468 1469 1500 1499 1469 1470 1501 
1500 1470 1471 1502 1501 1471 1472 1503 1502 
1472 1473 1504 1503 1473 1474 1505 1504 1474 
1475 1506 1505 1475 1476 1507 1506 1476 1477 
1508 1507 1477 1478 1509 1508 1478 1479 1510 
1509 1479 1480 1511 1510 1480 1481 1512 1511 
1481 1482 1513 1512 1482 1483 1514 1513 1483 
1484 1515 1514 1484 1485 1516 1515 1485 1486 
1517 1516 1486 1487 1518 1517 1488 1489 1520 
1519 1489 1490 1521 1520 1490 1491 1522 1521 
1491 1492 1523 1522 1492 1493 1524 1523 1493 
1494 1525 1524 1494 1495 1526 1525 1495 1496 
1527 1526 1496 1497 1528 1527 1497 1498 1529 
1528 1498 1499 1530 1529 1499 1500 1531 1530 
1500 1501 1532 1531 1501 1502 1533 1532 1502 
1503 1534 1533 1503 1504 1535 1534 1504 1505 
1536 1535 1505 1506 1537 1536 1506 1507 1538 
1537 1507 1508 1539 1538 1508 1509 1540 1539 
1509 1510 1541 1540 1510 1511 1542 1541 1511 
1512 1543 1542 1512 1513 1544 1543 1513 1514 
1545 1544 1514 1515 1546 1545 1515 1516 1547 
1546 1516 1517 1548 1547 1517 1518 1549 1548 
1519 1520 32 31 1520 1521 33 32 1521 
1522 34 33 1522 1523 35 34 1523 1524 
36 35 1524 1525 37 36 1525 1526 38 
37 1526 1527 39 38 1527 1528 40 39 
1528 1529 41 40 1529 1530 42 41 1530 
1531 43 42 1531 1532 44 43 1532 1533 
45 44 1533 1534 46 45 1534 1535 47 
46 1535 1536 48 47 1536 1537 49 48 
1537 1538 50 49 1538 1539 51 50 1539 
1540 52 51 1540 1541 53 52 1541 1542 
54 53 1542 1543 55 54 1543 1544 56 
55 1544 1545 57 56 1545 1546 58 57 
1546 1547 59 58 1547 1548 60 59 1548 
1549 61 60 1550 1551 1582 1581 1551 1552 
1583 1582 1552 1553 1584 1583 1553 1554 1585 
1584 1554 1555 1586 1585 1555 1556 1587 1586 
1556 1557 1588 1587 1557 1558 1589 1588 1558 
1559 1590 1589 1559 1560 1591 1590 1560 1561 
1592 1591 1561 1562 1593 1592 1562 1563 1594 
1593 1563 1564 1595 1594 1564 1565 1596 1595 
1565 1566 1597 1596 1566 1567 1598 1597 1567 
1568 1599 1598 1568 1569 1600 1599 1569 1570 
1601 1600 1570 1571 1602 1601 1571 1572 1603 
1602 1572 1573 1604 1603 1573 1574 1605 1604 
1574 1575 1606 1605 1575 1576 1607 1606 1576 
1577 1608 1607 1577 1578 1609 1608 1578 1579 
1610 1609 1579 1580 1611 1610 1581 1582 1613 
1612 1582 1583 1614 1613 1583 1584 1615 1614 
1584 1585 1616 1615 1585 1586 1617 1616 1586 
1587 1618 1617 1587 1588 1619 1618 1588 1589 
1620 1619 1589 1590 1621 1620 1590 1591 1622 
1621 1591 1592 1623 1622 1592 1593 1624 1623 
1593 1594 1625 1624 1594 1595 1626 1625 1595 
1596 1627 1626 1596 1597 1628 1627 1597 1598 
1629 1628 1598 1599 1630 1629 1599 1600 1631 
1630 1600 1601 1632 1631 1601 1602 1633 1632 
1602 1603 1634 1633 1603 1604 1635 1634 1604 
1605 1636 1635 1605 1606 1637 1636 1606 1607 
1638 1637 1607 1608 1639 1638 1608 1609 1640 
1639 1609 1610 1641 1640 1610 1611 1642 1641 
1612 1613 1644 1643 1613 1614 1645 1644 1614 
1615 1646 1645 1615 1616 1647 1646 1616 1617 
1648 1647 1617 1618 1649 1648 1618 1619 1650 
1649 1619 1620 1651 1650 1620 1621 1652 1651 
1621 1622 1653 1652 1622 1623 1654 1653 1623 
1624 1655 1654 1624 1625 1656 1655 1625 1626 
1657 1656 1626 1627 1658 1657 1627 1628 1659 
1658 1628 1629 1660 1659 1629 1630 1661 1660 
1630 1631 1662 1661 1631 1632 1663 1662 1632 
1633 1664 1663 1633 1634 1665 1664 1634 1635 
1666 1665 1635 1636 1667 1666 1636 1637 1668 
1667 1637 1638 1669 1668 1638 1639 1670 1669 
1639 1640 1671 1670 1640 1641 1672 1671 1641 
1642 1673 1672 1643 1644 1675 1674 1644 1645 
1676 1675 1645 1646 1677 1676 1646 1647 1678 
1677 1647 1648 1679 1678 1648 1649 1680 1679 
1649 1650 1681 1680 1650 1651 1682 1681 1651 
1652 1683 1682 1652 1653 1684 1683 1653 1654 
1685 1684 1654 1655 1686 1685 1655 1656 1687 
1686 1656 1657 1688 1687 1657 1658 1689 1688 
1658 1659 1690 1689 1659 1660 1691 1690 1660 
1661 1692 1691 1661 1662 1693 1692 1662 1663 
1694 1693 1663 1664 1695 1694 1664 1665 1696 
1695 1665 1666 1697 1696 1666 1667 1698 1697 
1667 1668 1699 1698 1668 1669 1700 1699 1669 
1670 1701 1700 1670 1671 1702 1701 1671 1672 
1703 1702 1672 1673 1704 1703 1674 1675 1706 
1705 1675 1676 1707 1706 1676 1677 1708 1707 
1677 1678 1709 1708 1678 1679 1710 1709 1679 
1680 1711 1710 1680 1681 1712 1711 1681 1682 
1713 1712 1682 1683 1714 1713 1683 1684 1715 
1714 1684 1685 1716 1715 1685 1686 1717 1716 
1686 1687 1718 1717 1687 1688 1719 1718 1688 
1689 1720 1719 1689 1690 1721 1720 1690 1691 
1722 1721 1691 1692 1723 1722 1692 1693 1724 
1723 1693 1694 1725 1724 1694 1695 1726 1725 
1695 1696 1727 1726 1696 1697 1728 1727 1697 
1698 1729 1728 1698 1699 1730 1729 1699 1700 
1731 1730 1700 1701 1732 1731 1701 1702 1733 
1732 1702 1703 1734 1733 1703 1704 1735 1734 
1705 1706 1737 1736 1706 1707 1738 1737 1707 
1708 1739 1738 1708 1709 1740 1739 1709 1710 
1741 1740 1710 1711 1742 1741 1711 1712 1743 
1742 1712 1713 1744 1743 1713 1714 1745 1744 
1714 1715 1746 1745 1715 1716 1747 1746 1716 
1717 1748 1747 1717 1718 1749 1748 1718 1719 
1750 1749 1719 1720 1751 1750 1720 1721 1752 
1751 1721 1722 1753 1752 1722 1723 1754 1753 
1723 1724 1755 1754 1724 1725 1756 1755 1725 
1726 1757 1756 1726 1727 1758 1757 1727 1728 
1759 1758 1728 1729 1760 1759 1729 1730 1761 
1760 1730 1731 1762 1761 1731 1732 1763 1762 
1732 1733 1764 1763 1733 1734 1765 1764 1734 
1735 1766 1765 1736 1737 1768 1767 1737 1738 
1769 1768 1738 1739 1770 1769 1739 1740 1771 
1770 1740 1741 1772 1771 1741 1742 1773 1772 
1742 1743 1774 1773 1743 1744 1775 1774 1744 
1745 1776 1775 1745 1746 1777 1776 1746 1747 
1778 1777 1747 1748 1779 1778 1748 1749 1780 
1779 1749 1750 1781 1780 1750 1751 1782 1781 
1751 1752 1783 1782 1752 1753 1784 1783 1753 
1754 1785 1784 1754 1755 1786 1785 1755 1756 
1787 1786 1756 1757 1788 1787 1757 1758 1789 
1788 1758 1759 1790 1789 1759 1760 1791 1790 
1760 1761 1792 1791 1761 1762 1793 1792 1762 
1763 1794 1793 1763 1764 1795 1794 1764 1765 
1796 1795 1765 1766 1797 1796 1767 1768 1 
0 1768 1769 2 1 1769 1770 3 2 
1770 1771 4 3 1771 1772 5 4 1772 
1773 6 5 1773 1774 7 6 1774 1775 
8 7 1775 1776 9 8 1776 1777 10 
9 1777 1778 11 10 1778 1779 12 11 
1779 1780 13 12 1780 1781 14 13 1781 
1782 15 14 1782 1783 16 15 1783 1784 
17 16 1784 1785 18 17 1785 1786 19 
18 1786 1787 20 19 1787 1788 21 20 
1788 1789 22 21 1789 1790 23 22 1790 
1791 24 23 1791 1792 25 24 1792 1793 
26 25 1793 1794 27 26 1794 1795 28 
27 1795 1796 29 28 1796 1797 30 29 
1798 1799 1830 1829 1799 1800 1831 1830 1800 
1801 1832 1831 1801 1802 1833 1832 1802 1803 
1834 1833 1803 1804 1835 1834 1804 1805 1836 
1835 1805 1806 1837 1836 1806 1807 1838 1837 
1807 1808 1839 1838 1808 1809 1840 1839 1809 
1810 1841 1840 1810 1811 1842 1841 1811 1812 
1843 1842 1812 1813 1844 1843 1813 1814 1845 
1844 1814 1815 1846 1845 1815 1816 1847 1846 
1816 1817 1848 1847 1817 1818 1849 1848 1818 
1819 1850 1849 1819 1820 1851 1850 1820 1821 
1852 1851 1821 1822 1853 1852 1822 1823 1854 
1853 1823 1824 1855 1854 1824 1825 1856 1855 
1825 1826 1857 1856 1826 1827 1858 1857 1827 
1828 1859 1858 1829 1830 1861 1860 1830 1831 
1862 1861 1831 1832 1863 1862 1832 1833 1864 
1863 1833 1834 1865 1864 1834 1835 1866 1865 
1835 1836 1867 1866 1836 1837 1868 1867 1837 
1838 1869 1868 1838 1839 1870 1869 1839 1840 
1871 1870 1840 1841 1872 1871 1841 1842 1873 
1872 1842 1843 1874 1873 1843 1844 1875 1874 
1844 1845 1876 1875 1845 1846 1877 1876 1846 
1847 1878 1877 1847 1848 1879 1878 1848 1849 
1880 1879 1849 1850 1881 1880 1850 1851 1882 
1881 1851 1852 1883 1882 1852 1853 1884 1883 
1853 1854 1885 1884 1854 1855 1886 1885 1855 
1856 1887 1886 1856 1857 1888 1887 1857 1858 
1889 1888 1858 1859 1890 1889 1860 1861 1892 
1891 1861 1862 1893 1892 1862 1863 1894 1893 
1863 1864 1895 1894 1864 1865 1896 1895 1865 
1866 1897 1896 1866 1867 1898 1897 1867 1868 
1899 1898 1868 1869 1900 1899 1869 1870 1901 
1900 1870 1871 1902 1901 1871 1872 1903 1902 
1872 1873 1904 1903 1873 1874 1905 1904 1874 
1875 1906 1905 1875 1876 1907 1906 1876 1877 
1908 1907 1877 1878 1909 1908 1878 1879 1910 
1909 1879 1880 1911 1910 1880 1881 1912 1911 
1881 1882 1913 1912 1882 1883 1914 1913 1883 
1884 1915 1914 1884 1885 1916 1915 1885 1886 
1917 1916 1886 1887 1918 1917 1887 1888 1919 
1918 1888 1889 1920 1919 1889 1890 1921 1920 
1891 1892 1923 1922 1892 1893 1924 1923 1893 
1894 1925 1924 1894 1895 1926 1925 1895 1896 
1927 1926 1896 1897 1928 1927 1897 1898 1929 
1928 1898 1899 1930 1929 1899 1900 1931 1930 
1900 1901 1932 1931 1901 1902 1933 1932 1902 
1903 1934 1933 1903 1904 1935 1934 1904 1905 
1936 1935 1905 1906 1937 1936 1906 1907 1938 
1937 1907 1908 1939 1938 1908 1909 1940 1939 
1909 1910 1941 1940 1910 1911 1942 1941 1911 
1912 1943 1942 1912 1913 1944 1943 1913 1914 
1945 1944 1914 1915 1946 1945 1915 1916 1947 
1946 1916 1917 1948 1947 1917 1918 1949 1948 
1918 1919 1950 1949 1919 1920 1951 1950 1920 
1921 1952 1951 1922 1923 1954 1953 1923 1924 
1955 1954 1924 1925 1956 1955 1925 1926 1957 
1956 1926 1927 1958 1957 1927 1928 1959 1958 
1928 1929 1960 1959 1929 1930 1961 1960 1930 
1931 1962 1961 1931 1932 1963 1962 1932 1933 
1964 1963 1933 1934 1965 1964 1934 1935 1966 
1965 1935 1936 1967 1966 1936 1937 1968 1967 
1937 1938 1969 1968 1938 1939 1970 1969 1939 
1940 1971 1970 1940 1941 1972 1971 1941 1942 
1973 1972 1942 1943 1974 1973 1943 1944 1975 
1974 1944 1945 1976 1975 1945 1946 1977 1976 
1946 1947 1978 1977 1947 1948 1979 1978 1948 
1949 1980 1979 1949 1950 1981 1980 1950 1951 
1982 1981 1951 1952 1983 1982 1953 1954 1985 
1984 1954 1955 1986 1985 1955 1956 1987 1986 
1956 1957 1988 1987 1957 1958 1989 1988 1958 
1959 1990 1989 1959 1960 1991 1990 1960 1961 
1992 1991 1961 1962 1993 1992 1962 1963 1994 
1993 1963 1964 1995 1994 1964 1965 1996 1995 
1965 1966 1997 1996 1966 1967 1998 1997 1967 
1968 1999 1998 1968 1969 2000 1999 1969 1970 
2001 2000 1970 1971 2002 2001 1971 1972 2003 
2002 1972 1973 2004 2003 1973 1974 2005 2004 
1974 1975 2006 2005 1975 1976 2007 2006 1976 
1977 2008 2007 1977 1978 2009 2008 1978 1979 
2010 2009 1979 1980 2011 2010 1980 1981 2012 
2011 1981 1982 2013 2012 1982 1983 2014 2013 
1984 1985 2016 2015 1985 1986 2017 2016 1986 
1987 2018 2017 1987 1988 2019 2018 1988 1989 
2020 2019 1989 1990 2021 2020 1990 1991 2022 
2021 1991 1992 2023 2022 1992 1993 2024 2023 
1993 1994 2025 2024 1994 1995 2026 2025 1995 
1996 2027 2026 1996 1997 2028 2027 1997 1998 
2029 2028 1998 1999 2030 2029 1999 2000 2031 
2030 2000 2001 2032 2031 2001 2002 2033 2032 
2002 2003 2034 2033 2003 2004 2035 2034 2004 
2005 2036 2035 2005 2006 2037 2036 2006 2007 
2038 2037 2007 2008 2039 2038 2008 2009 2040 
2039 2009 2010 2041 2040 2010 2011 2042 2041 
2011 2012 2043 2042 2012 2013 2044 2043 2013 
2014 2045 2044 2015 2016 2047 2046 2016 2017 
2048 2047 2017 2018 2049 2048 2018 2019 2050 
2049 2019 2020 2051 2050 2020 2021 2052 2051 
2021 2022 2053 2052 2022 2023 2054 2053 2023 
2024 2055 2054 2024 2025 2056 2055 2025 2026 
2057 2056 2026 2027 2058 2057 2027 2028 2059 
2058 2028 2029 2060 2059 2029 2030 2061 2060 
2030 2031 2062 2061 2031 2032 2063 2062 2032 
2033 2064 2063 2033 2034 2065 2064 2034 2035 
2066 2065 2035 2036 2067 2066 2036 2037 2068 
2067 2037 2038 2069 2068 2038 2039 2070 2069 
2039 2040 2071 2070 2040 2041 2072 2071 2041 
2042 2073 2072 2042 2043 2074 2073 2043 2044 
2075 2074 2044 2045 2076 2075 2046 2047 2078 
2077 2047 2048 2079 2078 2048 2049 2080 2079 
2049 2050 2081 2080 2050 2051 2082 2081 2051 
2052 2083 2082 2052 2053 2084 2083 2053 2054 
2085 2084 2054 2055 2086 2085 2055 2056 2087 
2086 2056 2057 2088 2087 2057 2058 2089 2088 
2058 2059 2090 2089 2059 2060 2091 2090 2060 
2061 2092 2091 2061 2062 2093 2092 2062 2063 
2094 2093 2063 2064 2095 2094 2064 2065 2096 
2095 2065 2066 2097 2096 2066 2067 2098 2097 
2067 2068 2099 2098 2068 2069 2100 2099 2069 
2070 2101 2100 2070 2071 2102 2101 2071 2072 
2103 2102 2072 2073 2104 2103 2073 2074 2105 
2104 2074 2075 2106 2105 2075 2076 2107 2106 
2077 2078 2109 2108 2078 2079 2110 2109 2079 
2080 2111 2110 2080 2081 2112 2111 2081 2082 
2113 2112 2082 2083 2114 2113 2083 2084 2115 
2114 2084 2085 2116 2115 2085 2086 2117 2116 
2086 2087 2118 2117 2087 2088 2119 2118 2088 
2089 2120 2119 2089 2090 2121 2120 2090 2091 
2122 2121 2091 2092 2123 2122 2092 2093 2124 
2123 2093 2094 2125 2124 2094 2095 2126 2125 
2095 2096 2127 2126 2096 2097 2128 2127 2097 
2098 2129 2128 2098 2099 2130 2129 2099 2100 
2131 2130 2100 2101 2132 2131 2101 2102 2133 
2132 2102 2103 2134 2133 2103 2104 2135 2134 
2104 2105 2136 2135 2105 2106 2137 2136 2106 
2107 2138 2137 2108 2109 2140 2139 2109 2110 
2141 2140 2110 2111 2142 2141 2111 2112 2143 
2142 2112 2113 2144 2143 2113 2114 2145 2144 
2114 2115 2146 2145 2115 2116 2147 2146 2116 
2117 2148 2147 2117 2118 2149 2148 2118 2119 
2150 2149 2119 2120 2151 2150 2120 2121 2152 
2151 2121 2122 2153 2152 2122 2123 2154 2153 
2123 2124 2155 2154 2124 2125 2156 2155 2125 
2126 2157 2156 2126 2127 2158 2157 2127 2128 
2159 2158 2128 2129 2160 2159 2129 2130 2161 
2160 2130 2131 2162 2161 2131 2132 2163 2162 
2132 2133 2164 2163 2133 2134 2165 2164 2134 
2135 2166 2165 2135 2136 2167 2166 2136 2137 
2168 2167 2137 2138 2169 2168 2139 2140 2171 
2170 2140 2141 2172 2171 2141 2142 2173 2172 
2142 2143 2174 2173 2143 2144 2175 2174 2144 
2145 2176 2175 2145 2146 2177 2176 2146 2147 
2178 2177 2147 2148 2179 2178 2148 2149 2180 
2179 2149 2150 2181 2180 2150 2151 2182 2181 
2151 2152 2183 2182 2152 2153 2184 2183 2153 
2154 2185 2184 2154 2155 2186 2185 2155 2156 
2187 2186 2156 2157 2188 2187 2157 2158 2189 
2188 2158 2159 2190 2189 2159 2160 2191 2190 
2160 2161 2192 2191 2161 2162 2193 2192 2162 
2163 2194 2193 2163 2164 2195 2194 2164 2165 
2196 2195 2165 2166 2197 2196 2166 2167 2198 
2197 2167 2168 2199 2198 2168 2169 2200 2199 
2170 2171 2202 2201 2171 2172 2203 2202 2172 
2173 2204 2203 2173 2174 2205 2204 2174 2175 
2206 2205 2175 2176 2207 2206 2176 2177 2208 
2207 2177 2178 2209 2208 2178 2179 2210 2209 
2179 2180 2211 2210 2180 2181 2212 2211 2181 
2182 2213 2212 2182 2183 2214 2213 2183 2184 
2215 2214 2184 2185 2216 2215 2185 2186 2217 
2216 2186 2187 2218 2217 2187 2188 2219 2218 
2188 2189 2220 2219 2189 2190 2221 2220 2190 
2191 2222 2221 2191 2192 2223 2222 2192 2193 
2224 2223 2193 2194 2225 2224 2194 2195 2226 
2225 2195 2196 2227 2226 2196 2197 2228 2227 
2197 2198 2229 2228 2198 2199 2230 2229 2199 
2200 2231 2230 2201 2202 2233 2232 2202 2203 
2234 2233 2203 2204 2235 2234 2204 2205 2236 
2235 2205 2206 2237 2236 2206 2207 2238 2237 
2207 2208 2239 2238 2208 2209 2240 2239 2209 
2210 2241 2240 2210 2211 2242 2241 2211 2212 
2243 2242 2212 2213 2244 2243 2213 2214 2245 
2244 2214 2215 2246 2245 2215 2216 2247 2246 
2216 2217 2248 2247 2217 2218 2249 2248 2218 
2219 2250 2249 2219 2220 2251 2250 2220 2221 
2252 2251 2221 2222 2253 2252 2222 2223 2254 
2253 2223 2224 2255 2254 2224 2225 2256 2255 
2225 2226 2257 2256 2226 2227 2258 2257 2227 
2228 2259 2258 2228 2229 2260 2259 2229 2230 
2261 2260 2230 2231 2262 2261 2232 2233 2264 
2263 2233 2234 2265 2264 2234 2235 2266 2265 
2235 2236 2267 2266 2236 2237 2268 2267 2237 
2238 2269 2268 2238 2239 2270 2269 2239 2240 
2271 2270 2240 2241 2272 2271 2241 2242 2273 
2272 2242 2243 2274 2273 2243 2244 2275 2274 
2244 2245 2276 2275 2245 2246 2277 2276 2246 
2247 2278 2277 2247 2248 2279 2278 2248 2249 
2280 2279 2249 2250 2281 2280 2250 2251 2282 
2281 2251 2252 2283 2282 2252 2253 2284 2283 
2253 2254 2285 2284 2254 2255 2286 2285 2255 
2256 2287 2286 2256 2257 2288 2287 2257 2258 
2289 2288 2258 2259 2290 2289 2259 2260 2291 
2290 2260 2261 2292 2291 2261 2262 2293 2292 
2263 2264 2295 2294 2264 2265 2296 2295 2265 
2266 2297 2296 2266 2267 2298 2297 2267 2268 
2299 2298 2268 2269 2300 2299 2269 2270 2301 
2300 2270 2271 2302 2301 2271 2272 2303 2302 
2272 2273 2304 2303 2273 2274 2305 2304 2274 
2275 2306 2305 2275 2276 2307 2306 2276 2277 
2308 2307 2277 2278 2309 2308 2278 2279 2310 
2309 2279 2280 2311 2310 2280 2281 2312 2311 
2281 2282 2313 2312 2282 2283 2314 2313 2283 
2284 2315 2314 2284 2285 2316 2315 2285 2286 
2317 2316 2286 2287 2318 2317 2287 2288 2319 
2318 2288 2289 2320 2319 2289 2290 2321 2320 
2290 2291 2322 2321 2291 2292 2323 2322 2292 
2293 2324 2323 2294 2295 2326 2325 2295 2296 
2327 2326 2296 2297 2328 2327 2297 2298 2329 
2328 2298 2299 2330 2329 2299 2300 2331 2330 
2300 2301 2332 2331 2301 2302 2333 2332 2302 
2303 2334 2333 2303 2304 2335 2334 2304 2305 
2336 2335 2305 2306 2337 2336 2306 2307 2338 
2337 2307 2308 2339 2338 2308 2309 2340 2339 
2309 2310 2341 2340 2310 2311 2342 2341 2311 
2312 2343 2342 2312 2313 2344 2343 2313 2314 
2345 2344 2314 2315 2346 2345 2315 2316 2347 
2346 2316 2317 2348 2347 2317 2318 2349 2348 
2318 2319 2350 2349 2319 2320 2351 2350 2320 
2321 2352 2351 2321 2322 2353 2352 2322 2323 
2354 2353 2323 2324 2355 2354 2325 2326 2357 
2356 2326 2327 2358 2357 2327 2328 2359 2358 
2328 2329 2360 2359 2329 2330 2361 2360 2330 
2331 2362 2361 2331 2332 2363 2362 2332 2333 
2364 2363 2333 2334 2365 2364 2334 2335 2366 
2365 2335 2336 2367 2366 2336 2337 2368 2367 
2337 2338 2369 2368 2338 2339 2370 2369 2339 
2340 2371 2370 2340 2341 2372 2371 2341 2342 
2373 2372 2342 2343 2374 2373 2343 2344 2375 
2374 2344 2345 2376 2375 2345 2346 2377 2376 
2346 2347 2378 2377 2347 2348 2379 2378 2348 
2349 2380 2379 2349 2350 2381 2380 2350 2351 
2382 2381 2351 2352 2383 2382 2352 2353 2384 
2383 2353 2354 2385 2384 2354 2355 2386 2385 
2356 2357 2388 2387 2357 2358 2389 2388 2358 
2359 2390 2389 2359 2360 2391 2390 2360 2361 
2392 2391 2361 2362 2393 2392 2362 2363 2394 
2393 2363 2364 2395 2394 2364 2365 2396 2395 
2365 2366 2397 2396 2366 2367 2398 2397 2367 
2368 2399 2398 2368 2369 2400 2399 2369 2370 
2401 2400 2370 2371 2402 2401 2371 2372 2403 
2402 2372 2373 2404 2403 2373 2374 2405 2404 
2374 2375 2406 2405 2375 2376 2407 2406 2376 
2377 2408 2407 2377 2378 2409 2408 2378 2379 
2410 2409 2379 2380 2411 2410 2380 2381 2412 
2411 2381 2382 2413 2412 2382 2383 2414 2413 
2383 2384 2415 2414 2384 2385 2416 2415 2385 
2386 2417 2416 2387 2388 2419 2418 2388 2389 
2420 2419 2389 2390 2421 2420 2390 2391 2422 
2421 2391 2392 2423 2422 2392 2393 2424 2423 
2393 2394 2425 2424 2394 2395 2426 2425 2395 
2396 2427 2426 2396 2397 2428 2427 2397 2398 
2429 2428 2398 2399 2430 2429 2399 2400 2431 
2430 2400 2401 2432 2431 2401 2402 2433 2432 
2402 2403 2434 2433 2403 2404 2435 2434 2404 
2405 2436 2435 2405 2406 2437 2436 2406 2407 
2438 2437 2407 2408 2439 2438 2408 2409 2440 
2439 2409 2410 2441 2440 2410 2411 2442 2441 
2411 2412 2443 2442 2412 2413 2444 2443 2413 
2414 2445 2444 2414 2415 2446 2445 2415 2416 
2447 2446 2416 2417 2448 2447 2418 2419 2450 
2449 2419 2420 2451 2450 2420 2421 2452 2451 
2421 2422 2453 2452 2422 2423 2454 2453 2423 
2424 2455 2454 2424 2425 2456 2455 2425 2426 
2457 2456 2426 2427 2458 2457 2427 2428 2459 
2458 2428 2429 2460 2459 2429 2430 2461 2460 
2430 2431 2462 2461 2431 2432 2463 2462 2432 
2433 2464 2463 2433 2434 2465 2464 2434 2435 
2466 2465 2435 2436 2467 2466 2436 2437 2468 
2467 2437 2438 2469 2468 2438 2439 2470 2469 
2439 2440 2471 2470 2440 2441 2472 2471 2441 
2442 2473 2472 2442 2443 2474 2473 2443 2444 
2475 2474 2444 2445 2476 2475 2445 2446 2477 
2476 2446 2447 2478 2477 2447 2448 2479 2478 
2449 2450 2481 2480 2450 2451 2482 2481 2451 
2452 2483 2482 2452 2453 2484 2483 2453 2454 
2485 2484 2454 2455 2486 2485 2455 2456 2487 
2486 2456 2457 2488 2487 2457 2458 2489 2488 
2458 2459 2490 2489 2459 2460 2491 2490 2460 
2461 2492 2491 2461 2462 2493 2492 2462 2463 
2494 2493 2463 2464 2495 2494 2464 2465 2496 
2495 2465 2466 2497 2496 2466 2467 2498 2497 
2467 2468 2499 2498 2468 2469 2500 2499 2469 
2470 2501 2500 2470 2471 2502 2501 2471 2472 
2503 2502 2472 2473 2504 2503 2473 2474 2505 
2504 2474 2475 2506 2505 2475 2476 2507 2506 
2476 2477 2508 2507 2477 2478 2509 2508 2478 
2479 2510 2509 2480 2481 2512 2511 2481 2482 
2513 2512 2482 2483 2514 2513 2483 2484 2515 
2514 2484 2485 2516 2515 2485 2486 2517 2516 
2486 2487 2518 2517 2487 2488 2519 2518 2488 
2489 2520 2519 2489 2490 2521 2520 2490 2491 
2522 2521 2491 2492 2523 2522 2492 2493 2524 
2523 2493 2494 2525 2524 2494 2495 2526 2525 
2495 2496 2527 2526 2496 2497 2528 2527 2497 
2498 2529 2528 2498 2499 2530 2529 2499 2500 
2531 2530 2500 2501 2532 2531 2501 2502 2533 
2532 2502 2503 2534 2533 2503 2504 2535 2534 
2504 2505 2536 2535 2505 2506 2537 2536 2506 
2507 2538 2537 2507 2508 2539 2538 2508 2509 
2540 2539 2509 2510 2541 2540 2511 2512 2543 
2542 2512 2513 2544 2543 2513 2514 2545 2544 
2514 2515 2546 2545 2515 2516 2547 2546 2516 
2517 2548 2547 2517 2518 2549 2548 2518 2519 
2550 2549 2519 2520 2551 2550 2520 2521 2552 
2551 2521 2522 2553 2552 2522 2523 2554 2553 
2523 2524 2555 2554 2524 2525 2556 2555 2525 
2526 2557 2556 2526 2527 2558 2557 2527 2528 
2559 2558 2528 2529 2560 2559 2529 2530 2561 
2560 2530 2531 2562 2561 2531 2532 2563 2562 
2532 2533 2564 2563 2533 2534 2565 2564 2534 
2535 2566 2565 2535 2536 2567 2566 2536 2537 
2568 2567 2537 2538 2569 2568 2538 2539 2570 
2569 2539 2540 2571 2570 2540 2541 2572 2571 
2542 2543 2574 2573 2543 2544 2575 2574 2544 
2545 2576 2575 2545 2546 2577 2576 2546 2547 
2578 2577 2547 2548 2579 2578 2548 2549 2580 
2579 2549 2550 2581 2580 2550 2551 2582 2581 
2551 2552 2583 2582 2552 2553 2584 2583 2553 
2554 2585 2584 2554 2555 2586 2585 2555 2556 
2587 2586 2556 2557 2588 2587 2557 2558 2589 
2588 2558 2559 2590 2589 2559 2560 2591 2590 
2560 2561 2592 2591 2561 2562 2593 2592 2562 
2563 2594 2593 2563 2564 2595 2594 2564 2565 
2596 2595 2565 2566 2597 2596 2566 2567 2598 
2597 2567 2568 2599 2598 2568 2569 2600 2599 
2569 2570 2601 2600 2570 2571 2602 2601 2571 
2572 2603 2602 2573 2574 2605 2604 2574 2575 
2606 2605 2575 2576 2607 2606 2576 2577 2608 
2607 2577 2578 2609 2608 2578 2579 2610 2609 
2579 2580 2611 2610 2580 2581 2612 2611 2581 
2582 2613 2612 2582 2583 2614 2613 2583 2584 
2615 2614 2584 2585 2616 2615 2585 2586 2617 
2616 2586 2587 2618 2617 2587 2588 2619 2618 
2588 2589 2620 2619 2589 2590 2621 2620 2590 
2591 2622 2621 2591 2592 2623 2622 2592 2593 
2624 2623 2593 2594 2625 2624 2594 2595 2626 
2625 2595 2596 2627 2626 2596 2597 2628 2627 
2597 2598 2629 2628 2598 2599 2630 2629 2599 
2600 2631 2630 2600 2601 2632 2631 2601 2602 
2633 2632 2602 2603 2634 2633 2604 2605 2636 
2635 2605 2606 2637 2636 2606 2607 2638 2637 
2607 2608 2639 2638 2608 2609 2640 2639 2609 
2610 2641 2640 2610 2611 2642 2641 2611 2612 
2643 2642 2612 2613 2644 2643 2613 2614 2645 
2644 2614 2615 2646 2645 2615 2616 2647 2646 
2616 2617 2648 2647 2617 2618 2649 2648 2618 
2619 2650 2649 2619 2620 2651 2650 2620 2621 
2652 2651 2621 2622 2653 2652 2622 2623 2654 
2653 2623 2624 2655 2654 2624 2625 2656 2655 
2625 2626 2657 2656 2626 2627 2658 2657 2627 
2628 2659 2658 2628 2629 2660 2659 2629 2630 
2661 2660 2630 2631 2662 2661 2631 2632 2663 
2662 2632 2633 2664 2663 2633 2634 2665 2664 
2635 2636 2667 2666 2636 2637 2668 2667 2637 
2638 2669 2668 2638 2639 2670 2669 2639 2640 
2671 2670 2640 2641 2672 2671 2641 2642 2673 
2672 2642 2643 2674 2673 2643 2644 2675 2674 
2644 2645 2676 2675 2645 2646 2677 2676 2646 
2647 2678 2677 2647 2648 2679 2678 2648 2649 
2680 2679 2649 2650 2681 2680 2650 2651 2682 
2681 2651 2652 2683 2682 2652 2653 2684 2683 
2653 2654 2685 2684 2654 2655 2686 2685 2655 
2656 2687 2686 2656 2657 2688 2687 2657 2658 
2689 2688 2658 2659 2690 2689 2659 2660 2691 
2690 2660 2661 2692 2691 2661 2662 2693 2692 
2662 2663 2694 2693 2663 2664 2695 2694 2664 
2665 2696 2695 2666 2667 2698 2697 2667 2668 
2699 2698 2668 2669 2700 2699 2669 2670 2701 
2700 2670 2671 2702 2701 2671 2672 2703 2702 
2672 2673 2704 2703 2673 2674 2705 2704 2674 
2675 2706 2705 2675 2676 2707 2706 2676 2677 
2708 2707 2677 2678 2709 2708 2678 2679 2710 
2709 2679 2680 2711 2710 2680 2681 2712 2711 
2681 2682 2713 2712 2682 2683 2714 2713 2683 
2684 2715 2714 2684 2685 2716 2715 2685 2686 
2717 2716 2686 2687 2718 2717 2687 2688 2719 
2718 2688 2689 2720 2719 2689 2690 2721 2720 
2690 2691 2722 2721 2691 2692 2723 2722 2692 
2693 2724 2723 2693 2694 2725 2724 2694 2695 
2726 2725 2695 2696 2727 2726 2697 2698 2729 
2728 2698 2699 2730 2729 2699 2700 2731 2730 
2700 2701 2732 2731 2701 2702 2733 2732 2702 
2703 2734 2733 2703 2704 2735 2734 2704 2705 
2736 2735 2705 2706 2737 2736 2706 2707 2738 
2737 2707 2708 2739 2738 2708 2709 2740 2739 
2709 2710 2741 2740 2710 2711 2742 2741 2711 
2712 2743 2742 2712 2713 2744 2743 2713 2714 
2745 2744 2714 2715 2746 2745 2715 2716 2747 
2746 2716 2717 2748 2747 2717 2718 2749 2748 
2718 2719 2750 2749 2719 2720 2751 2750 2720 
2721 2752 2751 2721 2722 2753 2752 2722 2723 
2754 2753 2723 2724 2755 2754 2724 2725 2756 
2755 2725 2726 2757 2756 2726 2727 2758 2757 
2728 2729 2760 2759 2729 2730 2761 2760 2730 
2731 2762 2761 2731 2732 2763 2762 2732 2733 
2764 2763 2733 2734 2765 2764 2734 2735 2766 
2765 2735 2736 2767 2766 2736 2737 2768 2767 
2737 2738 2769 2768 2738 2739 2770 2769 2739 
2740 2771 2770 2740 2741 2772 2771 2741 2742 
2773 2772 2742 2743 2774 2773 2743 2744 2775 
2774 2744 2745 2776 2775 2745 2746 2777 2776 
2746 2747 2778 2777 2747 2748 2779 2778 2748 
2749 2780 2779 2749 2750 2781 2780 2750 2751 
2782 2781 2751 2752 2783 2782 2752 2753 2784 
2783 2753 2754 2785 2784 2754 2755 2786 2785 
2755 2756 2787 2786 2756 2757 2788 2787 2757 
2758 2789 2788 2759 2760 2791 2790 2760 2761 
2792 2791 2761 2762 2793 2792 2762 2763 2794 
2793 2763 2764 2795 2794 2764 2765 2796 2795 
2765 2766 2797 2796 2766 2767 2798 2797 2767 
2768 2799 2798 2768 2769 2800 2799 2769 2770 
2801 2800 2770 2771 2802 2801 2771 2772 2803 
2802 2772 2773 2804 2803 2773 2774 2805 2804 
2774 2775 2806 2805 2775 2776 2807 2806 2776 
2777 2808 2807 2777 2778 2809 2808 2778 2779 
2810 2809 2779 2780 2811 2810 2780 2781 2812 
2811 2781 2782 2813 2812 2782 2783 2814 2813 
2783 2784 2815 2814 2784 2785 2816 2815 2785 
2786 2817 2816 2786 2787 2818 2817 2787 2788 
2819 2818 2788 2789 2820 2819 2790 2791 2822 
2821 2791 2792 2823 2822 2792 2793 2824 2823 
2793 2794 2825 2824 2794 2795 2826 2825 2795 
2796 2827 2826 2796 2797 2828 2827 2797 2798 
2829 2828 2798 2799 2830 2829 2799 2800 2831 
2830 2800 2801 2832 2831 2801 2802 2833 2832 
2802 2803 2834 2833 2803 2804 2835 2834 2804 
2805 2836 2835 2805 2806 2837 2836 2806 2807 
2838 2837 2807 2808 2839 2838 2808 2809 2840 
2839 2809 2810 2841 2840 2810 2811 2842 2841 
2811 2812 2843 2842 2812 2813 2844 2843 2813 
2814 2845 2844 2814 2815 2846 2845 2815 2816 
2847 2846 2816 2817 2848 2847 2817 2818 2849 
2848 2818 2819 2850 2849 2819 2820 2851 2850 
2821 2822 2853 2852 2822 2823 2854 2853 2823 
2824 2855 2854 2824 2825 2856 2855 2825 2826 
2857 2856 2826 2827 2858 2857 2827 2828 2859 
2858 2828 2829 2860 2859 2829 2830 2861 2860 
2830 2831 2862 2861 2831 2832 2863 2862 2832 
2833 2864 2863 2833 2834 2865 2864 2834 2835 
2866 2865 2835 2836 2867 2866 2836 2837 2868 
2867 2837 2838 2869 2868 2838 2839 2870 2869 
2839 2840 2871 2870 2840 2841 2872 2871 2841 
2842 2873 2872 2842 2843 2874 2873 2843 2844 
2875 2874 2844 2845 2876 2875 2845 2846 2877 
2876 2846 2847 2878 2877 2847 2848 2879 2878 
2848 2849 2880 2879 2849 2850 2881 2880 2850 
2851 2882 2881 2852 2853 2884 2883 2853 2854 
2885 2884 2854 2855 2886 2885 2855 2856 2887 
2886 2856 2857 2888 2887 2857 2858 2889 2888 
2858 2859 2890 2889 2859 2860 2891 2890 2860 
2861 2892 2891 2861 2862 2893 2892 2862 2863 
2894 2893 2863 2864 2895 2894 2864 2865 2896 
2895 2865 2866 2897 2896 2866 2867 2898 2897 
2867 2868 2899 2898 2868 2869 2900 2899 2869 
2870 2901 2900 2870 2871 2902 2901 2871 2872 
2903 2902 2872 2873 2904 2903 2873 2874 2905 
2904 2874 2875 2906 2905 2875 2876 2907 2906 
2876 2877 2908 2907 2877 2878 2909 2908 2878 
2879 2910 2909 2879 2880 2911 2910 2880 2881 
2912 2911 2881 2882 2913 2912 2883 2884 2915 
2914 2884 2885 2916 2915 2885 2886 2917 2916 
2886 2887 2918 2917 2887 2888 2919 2918 2888 
2889 2920 2919 2889 2890 2921 2920 2890 2891 
2922 2921 2891 2892 2923 2922 2892 2893 2924 
2923 2893 2894 2925 2924 2894 2895 2926 2925 
2895 2896 2927 2926 2896 2897 2928 2927 2897 
2898 2929 2928 2898 2899 2930 2929 2899 2900 
2931 2930 2900 2901 2932 2931 2901 2902 2933 
2932 2902 2903 2934 2933 2903 2904 2935 2934 
2904 2905 2936 2935 2905 2906 2937 2936 2906 
2907 2938 2937 2907 2908 2939 2938 2908 2909 
2940 2939 2909 2910 2941 2940 2910 2911 2942 
2941 2911 2912 2943 2942 2912 2913 2944 2943 
2914 2915 2946 2945 2915 2916 2947 2946 2916 
2917 2948 2947 2917 2918 2949 2948 2918 2919 
2950 2949 2919 2920 2951 2950 2920 2921 2952 
2951 2921 2922 2953 2952 2922 2923 2954 2953 
2923 2924 2955 2954 2924 2925 2956 2955 2925 
2926 2957 2956 2926 2927 2958 2957 2927 2928 
2959 2958 2928 2929 2960 2959 2929 2930 2961 
2960 2930 2931 2962 2961 2931 2932 2963 2962 
2932 2933 2964 2963 2933 2934 2965 2964 2934 
2935 2966 2965 2935 2936 2967 2966 2936 2937 
2968 2967 2937 2938 2969 2968 2938 2939 2970 
2969 2939 2940 2971 2970 2940 2941 2972 2971 
2941 2942 2973 2972 2942 2943 2974 2973 2943 
2944 2975 2974 2945 2946 2977 2976 2946 2947 
2978 2977 2947 2948 2979 2978 2948 2949 2980 
2979 2949 2950 2981 2980 2950 2951 2982 2981 
2951 2952 2983 2982 2952 2953 2984 2983 2953 
2954 2985 2984 2954 2955 2986 2985 2955 2956 
2987 2986 2956 2957 2988 2987 2957 2958 2989 
2988 2958 2959 2990 2989 2959 2960 2991 2990 
2960 2961 2992 2991 2961 2962 2993 2992 2962 
2963 2994 2993 2963 2964 2995 2994 2964 2965 
2996 2995 2965 2966 2997 2996 2966 2967 2998 
2997 2967 2968 2999 2998 2968 2969 3000 2999 
2969 2970 3001 3000 2970 2971 3002 3001 2971 
2972 3003 3002 2972 2973 3004 3003 2973 2974 
3005 3004 2974 2975 3006 3005 2976 2977 3008 
3007 2977 2978 3009 3008 2978 2979 3010 3009 
2979 2980 3011 3010 2980 2981 3012 3011 2981 
2982 3013 3012 2982 2983 3014 3013 2983 2984 
3015 3014 2984 2985 3016 3015 2985 2986 3017 
3016 2986 2987 3018 3017 2987 2988 3019 3018 
2988 2989 3020 3019 2989 2990 3021 3020 2990 
2991 3022 3021 2991 2992 3023 3022 2992 2993 
3024 3023 2993 2994 3025 3024 2994 2995 3026 
3025 2995 2996 3027 3026 2996 2997 3028 3027 
2997 2998 3029 3028 2998 2999 3030 3029 2999 
3000 3031 3030 3000 3001 3032 3031 3001 3002 
3033 3032 3002 3003 3034 3033 3003 3004 3035 
3034 3004 3005 3036 3035 3005 3006 3037 3036 
3007 3008 3039 3038 3008 3009 3040 3039 3009 
3010 3041 3040 3010 3011 3042 3041 3011 3012 
3043 3042 3012 3013 3044 3043 3013 3014 3045 
3044 3014 3015 3046 3045 3015 3016 3047 3046 
3016 3017 3048 3047 3017 3018 3049 3048 3018 
3019 3050 3049 3019 3020 3051 3050 3020 3021 
3052 3051 3021 3022 3053 3052 3022 3023 3054 
3053 3023 3024 3055 3054 3024 3025 3056 3055 
3025 3026 3057 3056 3026 3027 3058 3057 3027 
3028 3059 3058 3028 3029 3060 3059 3029 3030 
3061 3060 3030 3031 3062 3061 3031 3032 3063 
3062 3032 3033 3064 3063 3033 3034 3065 3064 
3034 3035 3066 3065 3035 3036 3067 3066 3036 
3037 3068 3067 3038 3039 3070 3069 3039 3040 
3071 3070 3040 3041 3072 3071 3041 3042 3073 
3072 3042 3043 3074 3073 3043 3044 3075 3074 
3044 3045 3076 3075 3045 3046 3077 3076 3046 
3047 3078 3077 3047 3048 3079 3078 3048 3049 
3080 3079 3049 3050 3081 3080 3050 3051 3082 
3081 3051 3052 3083 3082 3052 3053 3084 3083 
3053 3054 3085 3084 3054 3055 3086 3085 3055 
3056 3087 3086 3056 3057 3088 3087 3057 3058 
3089 3088 3058 3059 3090 3089 3059 3060 3091 
3090 3060 3061 3092 3091 3061 3062 3093 3092 
3062 3063 3094 3093 3063 3064 3095 3094 3064 
3065 3096 3095 3065 3066 3097 3096 3066 3067 
3098 3097 3067 3068 3099 3098 3069 3070 3101 
3100 3070 3071 3102 3101 3071 3072 3103 3102 
3072 3073 3104 3103 3073 3074 3105 3104 3074 
3075 3106 3105 3075 3076 3107 3106 3076 3077 
3108 3107 3077 3078 3109 3108 3078 3079 3110 
3109 3079 3080 3111 3110 3080 3081 3112 3111 
3081 3082 3113 3112 3082 3083 3114 3113 3083 
3084 3115 3114 3084 3085 3116 3115 3085 3086 
3117 3116 3086 3087 3118 3117 3087 3088 3119 
3118 3088 3089 3120 3119 3089 3090 3121 3120 
3090 3091 3122 3121 3091 3092 3123 3122 3092 
3093 3124 3123 3093 3094 3125 3124 3094 3095 
3126 3125 3095 3096 3127 3126 3096 3097 3128 
3127 3097 3098 3129 3128 3098 3099 3130 3129 
3100 3101 3132 3131 3101 3102 3133 3132 3102 
3103 3134 3133 3103 3104 3135 3134 3104 3105 
3136 3135 3105 3106 3137 3136 3106 3107 3138 
3137 3107 3108 3139 3138 3108 3109 3140 3139 
3109 3110 3141 3140 3110 3111 3142 3141 3111 
3112 3143 3142 3112 3113 3144 3143 3113 3114 
3145 3144 3114 3115 3146 3145 3115 3116 3147 
3146 3116 3117 3148 3147 3117 3118 3149 3148 
3118 3119 3150 3149 3119 3120 3151 3150 3120 
3121 3152 3151 3121 3122 3153 3152 3122 3123 
3154 3153 3123 3124 3155 3154 3124 3125 3156 
3155 3125 3126 3157 3156 3126 3127 3158 3157 
3127 3128 3159 3158 3128 3129 3160 3159 3129 
3130 3161 3160 3131 3132 3163 3162 3132 3133 
3164 3163 3133 3134 3165 3164 3134 3135 3166 
3165 3135 3136 3167 3166 3136 3137 3168 3167 
3137 3138 3169 3168 3138 3139 3170 3169 3139 
3140 3171 3170 3140 3141 3172 3171 3141 3142 
3173 3172 3142 3143 3174 3173 3143 3144 3175 
3174 3144 3145 3176 3175 3145 3146 3177 3176 
3146 3147 3178 3177 3147 3148 3179 3178 3148 
3149 3180 3179 3149 3150 3181 3180 3150 3151 
3182 3181 3151 3152 3183 3182 3152 3153 3184 
3183 3153 3154 3185 3184 3154 3155 3186 3185 
3155 3156 3187 3186 3156 3157 3188 3187 3157 
3158 3189 3188 3158 3159 3190 3189 3159 3160 
3191 3190 3160 3161 3192 3191 3162 3163 3194 
3193 3163 3164 3195 3194 3164 3165 3196 3195 
3165 3166 3197 3196 3166 3167 3198 3197 3167 
3168 3199 3198 3168 3169 3200 3199 3169 3170 
3201 3200 3170 3171 3202 3201 3171 3172 3203 
3202 3172 3173 3204 3203 3173 3174 3205 3204 
3174 3175 3206 3205 3175 3176 3207 3206 3176 
3177 3208 3207 3177 3178 3209 3208 3178 3179 
3210 3209 3179 3180 3211 3210 3180 3181 3212 
3211 3181 3182 3213 3212 3182 3183 3214 3213 
3183 3184 3215 3214 3184 3185 3216 3215 3185 
3186 3217 3216 3186 3187 3218 3217 3187 3188 
3219 3218 3188 3189 3220 3219 3189 3190 3221 
3220 3190 3191 3222 3221 3191 3192 3223 3222 
3193 3194 3225 3224 3194 3195 3226 3225 3195 
3196 3227 3226 3196 3197 3228 3227 3197 3198 
3229 3228 3198 3199 3230 3229 3199 3200 3231 
3230 3200 3201 3232 3231 3201 3202 3233 3232 
3202 3203 3234 3233 3203 3204 3235 3234 3204 
3205 3236 3235 3205 3206 3237 3236 3206 3207 
3238 3237 3207 3208 3239 3238 3208 3209 3240 
3239 3209 3210 3241 3240 3210 3211 3242 3241 
3211 3212 3243 3242 3212 3213 3244 3243 3213 
3214 3245 3244 3214 3215 3246 3245 3215 3216 
3247 3246 3216 3217 3248 3247 3217 3218 3249 
3248 3218 3219 3250 3249 3219 3220 3251 3250 
3220 3221 3252 3251 3221 3222 3253 3252 3222 
3223 3254 3253 3224 3225 3256 3255 3225 3226 
3257 3256 3226 3227 3258 3257 3227 3228 3259 
3258 3228 3229 3260 3259 3229 3230 3261 3260 
3230 3231 3262 3261 3231 3232 3263 3262 3232 
3233 3264 3263 3233 3234 3265 3264 3234 3235 
3266 3265 3235 3236 3267 3266 3236 3237 3268 
3267 3237 3238 3269 3268 3238 3239 3270 3269 
3239 3240 3271 3270 3240 3241 3272 3271 3241 
3242 3273 3272 3242 3243 3274 3273 3243 3244 
3275 3274 3244 3245 3276 3275 3245 3246 3277 
3276 3246 3247 3278 3277 3247 3248 3279 3278 
3248 3249 3280 3279 3249 3250 3281 3280 3250 
3251 3282 3281 3251 3252 3283 3282 3252 3253 
3284 3283 3253 3254 3285 3284 3255 3256 3287 
3286 3256 3257 3288 3287 3257 3258 3289 3288 
3258 3259 3290 3289 3259 3260 3291 3290 3260 
3261 3292 3291 3261 3262 3293 3292 3262 3263 
3294 3293 3263 3264 3295 3294 3264 3265 3296 
3295 3265 3266 3297 3296 3266 3267 3298 3297 
3267 3268 3299 3298 3268 3269 3300 3299 3269 
3270 3301 3300 3270 3271 3302 3301 3271 3272 
3303 3302 3272 3273 3304 3303 3273 3274 3305 
3304 3274 3275 3306 3305 3275 3276 3307 3306 
3276 3277 3308 3307 3277 3278 3309 3308 3278 
3279 3310 3309 3279 3280 3311 3310 3280 3281 
3312 3311 3281 3282 3313 3312 3282 3283 3314 
3313 3283 3284 3315 3314 3284 3285 3316 3315 
3286 3287 3318 3317 3287 3288 3319 3318 3288 
3289 3320 3319 3289 3290 3321 3320 3290 3291 
3322 3321 3291 3292 3323 3322 3292 3293 3324 
3323 3293 3294 3325 3324 3294 3295 3326 3325 
3295 3296 3327 3326 3296 3297 3328 3327 3297 
3298 3329 3328 3298 3299 3330 3329 3299 3300 
3331 3330 3300 3301 3332 3331 3301 3302 3333 
3332 3302 3303 3334 3333 3303 3304 3335 3334 
3304 3305 3336 3335 3305 3306 3337 3336 3306 
3307 3338 3337 3307 3308 3339 3338 3308 3309 
3340 3339 3309 3310 3341 3340 3310 3311 3342 
3341 3311 3312 3343 3342 3312 3313 3344 3343 
3313 3314 3345 3344 3314 3315 3346 3345 3315 
3316 3347 3346 3317 3318 3349 3348 3318 3319 
3350 3349 3319 3320 3351 3350 3320 3321 3352 
3351 3321 3322 3353 3352 3322 3323 3354 3353 
3323 3324 3355 3354 3324 3325 3356 3355 3325 
3326 3357 3356 3326 3327 3358 3357 3327 3328 
3359 3358 3328 3329 3360 3359 3329 3330 3361 
3360 3330 3331 3362 3361 3331 3332 3363 3362 
3332 3333 3364 3363 3333 3334 3365 3364 3334 
3335 3366 3365 3335 3336 3367 3366 3336 3337 
3368 3367 3337 3338 3369 3368 3338 3339 3370 
3369 3339 3340 3371 3370 3340 3341 3372 3371 
3341 3342 3373 3372 3342 3343 3374 3373 3343 
3344 3375 3374 3344 3345 3376 3375 3345 3346 
3377 3376 3346 3347 3378 3377 3348 3349 3380 
3379 3349 3350 3381 3380 3350 3351 3382 3381 
3351 3352 3383 3382 3352 3353 3384 3383 3353 
3354 3385 3384 3354 3355 3386 3385 3355 3356 
3387 3386 3356 3357 3388 3387 3357 3358 3389 
3388 3358 3359 3390 3389 3359 3360 3391 3390 
3360 3361 3392 3391 3361 3362 3393 3392 3362 
3363 3394 3393 3363 3364 3395 3394 3364 3365 
3396 3395 3365 3366 3397 3396 3366 3367 3398 
3397 3367 3368 3399 3398 3368 3369 3400 3399 
3369 3370 3401 3400 3370 3371 3402 3401 3371 
3372 3403 3402 3372 3373 3404 3403 3373 3374 
3405 3404 3374 3375 3406 3405 3375 3376 3407 
3406 3376 3377 3408 3407 3377 3378 3409 3408 
3379 3380 3411 3410 3380 3381 3412 3411 3381 
3382 3413 3412 3382 3383 3414 3413 3383 3384 
3415 3414 3384 3385 3416 3415 3385 3386 3417 
3416 3386 3387 3418 3417 3387 3388 3419 3418 
3388 3389 3420 3419 3389 3390 3421 3420 3390 
3391 3422 3421 3391 3392 3423 3422 3392 3393 
3424 3423 3393 3394 3425 3424 3394 3395 3426 
3425 3395 3396 3427 3426 3396 3397 3428 3427 
3397 3398 3429 3428 3398 3399 3430 3429 3399 
3400 3431 3430 3400 3401 3432 3431 3401 3402 
3433 3432 3402 3403 3434 3433 3403 3404 3435 
3434 3404 3405 3436 3435 3405 3406 3437 3436 
3406 3407 3438 3437 3407 3408 3439 3438 3408 
3409 3440 3439 3410 3411 3442 3441 3411 3412 
3443 3442 3412 3413 3444 3443 3413 3414 3445 
3444 3414 3415 3446 3445 3415 3416 3447 3446 
3416 3417 3448 3447 3417 3418 3449 3448 3418 
3419 3450 3449 3419 3420 3451 3450 3420 3421 
3452 3451 3421 3422 3453 3452 3422 3423 3454 
3453 3423 3424 3455 3454 3424 3425 3456 3455 
3425 3426 3457 3456 3426 3427 3458 3457 3427 
3428 3459 3458 3428 3429 3460 3459 3429 3430 
3461 3460 3430 3431 3462 3461 3431 3432 3463 
3462 3432 3433 3464 3463 3433 3434 3465 3464 
3434 3435 3466 3465 3435 3436 3467 3466 3436 
3437 3468 3467 3437 3438 3469 3468 3438 3439 
3470 3469 3439 3440 3471 3470 3441 3442 3473 
3472 3442 3443 3474 3473 3443 3444 3475 3474 
3444 3445 3476 3475 3445 3446 3477 3476 3446 
3447 3478 3477 3447 3448 3479 3478 3448 3449 
3480 3479 3449 3450 3481 3480 3450 3451 3482 
3481 3451 3452 3483 3482 3452 3453 3484 3483 
3453 3454 3485 3484 3454 3455 3486 3485 3455 
3456 3487 3486 3456 3457 3488 3487 3457 3458 
3489 3488 3458 3459 3490 3489 3459 3460 3491 
3490 3460 3461 3492 3491 3461 3462 3493 3492 
3462 3463 3494 3493 3463 3464 3495 3494 3464 
3465 3496 3495 3465 3466 3497 3496 3466 3467 
3498 3497 3467 3468 3499 3498 3468 3469 3500 
3499 3469 3470 3501 3500 3470 3471 3502 3501 
3472 3473 3504 3503 3473 3474 3505 3504 3474 
3475 3506 3505 3475 3476 3507 3506 3476 3477 
3508 3507 3477 3478 3509 3508 3478 3479 3510 
3509 3479 3480 3511 3510 3480 3481 3512 3511 
3481 3482 3513 3512 3482 3483 3514 3513 3483 
3484 3515 3514 3484 3485 3516 3515 3485 3486 
3517 3516 3486 3487 3518 3517 3487 3488 3519 
3518 3488 3489 3520 3519 3489 3490 3521 3520 
3490 3491 3522 3521 3491 3492 3523 3522 3492 
3493 3524 3523 3493 3494 3525 3524 3494 3495 
3526 3525 3495 3496 3527 3526 3496 3497 3528 
3527 3497 3498 3529 3528 3498 3499 3530 3529 
3499 3500 3531 3530 3500 3501 3532 3531 3501 
3502 3533 3532 3503 3504 3535 3534 3504 3505 
3536 3535 3505 3506 3537 3536 3506 3507 3538 
3537 3507 3508 3539 3538 3508 3509 3540 3539 
3509 3510 3541 3540 3510 3511 3542 3541 3511 
3512 3543 3542 3512 3513 3544 3543 3513 3514 
3545 3544 3514 3515 3546 3545 3515 3516 3547 
3546 3516 3517 3548 3547 3517 3518 3549 3548 
3518 3519 3550 3549 3519 3520 3551 3550 3520 
3521 3552 3551 3521 3522 3553 3552 3522 3523 
3554 3553 3523 3524 3555 3554 3524 3525 3556 
3555 3525 3526 3557 3556 3526 3527 3558 3557 
3527 3528 3559 3558 3528 3529 3560 3559 3529 
3530 3561 3560 3530 3531 3562 3561 3531 3532 
3563 3562 3532 3533 3564 3563 3534 3535 3566 
3565 3535 3536 3567 3566 3536 3537 3568 3567 
3537 3538 3569 3568 3538 3539 3570 3569 3539 
3540 3571 3570 3540 3541 3572 3571 3541 3542 
3573 3572 3542 3543 3574 3573 3543 3544 3575 
3574 3544 3545 3576 3575 3545 3546 3577 3576 
3546 3547 3578 3577 3547 3548 3579 3578 3548 
3549 3580 3579 3549 3550 3581 3580 3550 3551 
3582 3581 3551 3552 3583 3582 3552 3553 3584 
3583 3553 3554 3585 3584 3554 3555 3586 3585 
3555 3556 3587 3586 3556 3557 3588 3587 3557 
3558 3589 3588 3558 3559 3590 3589 3559 3560 
3591 3590 3560 3561 3592 3591 3561 3562 3593 
3592 3562 3563 3594 3593 3563 3564 3595 3594 
3565 3566 3597 3596 3566 3567 3598 3597 3567 
3568 3599 3598 3568 3569 3600 3599 3569 3570 
3601 3600 3570 3571 3602 3601 3571 3572 3603 
3602 3572 3573 3604 3603 3573 3574 3605 3604 
3574 3575 3606 3605 3575 3576 3607 3606 3576 
3577 3608 3607 3577 3578 3609 3608 3578 3579 
3610 3609 3579 3580 3611 3610 3580 3581 3612 
3611 3581 3582 3613 3612 3582 3583 3614 3613 
3583 3584 3615 3614 3584 3585 3616 3615 3585 
3586 3617 3616 3586 3587 3618 3617 3587 3588 
3619 3618 3588 3589 3620 3619 3589 3590 3621 
3620 3590 3591 3622 3621 3591 3592 3623 3622 
3592 3593 3624 3623 3593 3594 3625 3624 3594 
3595 3626 3625 3596 3597 3628 3627 3597 3598 
3629 3628 3598 3599 3630 3629 3599 3600 3631 
3630 3600 3601 3632 3631 3601 3602 3633 3632 
3602 3603 3634 3633 3603 3604 3635 3634 3604 
3605 3636 3635 3605 3606 3637 3636 3606 3607 
3638 3637 3607 3608 3639 3638 3608 3609 3640 
3639 3609 3610 3641 3640 3610 3611 3642 3641 
3611 3612 3643 3642 3612 3613 3644 3643 3613 
3614 3645 3644 3614 3615 3646 3645 3615 3616 
3647 3646 3616 3617 3648 3647 3617 3618 3649 
3648 3618 3619 3650 3649 3619 3620 3651 3650 
3620 3621 3652 3651 3621 3622 3653 3652 3622 
3623 3654 3653 3623 3624 3655 3654 3624 3625 
3656 3655 3625 3626 3657 3656 3627 3628 3659 
3658 3628 3629 3660 3659 3629 3630 3661 3660 
3630 3631 3662 3661 3631 3632 3663 3662 3632 
3633 3664 3663 3633 3634 3665 3664 3634 3635 
3666 3665 3635 3636 3667 3666 3636 3637 3668 
3667 3637 3638 3669 3668 3638 3639 3670 3669 
3639 3640 3671 3670 3640 3641 3672 3671 3641 
3642 3673 3672 3642 3643 3674 3673 3643 3644 
3675 3674 3644 3645 3676 3675 3645 3646 3677 
3676 3646 3647 3678 3677 3647 3648 3679 3678 
3648 3649 3680 3679 3649 3650 3681 3680 3650 
3651 3682 3681 3651 3652 3683 3682 3652 3653 
3684 3683 3653 3654 3685 3684 3654 3655 3686 
3685 3655 3656 3687 3686 3656 3657 3688 3687 
3658 3659 3690 3689 3659 3660 3691 3690 3660 
3661 3692 3691 3661 3662 3693 3692 3662 3663 
3694 3693 3663 3664 3695 3694 3664 3665 3696 
3695 3665 3666 3697 3696 3666 3667 3698 3697 
3667 3668 3699 3698 3668 3669 3700 3699 3669 
3670 3701 3700 3670 3671 3702 3701 3671 3672 
3703 3702 3672 3673 3704 3703 3673 3674 3705 
3704 3674 3675 3706 3705 3675 3676 3707 3706 
3676 3677 3708 3707 3677 3678 3709 3708 3678 
3679 3710 3709 3679 3680 3711 3710 3680 3681 
3712 3711 3681 3682 3713 3712 3682 3683 3714 
3713 3683 3684 3715 3714 3684 3685 3716 3715 
3685 3686 3717 3716 3686 3687 3718 3717 3687 
3688 3719 3718 3689 3690 3721 3720 3690 3691 
3722 3721 3691 3692 3723 3722 3692 3693 3724 
3723 3693 3694 3725 3724 3694 3695 3726 3725 
3695 3696 3727 3726 3696 3697 3728 3727 3697 
3698 3729 3728 3698 3699 3730 3729 3699 3700 
3731 3730 3700 3701 3732 3731 3701 3702 3733 
3732 3702 3703 3734 3733 3703 3704 3735 3734 
3704 3705 3736 3735 3705 3706 3737 3736 3706 
3707 3738 3737 3707 3708 3739 3738 3708 3709 
3740 3739 3709 3710 3741 3740 3710 3711 3742 
3741 3711 3712 3743 3742 3712 3713 3744 3743 
3713 3714 3745 3744 3714 3715 3746 3745 3715 
3716 3747 3746 3716 3717 3748 3747 3717 3718 
3749 3748 3718 3719 3750 3749 3720 3721 3752 
3751 3721 3722 3753 3752 3722 3723 3754 3753 
3723 3724 3755 3754 3724 3725 3756 3755 3725 
3726 3757 3756 3726 3727 3758 3757 3727 3728 
3759 3758 3728 3729 3760 3759 3729 3730 3761 
3760 3730 3731 3762 3761 3731 3732 3763 3762 
3732 3733 3764 3763 3733 3734 3765 3764 3734 
3735 3766 3765 3735 3736 3767 3766 3736 3737 
3768 3767 3737 3738 3769 3768 3738 3739 3770 
3769 3739 3740 3771 3770 3740 3741 3772 3771 
3741 3742 3773 3772 3742 3743 3774 3773 3743 
3744 3775 3774 3744 3745 3776 3775 3745 3746 
3777 3776 3746 3747 3778 3777 3747 3748 3779 
3778 3748 3749 3780 3779 3749 3750 3781 3780 
3751 3752 3783 3782 3752 3753 3784 3783 3753 
3754 3785 3784 3754 3755 3786 3785 3755 3756 
3787 3786 3756 3757 3788 3787 3757 3758 3789 
3788 3758 3759 3790 3789 3759 3760 3791 3790 
3760 3761 3792 3791 3761 3762 3793 3792 3762 
3763 3794 3793 3763 3764 3795 3794 3764 3765 
3796 3795 3765 3766 3797 3796 3766 3767 3798 
3797 3767 3768 3799 3798 3768 3769 3800 3799 
3769 3770 3801 3800 3770 3771 3802 3801 3771 
3772 3803 3802 3772 3773 3804 3803 3773 3774 
3805 3804 3774 3775 3806 3805 3775 3776 3807 
3806 3776 3777 3808 3807 3777 3778 3809 3808 
3778 3779 3810 3809 3779 3780 3811 3810 3780 
3781 3812 3811 3782 3783 3814 3813 3783 3784 
3815 3814 3784 3785 3816 3815 3785 3786 3817 
3816 3786 3787 3818 3817 3787 3788 3819 3818 
3788 3789 3820 3819 3789 3790 3821 3820 3790 
3791 3822 3821 3791 3792 3823 3822 3792 3793 
3824 3823 3793 3794 3825 3824 3794 3795 3826 
3825 3795 3796 3827 3826 3796 3797 3828 3827 
3797 3798 3829 3828 3798 3799 3830 3829 3799 
3800 3831 3830 3800 3801 3832 3831 3801 3802 
3833 3832 3802 3803 3834 3833 3803 3804 3835 
3834 3804 3805 3836 3835 3805 3806 3837 3836 
3806 3807 3838 3837 3807 3808 3839 3838 3808 
3809 3840 3839 3809 3810 3841 3840 3810 3811 
3842 3841 3811 3812 3843 3842 3813 3814 3845 
3844 3814 3815 3846 3845 3815 3816 3847 3846 
3816 3817 3848 3847 3817 3818 3849 3848 3818 
3819 3850 3849 3819 3820 3851 3850 3820 3821 
3852 3851 3821 3822 3853 3852 3822 3823 3854 
3853 3823 3824 3855 3854 3824 3825 3856 3855 
3825 3826 3857 3856 3826 3827 3858 3857 3827 
3828 3859 3858 3828 3829 3860 3859 3829 3830 
3861 3860 3830 3831 3862 3861 3831 3832 3863 
3862 3832 3833 3864 3863 3833 3834 3865 3864 
3834 3835 3866 3865 3835 3836 3867 3866 3836 
3837 3868 3867 3837 3838 3869 3868 3838 3839 
3870 3869 3839 3840 3871 3870 3840 3841 3872 
3871 3841 3842 3873 3872 3842 3843 3874 3873 
3844 3845 3876 3875 3845 3846 3877 3876 3846 
3847 3878 3877 3847 3848 3879 3878 3848 3849 
3880 3879 3849 3850 3881 3880 3850 3851 3882 
3881 3851 3852 3883 3882 3852 3853 3884 3883 
3853 3854 3885 3884 3854 3855 3886 3885 3855 
3856 3887 3886 3856 3857 3888 3887 3857 3858 
3889 3888 3858 3859 3890 3889 3859 3860 3891 
3890 3860 3861 3892 3891 3861 3862 3893 3892 
3862 3863 3894 3893 3863 3864 3895 3894 3864 
3865 3896 3895 3865 3866 3897 3896 3866 3867 
3898 3897 3867 3868 3899 3898 3868 3869 3900 
3899 3869 3870 3901 3900 3870 3871 3902 3901 
3871 3872 3903 3902 3872 3873 3904 3903 3873 
3874 3905 3904 3875 3876 3907 3906 3876 3877 
3908 3907 3877 3878 3909 3908 3878 3879 3910 
3909 3879 3880 3911 3910 3880 3881 3912 3911 
3881 3882 3913 3912 3882 3883 3914 3913 3883 
3884 3915 3914 3884 3885 3916 3915 3885 3886 
3917 3916 3886 3887 3918 3917 3887 3888 3919 
3918 3888 3889 3920 3919 3889 3890 3921 3920 
3890 3891 3922 3921 3891 3892 3923 3922 3892 
3893 3924 3923 3893 3894 3925 3924 3894 3895 
3926 3925 3895 3896 3927 3926 3896 3897 3928 
3927 3897 3898 3929 3928 3898 3899 3930 3929 
3899 3900 3931 3930 3900 3901 3932 3931 3901 
3902 3933 3932 3902 3903 3934 3933 3903 3904 
3935 3934 3904 3905 3936 3935 3906 3907 3938 
3937 3907 3908 3939 3938 3908 3909 3940 3939 
3909 3910 3941 3940 3910 3911 3942 3941 3911 
3912 3943 3942 3912 3913 3944 3943 3913 3914 
3945 3944 3914 3915 3946 3945 3915 3916 3947 
3946 3916 3917 3948 3947 3917 3918 3949 3948 
3918 3919 3950 3949 3919 3920 3951 3950 3920 
3921 3952 3951 3921 3922 3953 3952 3922 3923 
3954 3953 3923 3924 3955 3954 3924 3925 3956 
3955 3925 3926 3957 3956 3926 3927 3958 3957 
3927 3928 3959 3958 3928 3929 3960 3959 3929 
3930 3961 3960 3930 3931 3962 3961 3931 3932 
3963 3962 3932 3933 3964 3963 3933 3934 3965 
3964 3934 3935 3966 3965 3935 3936 3967 3966 
3937 3938 3969 3968 3938 3939 3970 3969 3939 
3940 3971 3970 3940 3941 3972 3971 3941 3942 
3973 3972 3942 3943 3974 3973 3943 3944 3975 
3974 3944 3945 3976 3975 3945 3946 3977 3976 
3946 3947 3978 3977 3947 3948 3979 3978 3948 
3949 3980 3979 3949 3950 3981 3980 3950 3951 
3982 3981 3951 3952 3983 3982 3952 3953 3984 
3983 3953 3954 3985 3984 3954 3955 3986 3985 
3955 3956 3987 3986 3956 3957 3988 3987 3957 
3958 3989 3988 3958 3959 3990 3989 3959 3960 
3991 3990 3960 3961 3992 3991 3961 3962 3993 
3992 3962 3963 3994 3993 3963 3964 3995 3994 
3964 3965 3996 3995 3965 3966 3997 3996 3966 
3967 3998 3997 3968 3969 4000 3999 3969 3970 
4001 4000 3970 3971 4002 4001 3971 3972 4003 
4002 3972 3973 4004 4003 3973 3974 4005 4004 
3974 3975 4006 4005 3975 3976 4007 4006 3976 
3977 4008 4007 3977 3978 4009 4008 3978 3979 
4010 4009 3979 3980 4011 4010 3980 3981 4012 
4011 3981 3982 4013 4012 3982 3983 4014 4013 
3983 3984 4015 4014 3984 3985 4016 4015 3985 
3986 4017 4016 3986 3987 4018 4017 3987 3988 
4019 4018 3988 3989 4020 4019 3989 3990 4021 
4020 3990 3991 4022 4021 3991 3992 4023 4022 
3992 3993 4024 4023 3993 3994 4025 4024 3994 
3995 4026 4025 3995 3996 4027 4026 3996 3997 
4028 4027 3997 3998 4029 4028 3999 4000 4031 
4030 4000 4001 4032 4031 4001 4002 4033 4032 
4002 4003 4034 4033 4003 4004 4035 4034 4004 
4005 4036 4035 4005 4006 4037 4036 4006 4007 
4038 4037 4007 4008 4039 4038 4008 4009 4040 
4039 4009 4010 4041 4040 4010 4011 4042 4041 
4011 4012 4043 4042 4012 4013 4044 4043 4013 
4014 4045 4044 4014 4015 4046 4045 4015 4016 
4047 4046 4016 4017 4048 4047 4017 4018 4049 
4048 4018 4019 4050 4049 4019 4020 4051 4050 
4020 4021 4052 4051 4021 4022 4053 4052 4022 
4023 4054 4053 4023 4024 4055 4054 4024 4025 
4056 4055 4025 4026 4057 4056 4026 4027 4058 
4057 4027 4028 4059 4058 4028 4029 4060 4059 
4030 4031 4062 4061 4031 4032 4063 4062 4032 
4033 4064 4063 4033 4034 4065 4064 4034 4035 
4066 4065 4035 4036 4067 4066 4036 4037 4068 
4067 4037 4038 4069 4068 4038 4039 4070 4069 
4039 4040 4071 4070 4040 4041 4072 4071 4041 
4042 4073 4072 4042 4043 4074 4073 4043 4044 
4075 4074 4044 4045 4076 4075 4045 4046 4077 
4076 4046 4047 4078 4077 4047 4048 4079 4078 
4048 4049 4080 4079 4049 4050 4081 4080 4050 
4051 4082 4081 4051 4052 4083 4082 4052 4053 
4084 4083 4053 4054 4085 4084 4054 4055 4086 
4085 4055 4056 4087 4086 4056 4057 4088 4087 
4057 4058 4089 4088 4058 4059 4090 4089 4059 
4060 4091 4090 4061 4062 4093 4092 4062 4063 
4094 4093 4063 4064 4095 4094 4064 4065 4096 
4095 4065 4066 4097 4096 4066 4067 4098 4097 
4067 4068 4099 4098 4068 4069 4100 4099 4069 
4070 4101 4100 4070 4071 4102 4101 4071 4072 
4103 4102 4072 4073 4104 4103 4073 4074 4105 
4104 4074 4075 4106 4105 4075 4076 4107 4106 
4076 4077 4108 4107 4077 4078 4109 4108 4078 
4079 4110 4109 4079 4080 4111 4110 4080 4081 
4112 4111 4081 4082 4113 4112 4082 4083 4114 
4113 4083 4084 4115 4114 4084 4085 4116 4115 
4085 4086 4117 4116 4086 4087 4118 4117 4087 
4088 4119 4118 4088 4089 4120 4119 4089 4090 
4121 4120 4090 4091 4122 4121 4092 4093 4124 
4123 4093 4094 4125 4124 4094 4095 4126 4125 
4095 4096 4127 4126 4096 4097 4128 4127 4097 
4098 4129 4128 4098 4099 4130 4129 4099 4100 
4131 4130 4100 4101 4132 4131 4101 4102 4133 
4132 4102 4103 4134 4133 4103 4104 4135 4134 
4104 4105 4136 4135 4105 4106 4137 4136 4106 
4107 4138 4137 4107 4108 4139 4138 4108 4109 
4140 4139 4109 4110 4141 4140 4110 4111 4142 
4141 4111 4112 4143 4142 4112 4113 4144 4143 
4113 4114 4145 4144 4114 4115 4146 4145 4115 
4116 4147 4146 4116 4117 4148 4147 4117 4118 
4149 4148 4118 4119 4150 4149 4119 4120 4151 
4150 4120 4121 4152 4151 4121 4122 4153 4152 
4123 4124 4155 4154 4124 4125 4156 4155 4125 
4126 4157 4156 4126 4127 4158 4157 4127 4128 
4159 4158 4128 4129 4160 4159 4129 4130 4161 
4160 4130 4131 4162 4161 4131 4132 4163 4162 
4132 4133 4164 4163 4133 4134 4165 4164 4134 
4135 4166 4165 4135 4136 4167 4166 4136 4137 
4168 4167 4137 4138 4169 4168 4138 4139 4170 
4169 4139 4140 4171 4170 4140 4141 4172 4171 
4141 4142 4173 4172 4142 4143 4174 4173 4143 
4144 4175 4174 4144 4145 4176 4175 4145 4146 
4177 4176 4146 4147 4178 4177 4147 4148 4179 
4178 4148 4149 4180 4179 4149 4150 4181 4180 
4150 4151 4182 4181 4151 4152 4183 4182 4152 
4153 4184 4183 4154 4155 4186 4185 4155 4156 
4187 4186 4156 4157 4188 4187 4157 4158 4189 
4188 4158 4159 4190 4189 4159 4160 4191 4190 
4160 4161 4192 4191 4161 4162 4193 4192 4162 
4163 4194 4193 4163 4164 4195 4194 4164 4165 
4196 4195 4165 4166 4197 4196 4166 4167 4198 
4197 4167 4168 4199 4198 4168 4169 4200 4199 
4169 4170 4201 4200 4170 4171 4202 4201 4171 
4172 4203 4202 4172 4173 4204 4203 4173 4174 
4205 4204 4174 4175 4206 4205 4175 4176 4207 
4206 4176 4177 4208 4207 4177 4178 4209 4208 
4178 4179 4210 4209 4179 4180 4211 4210 4180 
4181 4212 4211 4181 4182 4213 4212 4182 4183 
4214 4213 4183 4184 4215 4214 4185 4186 4217 
4216 4186 4187 4218 4217 4187 4188 4219 4218 
4188 4189 4220 4219 4189 4190 4221 4220 4190 
4191 4222 4221 4191 4192 4223 4222 4192 4193 
4224 4223 4193 4194 4225 4224 4194 4195 4226 
4225 4195 4196 4227 4226 4196 4197 4228 4227 
4197 4198 4229 4228 4198 4199 4230 4229 4199 
4200 4231 4230 4200 4201 4232 4231 4201 4202 
4233 4232 4202 4203 4234 4233 4203 4204 4235 
4234 4204 4205 4236 4235 4205 4206 4237 4236 
4206 4207 4238 4237 4207 4208 4239 4238 4208 
4209 4240 4239 4209 4210 4241 4240 4210 4211 
4242 4241 4211 4212 4243 4242 4212 4213 4244 
4243 4213 4214 4245 4244 4214 4215 4246 4245 
4216 4217 4248 4247 4217 4218 4249 4248 4218 
4219 4250 4249 4219 4220 4251 4250 4220 4221 
4252 4251 4221 4222 4253 4252 4222 4223 4254 
4253 4223 4224 4255 4254 4224 4225 4256 4255 
4225 4226 4257 4256 4226 4227 4258 4257 4227 
4228 4259 4258 4228 4229 4260 4259 4229 4230 
4261 4260 4230 4231 4262 4261 4231 4232 4263 
4262 4232 4233 4264 4263 4233 4234 4265 4264 
4234 4235 4266 4265 4235 4236 4267 4266 4236 
4237 4268 4267 4237 4238 4269 4268 4238 4239 
4270 4269 4239 4240 4271 4270 4240 4241 4272 
4271 4241 4242 4273 4272 4242 4243 4274 4273 
4243 4244 4275 4274 4244 4245 4276 4275 4245 
4246 4277 4276 4247 4248 4279 4278 4248 4249 
4280 4279 4249 4250 4281 4280 4250 4251 4282 
4281 4251 4252 4283 4282 4252 4253 4284 4283 
4253 4254 4285 4284 4254 4255 4286 4285 4255 
4256 4287 4286 4256 4257 4288 4287 4257 4258 
4289 4288 4258 4259 4290 4289 4259 4260 4291 
4290 4260 4261 4292 4291 4261 4262 4293 4292 
4262 4263 4294 4293 4263 4264 4295 4294 4264 
4265 4296 4295 4265 4266 4297 4296 4266 4267 
4298 4297 4267 4268 4299 4298 4268 4269 4300 
4299 4269 4270 4301 4300 4270 4271 4302 4301 
4271 4272 4303 4302 4272 4273 4304 4303 4273 
4274 4305 4304 4274 4275 4306 4305 4275 4276 
4307 4306 4276 4277 4308 4307 4278 4279 4310 
4309 4279 4280 4311 4310 4280 4281 4312 4311 
4281 4282 4313 4312 4282 4283 4314 4313 4283 
4284 4315 4314 4284 4285 4316 4315 4285 4286 
4317 4316 4286 4287 4318 4317 4287 4288 4319 
4318 4288 4289 4320 4319 4289 4290 4321 4320 
4290 4291 4322 4321 4291 4292 4323 4322 4292 
4293 4324 4323 4293 4294 4325 4324 4294 4295 
4326 4325 4295 4296 4327 4326 4296 4297 4328 
4327 4297 4298 4329 4328 4298 4299 4330 4329 
4299 4300 4331 4330 4300 4301 4332 4331 4301 
4302 4333 4332 4302 4303 4334 4333 4303 4304 
4335 4334 4304 4305 4336 4335 4305 4306 4337 
4336 4306 4307 4338 4337 4307 4308 4339 4338 
4309 4310 4341 4340 4310 4311 4342 4341 4311 
4312 4343 4342 4312 4313 4344 4343 4313 4314 
4345 4344 4314 4315 4346 4345 4315 4316 4347 
4346 4316 4317 4348 4347 4317 4318 4349 4348 
4318 4319 4350 4349 4319 4320 4351 4350 4320 
4321 4352 4351 4321 4322 4353 4352 4322 4323 
4354 4353 4323 4324 4355 4354 4324 4325 4356 
4355 4325 4326 4357 4356 4326 4327 4358 4357 
4327 4328 4359 4358 4328 4329 4360 4359 4329 
4330 4361 4360 4330 4331 4362 4361 4331 4332 
4363 4362 4332 4333 4364 4363 4333 4334 4365 
4364 4334 4335 4366 4365 4335 4336 4367 4366 
4336 4337 4368 4367 4337 4338 4369 4368 4338 
4339 4370 4369 4340 4341 4372 4371 4341 4342 
4373 4372 4342 4343 4374 4373 4343 4344 4375 
4374 4344 4345 4376 4375 4345 4346 4377 4376 
4346 4347 4378 4377 4347 4348 4379 4378 4348 
4349 4380 4379 4349 4350 4381 4380 4350 4351 
4382 4381 4351 4352 4383 4382 4352 4353 4384 
4383 4353 4354 4385 4384 4354 4355 4386 4385 
4355 4356 4387 4386 4356 4357 4388 4387 4357 
4358 4389 4388 4358 4359 4390 4389 4359 4360 
4391 4390 4360 4361 4392 4391 4361 4362 4393 
4392 4362 4363 4394 4393 4363 4364 4395 4394 
4364 4365 4396 4395 4365 4366 4397 4396 4366 
4367 4398 4397 4367 4368 4399 4398 4368 4369 
4400 4399 4369 4370 4401 4400 4371 4372 4403 
4402 4372 4373 4404 4403 4373 4374 4405 4404 
4374 4375 4406 4405 4375 4376 4407 4406 4376 
4377 4408 4407 4377 4378 4409 4408 4378 4379 
4410 4409 4379 4380 4411 4410 4380 4381 4412 
4411 4381 4382 4413 4412 4382 4383 4414 4413 
4383 4384 4415 4414 4384 4385 4416 4415 4385 
4386 4417 4416 4386 4387 4418 4417 4387 4388 
4419 4418 4388 4389 4420 4419 4389 4390 4421 
4420 4390 4391 4422 4421 4391 4392 4423 4422 
4392 4393 4424 4423 4393 4394 4425 4424 4394 
4395 4426 4425 4395 4396 4427 4426 4396 4397 
4428 4427 4397 4398 4429 4428 4398 4399 4430 
4429 4399 4400 4431 4430 4400 4401 4432 4431 
4402 4403 4434 4433 4403 4404 4435 4434 4404 
4405 4436 4435 4405 4406 4437 4436 4406 4407 
4438 4437 4407 4408 4439 4438 4408 4409 4440 
4439 4409 4410 4441 4440 4410 4411 4442 4441 
4411 4412 4443 4442 4412 4413 4444 4443 4413 
4414 4445 4444 4414 4415 4446 4445 4415 4416 
4447 4446 4416 4417 4448 4447 4417 4418 4449 
4448 4418 4419 4450 4449 4419 4420 4451 4450 
4420 4421 4452 4451 4421 4422 4453 4452 4422 
4423 4454 4453 4423 4424 4455 4454 4424 4425 
4456 4455 4425 4426 4457 4456 4426 4427 4458 
4457 4427 4428 4459 4458 4428 4429 4460 4459 
4429 4430 4461 4460 4430 4431 4462 4461 4431 
4432 4463 4462 4433 4434 4465 4464 4434 4435 
4466 4465 4435 4436 4467 4466 4436 4437 4468 
4467 4437 4438 4469 4468 4438 4439 4470 4469 
4439 4440 4471 4470 4440 4441 4472 4471 4441 
4442 4473 4472 4442 4443 4474 4473 4443 4444 
4475 4474 4444 4445 4476 4475 4445 4446 4477 
4476 4446 4447 4478 4477 4447 4448 4479 4478 
4448 4449 4480 4479 4449 4450 4481 4480 4450 
4451 4482 4481 4451 4452 4483 4482 4452 4453 
4484 4483 4453 4454 4485 4484 4454 4455 4486 
4485 4455 4456 4487 4486 4456 4457 4488 4487 
4457 4458 4489 4488 4458 4459 4490 4489 4459 
4460 4491 4490 4460 4461 4492 4491 4461 4462 
4493 4492 4462 4463 4494 4493 4464 4465 4496 
4495 4465 4466 4497 4496 4466 4467 4498 4497 
4467 4468 4499 4498 4468 4469 4500 4499 4469 
4470 4501 4500 4470 4471 4502 4501 4471 4472 
4503 4502 4472 4473 4504 4503 4473 4474 4505 
4504 4474 4475 4506 4505 4475 4476 4507 4506 
4476 4477 4508 4507 4477 4478 4509 4508 4478 
4479 4510 4509 4479 4480 4511 4510 4480 4481 
4512 4511 4481 4482 4513 4512 4482 4483 4514 
4513 4483 4484 4515 4514 4484 4485 4516 4515 
4485 4486 4517 4516 4486 4487 4518 4517 4487 
4488 4519 4518 4488 4489 4520 4519 4489 4490 
4521 4520 4490 4491 4522 4521 4491 4492 4523 
4522 4492 4493 4524 4523 4493 4494 4525 4524 
4495 4496 4527 4526 4496 4497 4528 4527 4497 
4498 4529 4528 4498 4499 4530 4529 4499 4500 
4531 4530 4500 4501 4532 4531 4501 4502 4533 
4532 4502 4503 4534 4533 4503 4504 4535 4534 
4504 4505 4536 4535 4505 4506 4537 4536 4506 
4507 4538 4537 4507 4508 4539 4538 4508 4509 
4540 4539 4509 4510 4541 4540 4510 4511 4542 
4541 4511 4512 4543 4542 4512 4513 4544 4543 
4513 4514 4545 4544 4514 4515 4546 4545 4515 
4516 4547 4546 4516 4517 4548 4547 4517 4518 
4549 4548 4518 4519 4550 4549 4519 4520 4551 
4550 4520 4521 4552 4551 4521 4522 4553 4552 
4522 4523 4554 4553 4523 4524 4555 4554 4524 
4525 4556 4555 4526 4527 4558 4557 4527 4528 
4559 4558 4528 4529 4560 4559 4529 4530 4561 
4560 4530 4531 4562 4561 4531 4532 4563 4562 
4532 4533 4564 4563 4533 4534 4565 4564 4534 
4535 4566 4565 4535 4536 4567 4566 4536 4537 
4568 4567 4537 4538 4569 4568 4538 4539 4570 
4569 4539 4540 4571 4570 4540 4541 4572 4571 
4541 4542 4573 4572 4542 4543 4574 4573 4543 
4544 4575 4574 4544 4545 4576 4575 4545 4546 
4577 4576 4546 4547 4578 4577 4547 4548 4579 
4578 4548 4549 4580 4579 4549 4550 4581 4580 
4550 4551 4582 4581 4551 4552 4583 4582 4552 
4553 4584 4583 4553 4554 4585 4584 4554 4555 
4586 4585 4555 4556 4587 4586 4557 4558 4589 
4588 4558 4559 4590 4589 4559 4560 4591 4590 
4560 4561 4592 4591 4561 4562 4593 4592 4562 
4563 4594 4593 4563 4564 4595 4594 4564 4565 
4596 4595 4565 4566 4597 4596 4566 4567 4598 
4597 4567 4568 4599 4598 4568 4569 4600 4599 
4569 4570 4601 4600 4570 4571 4602 4601 4571 
4572 4603 4602 4572 4573 4604 4603 4573 4574 
4605 4604 4574 4575 4606 4605 4575 4576 4607 
4606 4576 4577 4608 4607 4577 4578 4609 4608 
4578 4579 4610 4609 4579 4580 4611 4610 4580 
4581 4612 4611 4581 4582 4613 4612 4582 4583 
4614 4613 4583 4584 4615 4614 4584 4585 4616 
4615 4585 4586 4617 4616 4586 4587 4618 4617 
4588 4589 4620 4619 4589 4590 4621 4620 4590 
4591 4622 4621 4591 4592 4623 4622 4592 4593 
4624 4623 4593 4594 4625 4624 4594 4595 4626 
4625 4595 4596 4627 4626 4596 4597 4628 4627 
4597 4598 4629 4628 4598 4599 4630 4629 4599 
4600 4631 4630 4600 4601 4632 4631 4601 4602 
4633 4632 4602 4603 4634 4633 4603 4604 4635 
4634 4604 4605 4636 4635 4605 4606 4637 4636 
4606 4607 4638 4637 4607 4608 4639 4638 4608 
4609 4640 4639 4609 4610 4641 4640 4610 4611 
4642 4641 4611 4612 4643 4642 4612 4613 4644 
4643 4613 4614 4645 4644 4614 4615 4646 4645 
4615 4616 4647 4646 4616 4617 4648 4647 4617 
4618 4649 4648 4619 4620 4651 4650 4620 4621 
4652 4651 4621 4622 4653 4652 4622 4623 4654 
4653 4623 4624 4655 4654 4624 4625 4656 4655 
4625 4626 4657 4656 4626 4627 4658 4657 4627 
4628 4659 4658 4628 4629 4660 4659 4629 4630 
4661 4660 4630 4631 4662 4661 4631 4632 4663 
4662 4632 4633 4664 4663 4633 4634 4665 4664 
4634 4635 4666 4665 4635 4636 4667 4666 4636 
4637 4668 4667 4637 4638 4669 4668 4638 4639 
4670 4669 4639 4640 4671 4670 4640 4641 4672 
4671 4641 4642 4673 4672 4642 4643 4674 4673 
4643 4644 4675 4674 4644 4645 4676 4675 4645 
4646 4677 4676 4646 4647 4678 4677 4647 4648 
4679 4678 4648 4649 4680 4679 4650 4651 4682 
4681 4651 4652 4683 4682 4652 4653 4684 4683 
4653 4654 4685 4684 4654 4655 4686 4685 4655 
4656 4687 4686 4656 4657 4688 4687 4657 4658 
4689 4688 4658 4659 4690 4689 4659 4660 4691 
4690 4660 4661 4692 4691 4661 4662 4693 4692 
4662 4663 4694 4693 4663 4664 4695 4694 4664 
4665 4696 4695 4665 4666 4697 4696 4666 4667 
4698 4697 4667 4668 4699 4698 4668 4669 4700 
4699 4669 4670 4701 4700 4670 4671 4702 4701 
4671 4672 4703 4702 4672 4673 4704 4703 4673 
4674 4705 4704 4674 4675 4706 4705 4675 4676 
4707 4706 4676 4677 4708 4707 4677 4678 4709 
4708 4678 4679 4710 4709 4679 4680 4711 4710 
4681 4682 4713 4712 4682 4683 4714 4713 4683 
4684 4715 4714 4684 4685 4716 4715 4685 4686 
4717 4716 4686 4687 4718 4717 4687 4688 4719 
4718 4688 4689 4720 4719 4689 4690 4721 4720 
4690 4691 4722 4721 4691 4692 4723 4722 4692 
4693 4724 4723 4693 4694 4725 4724 4694 4695 
4726 4725 4695 4696 4727 4726 4696 4697 4728 
4727 4697 4698 4729 4728 4698 4699 4730 4729 
4699 4700 4731 4730 4700 4701 4732 4731 4701 
4702 4733 4732 4702 4703 4734 4733 4703 4704 
4735 4734 4704 4705 4736 4735 4705 4706 4737 
4736 4706 4707 4738 4737 4707 4708 4739 4738 
4708 4709 4740 4739 4709 4710 4741 4740 4710 
4711 4742 4741 4712 4713 4744 4743 4713 4714 
4745 4744 4714 4715 4746 4745 4715 4716 4747 
4746 4716 4717 4748 4747 4717 4718 4749 4748 
4718 4719 4750 4749 4719 4720 4751 4750 4720 
4721 4752 4751 4721 4722 4753 4752 4722 4723 
4754 4753 4723 4724 4755 4754 4724 4725 4756 
4755 4725 4726 4757 4756 4726 4727 4758 4757 
4727 4728 4759 4758 4728 4729 4760 4759 4729 
4730 4761 4760 4730 4731 4762 4761 4731 4732 
4763 4762 4732 4733 4764 4763 4733 4734 4765 
4764 4734 4735 4766 4765 4735 4736 4767 4766 
4736 4737 4768 4767 4737 4738 4769 4768 4738 
4739 4770 4769 4739 4740 4771 4770 4740 4741 
4772 4771 4741 4742 4773 4772 4743 4744 4775 
4774 4744 4745 4776 4775 4745 4746 4777 4776 
4746 4747 4778 4777 4747 4748 4779 4778 4748 
4749 4780 4779 4749 4750 4781 4780 4750 4751 
4782 4781 4751 4752 4783 4782 4752 4753 4784 
4783 4753 4754 4785 4784 4754 4755 4786 4785 
4755 4756 4787 4786 4756 4757 4788 4787 4757 
4758 4789 4788 4758 4759 4790 4789 4759 4760 
4791 4790 4760 4761 4792 4791 4761 4762 4793 
4792 4762 4763 4794 4793 4763 4764 4795 4794 
4764 4765 4796 4795 4765 4766 4797 4796 4766 
4767 4798 4797 4767 4768 4799 4798 4768 4769 
4800 4799 4769 4770 4801 4800 4770 4771 4802 
4801 4771 4772 4803 4802 4772 4773 4804 4803 
4774 4775 4806 4805 4775 4776 4807 4806 4776 
4777 4808 4807 4777 4778 4809 4808 4778 4779 
4810 4809 4779 4780 4811 4810 4780 4781 4812 
4811 4781 4782 4813 4812 4782 4783 4814 4813 
4783 4784 4815 4814 4784 4785 4816 4815 4785 
4786 4817 4816 4786 4787 4818 4817 4787 4788 
4819 4818 4788 4789 4820 4819 4789 4790 4821 
4820 4790 4791 4822 4821 4791 4792 4823 4822 
4792 4793 4824 4823 4793 4794 4825 4824 4794 
4795 4826 4825 4795 4796 4827 4826 4796 4797 
4828 4827 4797 4798 4829 4828 4798 4799 4830 
4829 4799 4800 4831 4830 4800 4801 4832 4831 
4801 4802 4833 4832 4802 4803 4834 4833 4803 
4804 4835 4834 4805 4806 4837 4836 4806 4807 
4838 4837 4807 4808 4839 4838 4808 4809 4840 
4839 4809 4810 4841 4840 4810 4811 4842 4841 
4811 4812 4843 4842 4812 4813 4844 4843 4813 
4814 4845 4844 4814 4815 4846 4845 4815 4816 
4847 4846 4816 4817 4848 4847 4817 4818 4849 
4848 4818 4819 4850 4849 4819 4820 4851 4850 
4820 4821 4852 4851 4821 4822 4853 4852 4822 
4823 4854 4853 4823 4824 4855 4854 4824 4825 
4856 4855 4825 4826 4857 4856 4826 4827 4858 
4857 4827 4828 4859 4858 4828 4829 4860 4859 
4829 4830 4861 4860 4830 4831 4862 4861 4831 
4832 4863 4862 4832 4833 4864 4863 4833 4834 
4865 4864 4834 4835 4866 4865 4836 4837 4868 
4867 4837 4838 4869 4868 4838 4839 4870 4869 
4839 4840 4871 4870 4840 4841 4872 4871 4841 
4842 4873 4872 4842 4843 4874 4873 4843 4844 
4875 4874 4844 4845 4876 4875 4845 4846 4877 
4876 4846 4847 4878 4877 4847 4848 4879 4878 
4848 4849 4880 4879 4849 4850 4881 4880 4850 
4851 4882 4881 4851 4852 4883 4882 4852 4853 
4884 4883 4853 4854 4885 4884 4854 4855 4886 
4885 4855 4856 4887 4886 4856 4857 4888 4887 
4857 4858 4889 4888 4858 4859 4890 4889 4859 
4860 4891 4890 4860 4861 4892 4891 4861 4862 
4893 4892 4862 4863 4894 4893 4863 4864 4895 
4894 4864 4865 4896 4895 4865 4866 4897 4896 
4867 4868 4899 4898 4868 4869 4900 4899 4869 
4870 4901 4900 4870 4871 4902 4901 4871 4872 
4903 4902 4872 4873 4904 4903 4873 4874 4905 
4904 4874 4875 4906 4905 4875 4876 4907 4906 
4876 4877 4908 4907 4877 4878 4909 4908 4878 
4879 4910 4909 4879 4880 4911 4910 4880 4881 
4912 4911 4881 4882 4913 4912 4882 4883 4914 
4913 4883 4884 4915 4914 4884 4885 4916 4915 
4885 4886 4917 4916 4886 4887 4918 4917 4887 
4888 4919 4918 4888 4889 4920 4919 4889 4890 
4921 4920 4890 4891 4922 4921 4891 4892 4923 
4922 4892 4893 4924 4923 4893 4894 4925 4924 
4894 4895 4926 4925 4895 4896 4927 4926 4896 
4897 4928 4927 4898 4899 1551 1550 4899 4900 
1552 1551 4900 4901 1553 1552 4901 4902 1554 
1553 4902 4903 1555 1554 4903 4904 1556 1555 
4904 4905 1557 1556 4905 4906 1558 1557 4906 
4907 1559 1558 4907 4908 1560 1559 4908 4909 
1561 1560 4909 4910 1562 1561 4910 4911 1563 
1562 4911 4912 1564 1563 4912 4913 1565 1564 
4913 4914 1566 1565 4914 4915 1567 1566 4915 
4916 1568 1567 4916 4917 1569 1568 4917 4918 
1570 1569 4918 4919 1571 1570 4919 4920 1572 
1571 4920 4921 1573 1572 4921 4922 1574 1573 
4922 4923 1575 1574 4923 4924 1576 1575 4924 
4925 1577 1576 4925 4926 1578 1577 4926 4927 
1579 1578 4927 4928 1580 1579 
CELL_TYPES 4740
9
9
9
9
9
9
9
9
9
9
9
9
9
9
9
9
9
9
9
9
9
9
9
9
9
9
9
9
9
9
9
9
9
9
9
9
9
9
9
9
9
9
9
9
9
9
9
9
9
9
9
9
9
9
9
9
9
9
9
9
9
9
9
9
9
9
9
9
9
9
9
9
9
9
9
9
9
9
9
9
9
9
9
9
9
9
9
9
9
9
9
9
9
9
9
9
9
9
9
9
9
9
9
9
9
9
9
9
9
9
9
9
9
9
9
9
9
9
9
9
9
9
9
9
9
9
9
9
9
9
9
9
9
9
9
9
9
9
9
9
9
9
9
9
9
9
9
9
9
9
9
9
9
9
9
9
9
9
9
9
9
9
9
9
9
9
9
9
9
9
9
9
9
9
9
9
9
9
9
9
9
9
9
9
9
9
9
9
9
9
9
9
9
9
9
9
9
9
9
9
9
9
9
9
9
9
9
9
9
9
9
9
9
9
9
9
9
9
9
9
9
9
9
9
9
9
9
9
9
9
9
9
9
9
9
9
9
9
9
9
9
9
9
9
9
9
9
9
9
9
9
9
9
9
9
9
9
9
9
9
9
9
9
9
9
9
9
9
9
9
9
9
9
9
9
9
9
9
9
9
9
9
9
9
9
9
9
9
9
9
9
9
9
9
9
9
9
9
9
9
9
9
9
9
9
9
9
9
9
9
9
9
9
9
9
9
9
9
9
9
9
9
9
9
9
9
9
9
9
9
9
9
9
9
9
9
9
9
9
9
9
9
9
9
9
9
9
9
9
9
9
9
9
9
9
9
9
9
9
9
9
9
9
9
9
9
9
9
9
9
9
9
9
9
9
9
9
9
9
9
9
9
9
9
9
9
9
9
9
9
9
9
9
9
9
9
9
9
9
9
9
9
9
9
9
9
9
9
9
9
9
9
9
9
9
9
9
9
9
9
9
9
9
9
9
9
9
9
9
9
9
9
9
9
9
9
9
9
9
9
9
9
9
9
9
9
9
9
9
9
9
9
9
9
9
9
9
9
9
9
9
9
9
9
9
9
9
9
9
9
9
9
9
9
9
9
9
9
9
9
9
9
9
9
9
9
9
9
9
9
9
9
9
9
9
9
9
9
9
9
9
9
9
9
9
9
9
9
9
9
9
9
9
9
9
9
9
9
9
9
9
9
9
9
9
9
9
9
9
9
9
9
9
9
9
9
9
9
9
9
9
9
9
9
9
9
9
9
9
9
9
9
9
9
9
9
9
9
9
9
9
9
9
9
9
9
9
9
9
9
9
9
9
9
9
9
9
9
9
9
9
9
9
9
9
9
9
9
9
9
9
9
9
9
9
9
9
9
9
9
9
9
9
9
9
9
9
9
9
9
9
9
9
9
9
9
9
9
9
9
9
9
9
9
9
9
9
9
9
9
9
9
9
9
9
9
9
9
9
9
9
9
9
9
9
9
9
9
9
9
9
9
9
9
9
9
9
9
9
9
9
9
9
9
9
9
9
9
9
9
9
9
9
9
9
9
9
9
9
9
9
9
9
9
9
9
9
9
9
9
9
9
9
9
9
9
9
9
9
9
9
9
9
9
9
9
9
9
9
9
9
9
9
9
9
9
9
9
9
9
9
9
9
9
9
9
9
9
9
9
9
9
9
9
9
9
9
9
9
9
9
9
9
9
9
9
9
9
9
9
9
9
9
9
9
9
9
9
9
9
9
9
9
9
9
9
9
9
9
9
9
9
9
9
9
9
9
9
9
9
9
9
9
9
9
9
9
9
9
9
9
9
9
9
9
9
9
9
9
9
9
9
9
9
9
9
9
9
9
9
9
9
9
9
9
9
9
9
9
9
9
9
9
9
9
9
9
9
9
9
9
9
9
9
9
9
9
9
9
9
9
9
9
9
9
9
9
9
9
9
9
9
9
9
9
9
9
9
9
9
9
9
9
9
9
9
9
9
9
9
9
9
9
9
9
9
9
9
9
9
9
9
9
9
9
9
9
9
9
9
9
9
9
9
9
9
9
9
9
9
9
9
9
9
9
9
9
9
9
9
9
9
9
9
9
9
9
9
9
9
9
9
9
9
9
9
9
9
9
9
9
9
9
9
9
9
9
9
9
9
9
9
9
9
9
9
9
9
9
9
9
9
9
9
9
9
9
9
9
9
9
9
9
9
9
9
9
9
9
9
9
9
9
9
9
9
9
9
9
9
9
9
9
9
9
9
9
9
9
9
9
9
9
9
9
9
9
9
9
9
9
9
9
9
9
9
9
9
9
9
9
9
9
9
9
9
9
9
9
9
9
9
9
9
9
9
9
9
9
9
9
9
9
9
9
9
9
9
9
9
9
9
9
9
9
9
9
9
9
9
9
9
9
9
9
9
9
9
9
9
9
9
9
9
9
9
9
9
9
9
9
9
9
9
9
9
9
9
9
9
9
9
9
9
9
9
9
9
9
9
9
9
9
9
9
9
9
9
9
9
9
9
9
9
9
9
9
9
9
9
9
9
9
9
9
9
9
9
9
9
9
9
9
9
9
9
9
9
9
9
9
9
9
9
9
9
9
9
9
9
9
9
9
9
9
9
9
9
9
9
9
9
9
9
9
9
9
9
9
9
9
9
9
9
9
9
9
9
9
9
9
9
9
9
9
9
9
9
9
9
9
9
9
9
9
9
9
9
9
9
9
9
9
9
9
9
9
9
9
9
9
9
9
9
9
9
9
9
9
9
9
9
9
9
9
9
9
9
9
9
9
9
9
9
9
9
9
9
9
9
9
9
9
9
9
9
9
9
9
9
9
9
9
9
9
9
9
9
9
9
9
9
9
9
9
9
9
9
9
9
9
9
9
9
9
9
9
9
9
9
9
9
9
9
9
9
9
9
9
9
9
9
9
9
9
9
9
9
9
9
9
9
9
9
9
9
9
9
9
9
9
9
9
9
9
9
9
9
9
9
9
9
9
9
9
9
9
9
9
9
9
9
9
9
9
9
9
9
9
9
9
9
9
9
9
9
9
9
9
9
9
9
9
9
9
9
9
9
9
9
9
9
9
9
9
9
9
9
9
9
9
9
9
9
9
9
9
9
9
9
9
9
9
9
9
9
9
9
9
9
9
9
9
9
9
9
9
9
9
9
9
9
9
9
9
9
9
9
9
9
9
9
9
9
9
9
9
9
9
9
9
9
9
9
9
9
9
9
9
9
9
9
9
9
9
9
9
9
9
9
9
9
9
9
9
9
9
9
9
9
9
9
9
9
9
9
9
9
9
9
9
9
9
9
9
9
9
9
9
9
9
9
9
9
9
9
9
9
9
9
9
9
9
9
9
9
9
9
9
9
9
9
9
9
9
9
9
9
9
9
9
9
9
9
9
9
9
9
9
9
9
9
9
9
9
9
9
9
9
9
9
9
9
9
9
9
9
9
9
9
9
9
9
9
9
9
9
9
9
9
9
9
9
9
9
9
9
9
9
9
9
9
9
9
9
9
9
9
9
9
9
9
9
9
9
9
9
9
9
9
9
9
9
9
9
9
9
9
9
9
9
9
9
9
9
9
9
9
9
9
9
9
9
9
9
9
9
9
9
9
9
9
9
9
9
9
9
9
9
9
9
9
9
9
9
9
9
9
9
9
9
9
9
9
9
9
9
9
9
9
9
9
9
9
9
9
9
9
9
9
9
9
9
9
9
9
9
9
9
9
9
9
9
9
9
9
9
9
9
9
9
9
9
9
9
9
9
9
9
9
9
9
9
9
9
9
9
9
9
9
9
9
9
9
9
9
9
9
9
9
9
9
9
9
9
9
9
9
9
9
9
9
9
9
9
9
9
9
9
9
9
9
9
9
9
9
9
9
9
9
9
9
9
9
9
9
9
9
9
9
9
9
9
9
9
9
9
9
9
9
9
9
9
9
9
9
9
9
9
9
9
9
9
9
9
9
9
9
9
9
9
9
9
9
9
9
9
9
9
9
9
9
9
9
9
9
9
9
9
9
9
9
9
9
9
9
9
9
9
9
9
9
9
9
9
9
9
9
9
9
9
9
9
9
9
9
9
9
9
9
9
9
9
9
9
9
9
9
9
9
9
9
9
9
9
9
9
9
9
9
9
9
9
9
9
9
9
9
9
9
9
9
9
9
9
9
9
9
9
9
9
9
9
9
9
9
9
9
9
9
9
9
9
9
9
9
9
9
9
9
9
9
9
9
9
9
9
9
9
9
9
9
9
9
9
9
9
9
9
9
9
9
9
9
9
9
9
9
9
9
9
9
9
9
9
9
9
9
9
9
9
9
9
9
9
9
9
9
9
9
9
9
9
9
9
9
9
9
9
9
9
9
9
9
9
9
9
9
9
9
9
9
9
9
9
9
9
9
9
9
9
9
9
9
9
9
9
9
9
9
9
9
9
9
9
9
9
9
9
9
9
9
9
9
9
9
9
9
9
9
9
9
9
9
9
9
9
9
9
9
9
9
9
9
9
9
9
9
9
9
9
9
9
9
9
9
9
9
9
9
9
9
9
9
9
9
9
9
9
9
9
9
9
9
9
9
9
9
9
9
9
9
9
9
9
9
9
9
9
9
9
9
9
9
9
9
9
9
9
9
9
9
9
9
9
9
9
9
9
9
9
9
9
9
9
9
9
9
9
9
9
9
9
9
9
9
9
9
9
9
9
9
9
9
9
9
9
9
9
9
9
9
9
9
9
9
9
9
9
9
9
9
9
9
9
9
9
9
9
9
9
9
9
9
9
9
9
9
9
9
9
9
9
9
9
9
9
9
9
9
9
9
9
9
9
9
9
9
9
9
9
9
9
9
9
9
9
9
9
9
9
9
9
9
9
9
9
9
9
9
9
9
9
9
9
9
9
9
9
9
9
9
9
9
9
9
9
9
9
9
9
9
9
9
9
9
9
9
9
9
9
9
9
9
9
9
9
9
9
9
9
9
9
9
9
9
9
9
9
9
9
9
9
9
9
9
9
9
9
9
9
9
9
9
9
9
9
9
9
9
9
9
9
9
9
9
9
9
9
9
9
9
9
9
9
9
9
9
9
9
9
9
9
9
9
9
9
9
9
9
9
9
9
9
9
9
9
9
9
9
9
9
9
9
9
9
9
9
9
9
9
9
9
9
9
9
9
9
9
9
9
9
9
9
9
9
9
9
9
9
9
9
9
9
9
9
9
9
9
9
9
9
9
9
9
9
9
9
9
9
9
9
9
9
9
9
9
9
9
9
9
9
9
9
9
9
9
9
9
9
9
9
9
9
9
9
9
9
9
9
9
9
9
9
9
9
9
9
9
9
9
9
9
9
9
9
9
9
9
9
9
9
9
9
9
9
9
9
9
9
9
9
9
9
9
9
9
9
9
9
9
9
9
9
9
9
9
9
9
9
9
9
9
9
9
9
9
9
9
9
9
9
9
9
9
9
9
9
9
9
9
9
9
9
9
9
9
9
9
9
9
9
9
9
9
9
9
9
9
9
9
9
9
9
9
9
9
9
9
9
9
9
9
9
9
9
9
9
9
9
9
9
9
9
9
9
9
9
9
9
9
9
9
9
9
9
9
9
9
9
9
9
9
9
9
9
9
9
9
9
9
9
9
9
9
9
9
9
9
9
9
9
9
9
9
9
9
9
9
9
9
9
9
9
9
9
9
9
9
9
9
9
9
9
9
9
9
9
9
9
9
9
9
9
9
9
9
9
9
9
9
9
9
9
9
9
9
9
9
9
9
9
9
9
9
9
9
9
9
9
9
9
9
9
9
9
9
9
9
9
9
9
9
9
9
9
9
9
9
9
9
9
9
9
9
9
9
9
9
9
9
9
9
9
9
9
9
9
9
9
9
9
9
9
9
9
9
9
9
9
9
9
9
9
9
9
9
9
9
9
9
9
9
9
9
9
9
9
9
9
9
9
9
9
9
9
9
9
9
9
9
9
9
9
9
9
9
9
9
9
9
9
9
9
9
9
9
9
9
9
9
9
9
9
9
9
9
9
9
9
9
9
9
9
9
9
9
9
9
9
9
9
9
9
9
9
9
9
9
9
9
9
9
9
9
9
9
9
9
9
9
9
9
9
9
9
9
9
9
9
9
9
9
9
9
9
9
9
9
9
9
9
9
9
9
9
9
9
9
9
9
9
9
9
9
9
9
9
9
9
9
9
9
9
9
9
9
9
9
9
9
9
9
9
9
9
9
9
9
9
9
9
9
9
9
9
9
9
9
9
9
9
9
9
9
9
9
9
9
9
9
9
9
9
9
9
9
9
9
9
9
9
9
9
9
9
9
9
9
9
9
9
9
9
9
9
9
9
9
9
9
9
9
9
9
9
9
9
9
9
9
9
9
9
9
9
9
9
9
9
9
9
9
9
9
9
9
9
9
9
9
9
9
9
9
9
9
9
9
9
9
9
9
9
9
9
9
9
9
9
9
9
9
9
9
9
9
9
9
9
9
9
9
9
9
9
9
9
9
9
9
9
9
9
9
9
9
9
9
9
9
9
9
9
9
9
9
9
9
9
9
9
9
9
9
9
9
9
9
9
9
9
9
9
9
9
9
9
9
9
9
9
9
9
9
9
9
9
9
9
9
9
9
9
9
9
9
9
9
9
9
9
9
9
9
9
9
9
9
9
9
9
9
9
9
9
9
9
9
9
9
9
9
9
9
9
9
9
9
9
9
9
9
9
9
9
9
9
9
9
9
9
9
9
9
9
9
9
9
9
9
9
9
9
9
9
9
9
9
9
9
9
9
9
9
9
9
9
9
9
9
9
9
9
9
9
9
9
9
9
9
9
9
9
9
9
9
9
9
9
9
9
9
9
9
9
9
9
9
9
9
9
9
9
9
9
9
9
9
9
9
9
9
9
9
9
9
9
9
9
9
9
9
9
9
9
9
9
9
9
9
9
9
9
9
9
9
9
9
9
9
9
9
9
9
9
9
9
9
9
9
9
9
9
9
9
9
9
9
9
9
9
9
9
9
9
9
9
9
9
9
9
9
9
9
9
9
9
9
9
9
9
9
9
9
9
9
9
9
9
9
9
9
9
9
9
9
9
9
9
9
9
9
9
9
9
9
9
9
9
9
9
9
9
9
9
9
9
9
9
9
9
9
9
9
9
9
9
9
9
9
9
9
9
9
9
9
9
9
9
9
9
9
9
9
9
9
9
9
9
9
9
9
9
9
9
9
9
9
9
9
9
9
9
9
9
9
9
9
9
9
9
9
9
9
9
9
9
9
9
9
9
9
9
9
9
9
9
9
9
9
9
9
9
9
9
9
9
9
9
9
9
9
9
9
9
9
9
9
9
9
9
9
9
9
9
9
9
9
9
9
9
9
9
9
9
9
9
9
9
9
9
9
9
9
9
9
9
9
9
9
9
9
9
9
9
9
9
9
9
9
9
9
9
9
9
9
9
9
9
9
9
9
9
9
9
9
9
9
9
9
9
9
9
9
9
9
9
9
9
9
9
9
9
9
9
9
9
9
9
9
9
9
9
9
9
9
9
9
9
9
9
9
9
9
9
9
9
9
9
9
9
9
9
9
9
9
9
9
9
9
9
9
9
9
9
9
9
9
9
9
9
9
9
9
9
9
9
9
9
9
9
9
9
9
9
9
9
9
9
9
9
9
9
9
9
9
9
9
9
9
9
9
9
9
9
9
9
9
9
9
9
9
9
9
9
9
9
9
9
9
9
9
9
9
9
9
9
9
9
9
9
9
9
9
9
9
9
9
9
9
9
9
9
9
9
9
9
9
9
9
9
9
9
9
9
9
9
9
9
9
9
9
9
9
9
9
9
9
9
9
9
9
9
9
9
9
9
9
9
9
9
9
9
9
9
9
9
9
9
9
9
9
9
9
9
9
9
9
9
9
9
9
9
9
9
9
9
9
9
9
9
9
9
9
9
9
9
9
9
9
9
9
9
9
9
9
9
9
9
9
9
9
9
9
9
9
9
9
9
9
9
9
9
9
9
9
9
9
9
9
9
9
9
9
9
9
9
9
9
9
9
9
9
9
9
9
9
9
9
9
9
9
9
9
9
9
9
9
9
9
9
9
9
9
9
9
9
9
9
9
9
9
9
9
9
9
9
9
9
9
9
9
9
9
9
9
9
9
9
9
9
9
9
9
9
9
9
9
9
9
9
9
9
9
9
9
9
9
9
9
9
9
9
9
9
9
9
9
9
9
9
9
9
9
9
9
9
9
9
9
9
9
9
9
9
9
9
9
9
9
9
9
9
9
9
9
9
9
9
9
9
9
9
9
9
9
9
9
9
9
9
9
9
9
9
9
9
9
9
9
9
9
9
9
9
9
9
9
9
9
9
9
9
9
9
9
9
9
9
9
9
9
9
9
9
9
9
9
9
9
9
9
9
9
9
9
9
9
9
9
9
9
9
9
9
9
9
9
9
9
9
9
9
9
9
9
9
9
9
9
9
9
9
9
9
9
9
9
9
9
9
9
9
9
9
9
9
9
9
9
9
9
9
9
9
9
9
9
9
9
9
9
9
9
9
9
9
9
9
9
9
9
9
9
9
9
9
9
9
9
9
9
9
9
9
9
9
9
9
9
9
9
9
9
9
9
9
9
9
9
9
9
9
9
9
9
9
9
9
9
9
9
9
9
9
9
9
9
9
9
9
9
9
9
9
9
9
9
9
9
9
9
9
9
9
9
9
9
9
9
9
9
9
9
9
9
9
9
9
9
9
9
9
9
9
9
9
9
9
9
9
9
9
9
9
9
9
9
9
9
9
9
9
9
9
9
9
9
9
9
9
9
9
9
9
9
9
9
9
9
9
9
9
9
9
9
9
9
9
9
9
9
9
9
9
9
9
9
9
9
9
9
9
9
9
9
9
9
9
9
9
9
9
9
9
9
9
9
9
9
9
9
9
9
9
9
9
9
9
9
9
9
9
9
9
9
9
9
9
9
9
9
9
9
9
9
9
9
9
9
9
9
9
9
9
9
9
9
9
9
9
9
9
9
9
9
9
9
9
9
9
9
9
9
9
9
9
9
9
9
9
9
9
9
9
9
9
9
9
9
9
9
9
9
9
9
9
9
9
9
9
9
9
9
9
9
9
9
9
9
9
9
9
9
9
9
9
9
9
9
9
9
9
9
9
9
9
9
9
9
9
9
9
9
9
9
9
9
9
9
9
9
9
9
9
9
9
9
9
9
9
9
9
9
9
9
9
9
9
9
9
9
9
9
9
9
9
9
9
9
9
9
9
9
9
9
9
9
9
9
9
9
9
9
9
9
9
9
9
9
9
9
9
9
9
9
9
9
9
9
9
9
9
9
9
9
9
9
9
9
9
9
9
9
9
9
9
9
9
9
9
9
9
9
9
9
9
9
9
9
9
9
9
9
9
9
9
9
9
9
9
9
9
9
9
9
9
9
9
9
9
9
9
9
9
9
9
9
9
9
9
9
9
9
9
9
9
9
9
9
9
9
9
9
9
9
9
9
9
9
9
9
9
9
9
9
9
9
9
9
9
9
9
9
9
9
9
9
9
9
9
9
9
9
9
9
9
9
9
9
9
9
9
9
9
9
9
9
9
9
9
9
9
9
9
9
9
9
9
9
9
9
9
9
9
9
9
9
9
9
9
9
9
9
9
9
9
9
9
9
9
9
9
9
9
9
9
9
9
9
9
9
9
9
9
9
9
9
9
9
9
9
9
9
9
9
9
9
9
9
9
9
9
9
9
9
9
9
9
9
9
9
9
9
9
9
9
9
9
9
9
9
9
9
9
9
9
9
9
9
9
9
9
9
9
9
9
9
9
9
9
9
9
9
9
9
9
9
9
9
9
9
9
9
9
9
9
9
9
9
9
9
9
9
9
9
9
9
9
9
9
9
9
9
9
9
9
9
9
9
9
9
9
9
9
9
9
9
9
9
9
9
9
9
9
9
9
9
9
9
9
9
9
9
9
9
9
9
9
9
9
9
9
9
9
9
9
9
9
9
9
9
9
9
9
9
9
9
9
9
9
9
9
9
9
9
9
9
9
9
9
9
9
9
9
9
9
9
9
9
9
9
9
9
9
9
9
9
9
9
9
9
9
9
9
9
9
9
9
9
9
9
9
9
9
9
9
9
9
9
9
9
9
9
9
9
9
9
9
9
9
9
9
9
9
9
9
9
9
9
9
9
9
9
9
9
9
9
9
9
9
9
9
9
9
9
9
9
9
9
9
9
9
9
9
9
9
9
9
9
9
9
9
9
9
9
9
9
9
9
9
9
9
9
9
9
9
9
9
9
9
9
9
9
9
9
9
9
9
9
9
9
9
9
9
9
9
9
9
9
9
9
9
9
9
9
9
9
9
9
9
9
9
9
9
9
9
9
9
9
9
9
9
9
9
9
9
9
9
9
9
9
9
9
9
9
9
9
9
9
9
9
9
9
9
9
9
9
9
9
9
9
9
9
9
9
9
9
9
9
9
9
9
9
9
9
9
9
9
9
9
9
9
9
9
9
9
9
9
9
9
9
9
9
9
9
9
9
9
9
9
9
9
9
9
9
9
9
9
9
9
9
9
9
9
9
9
9
9
9
9
9
9
9
9
9
9
9
9
9
9
9
9
9
9
9
9
9
9
9
9
9
9
9
9
9
9
9
9
9
9
9
9
9
9
9
9
9
9
9
9
9
9
9
9
9
9
9
9
9
9
9
9
9
9
9
9
9
9

CELL_DATA 4740
FIELD FieldData 7
B_Stress_n_p_m2 1 4740 float
0.0697042 0.0868108 0.0920456 0.10324 0.110256 0.114407 0.116785 0.117942 0.118375 
0.118416 0.118276 0.11809 0.117933 0.117845 0.117839 0.117912 0.118054 0.118253 
0.118493 0.118738 0.118915 0.118895 0.118463 0.117285 0.114866 0.110661 0.103582 
0.0923191 0.0870305 0.0698811 0.203435 0.0421133 0.0817952 0.101378 0.110564 0.118485 
0.124006 0.127711 0.1301 0.131552 0.132386 0.132839 0.133069 0.133181 0.13324 
0.133278 0.133295 0.133262 0.133107 0.132718 0.131927 0.130499 0.128116 0.124407 
0.11887 0.110922 0.101698 0.0820542 0.0422798 0.203867 0.118736 0.0668778 0.0902564 
0.106462 0.115394 0.121731 0.12587 0.128443 0.129966 0.130804 0.131224 0.131411 
0.131486 0.131522 0.131558 0.131612 0.131678 0.131736 0.131741 0.131614 0.131235 
0.130419 0.1289 0.126315 0.122149 0.115772 0.10679 0.0905187 0.0670683 0.11904 
0.104695 0.0864374 0.0996708 0.112689 0.121414 0.127594 0.131765 0.134462 0.136138 
0.13713 0.137687 0.137984 0.138141 0.13823 0.138292 0.138344 0.138382 0.138383 
0.138302 0.138062 0.137546 0.136577 0.134907 0.132199 0.128004 0.121787 0.113016 
0.0999416 0.0866645 0.104999 0.117519 0.10692 0.11492 0.125154 0.1333 0.139595 
0.144176 0.147367 0.149514 0.15091 0.151789 0.152328 0.152654 0.152848 0.152959 
0.153006 0.152988 0.152878 0.152625 0.152143 0.151306 0.149935 0.147797 0.1446 
0.140001 0.133677 0.125493 0.115216 0.107181 0.117756 0.137105 0.132796 0.138547 
0.146701 0.154195 0.16051 0.165438 0.169092 0.171702 0.173507 0.174722 0.175519 
0.176029 0.176339 0.176506 0.176553 0.176477 0.17625 0.175814 0.175076 0.173905 
0.172128 0.169531 0.165875 0.160934 0.154595 0.147072 0.138886 0.133116 0.137364 
0.156523 0.156698 0.161487 0.168078 0.174793 0.180858 0.185869 0.189779 0.192706 
0.194825 0.196318 0.197341 0.198018 0.198438 0.198658 0.198703 0.198572 0.198234 
0.197629 0.196666 0.195219 0.19313 0.19022 0.186313 0.181293 0.175212 0.168474 
0.161861 0.157059 0.156942 0.168897 0.171644 0.175524 0.180696 0.186418 0.191869 
0.196582 0.200415 0.203399 0.205644 0.207283 0.208446 0.209237 0.209737 0.209995 
0.210037 0.209859 0.209436 0.208711 0.207605 0.20601 0.203797 0.200831 0.197005 
0.192289 0.186827 0.181089 0.175901 0.172016 0.169343 0.186737 0.190392 0.193558 
0.197871 0.202931 0.207932 0.2124 0.216156 0.219176 0.221523 0.223291 0.224581 
0.225479 0.226054 0.22635 0.226389 0.226168 0.225664 0.224829 0.223593 0.221868 
0.219554 0.216554 0.21281 0.208343 0.203337 0.198266 0.19394 0.190754 0.187133 
0.222269 0.224387 0.227411 0.231645 0.2366 0.241566 0.246089 0.249983 0.253199 
0.255766 0.257751 0.259233 0.260285 0.260966 0.261315 0.261354 0.261079 0.260469 
0.259481 0.258054 0.256115 0.253583 0.250392 0.246513 0.241996 0.23703 0.23207 
0.227829 0.224804 0.222538 0.271204 0.270014 0.273276 0.277926 0.283072 0.288193 
0.292901 0.297021 0.300496 0.303331 0.305572 0.307278 0.308507 0.309311 0.309725 
0.309764 0.309428 0.308697 0.307533 0.305886 0.303695 0.300899 0.297454 0.293353 
0.288656 0.283539 0.278393 0.27374 0.270488 0.271735 0.324941 0.320665 0.324382 
0.329586 0.334968 0.340241 0.345104 0.349409 0.353095 0.356154 0.358613 0.360512 
0.361898 0.36281 0.363279 0.363319 0.362929 0.362091 0.360774 0.358936 0.356531 
0.353514 0.349862 0.345582 0.340734 0.335471 0.330091 0.324886 0.321158 0.325446 
0.36409 0.359442 0.363528 0.368908 0.374238 0.379391 0.384157 0.38841 0.392093 
0.395188 0.397706 0.399672 0.401119 0.402077 0.402569 0.402608 0.402191 0.401306 
0.399927 0.398022 0.395558 0.392508 0.388861 0.384635 0.379889 0.374748 0.369425 
0.364046 0.359961 0.364616 0.374626 0.372704 0.376708 0.38164 0.386487 0.391153 
0.395482 0.399372 0.402768 0.405648 0.408011 0.409871 0.41125 0.412168 0.41264 
0.412675 0.412271 0.41142 0.410103 0.408299 0.405985 0.403148 0.399787 0.395926 
0.391617 0.386966 0.382128 0.377201 0.373198 0.375127 0.372293 0.37394 0.377802 
0.382154 0.386448 0.390569 0.394397 0.397848 0.400877 0.403459 0.40559 0.407277 
0.408534 0.409372 0.409804 0.409835 0.409463 0.408682 0.407481 0.405844 0.403757 
0.401214 0.398219 0.394794 0.390987 0.386882 0.382597 0.378251 0.374392 0.372746 
0.371585 0.375331 0.379279 0.383308 0.387226 0.390942 0.394375 0.397465 0.400178 
0.402496 0.404414 0.405937 0.407073 0.407833 0.408224 0.408251 0.407912 0.407203 
0.406115 0.404637 0.402759 0.400477 0.397795 0.394729 0.391317 0.387617 0.383709 
0.379687 0.375741 0.371994 0.372039 0.376464 0.380553 0.384453 0.388137 0.391564 
0.394692 0.397489 0.399936 0.402023 0.403749 0.405121 0.406144 0.406829 0.407182 
0.407205 0.406899 0.406259 0.405277 0.403946 0.402255 0.4002 0.397782 0.395008 
0.391899 0.388487 0.384814 0.38092 0.376834 0.372407 0.372688 0.37728 0.381446 
0.385283 0.388811 0.392027 0.394921 0.397482 0.399707 0.401595 0.403152 0.404387 
0.405307 0.405923 0.406239 0.406259 0.405983 0.405407 0.404524 0.403324 0.401799 
0.39994 0.397741 0.395201 0.392326 0.389123 0.385605 0.381775 0.377611 0.373017 
0.373333 0.377957 0.382138 0.385921 0.389333 0.392391 0.395102 0.397473 0.399515 
0.401235 0.402646 0.403761 0.404589 0.405142 0.405425 0.405443 0.405194 0.404676 
0.40388 0.402797 0.401414 0.399719 0.397701 0.395349 0.392654 0.38961 0.386207 
0.38243 0.378251 0.373625 0.373912 0.378538 0.382705 0.386433 0.389751 0.392683 
0.395249 0.397469 0.399359 0.40094 0.402227 0.403238 0.403986 0.404483 0.404738 
0.404753 0.404529 0.404061 0.403341 0.402358 0.401095 0.399538 0.397667 0.395466 
0.392915 0.389995 0.386685 0.382962 0.378798 0.37417 0.374408 0.379032 0.383173 
0.386849 0.390088 0.392918 0.395367 0.397462 0.399229 0.400693 0.401876 0.402799 
0.403479 0.403929 0.404158 0.404171 0.403968 0.403544 0.402889 0.40199 0.400828 
0.399384 0.397635 0.395555 0.39312 0.3903 0.38707 0.383399 0.37926 0.374634 
0.374827 0.379447 0.383561 0.38719 0.39036 0.393106 0.395459 0.397452 0.399118 
0.400485 0.401581 0.40243 0.403051 0.40346 0.403668 0.403679 0.403494 0.403107 
0.402507 0.401678 0.400601 0.399252 0.397602 0.395622 0.39328 0.390545 0.387381 
0.383757 0.379645 0.375023 0.375178 0.379794 0.383884 0.38747 0.390582 0.393256 
0.39553 0.397439 0.39902 0.400306 0.401329 0.402116 0.402688 0.403063 0.403252 
0.403262 0.403092 0.402736 0.402182 0.401413 0.400406 0.399134 0.397567 0.39567 
0.393407 0.390741 0.387635 0.384053 0.379965 0.375348 0.375475 0.380087 0.384154 
0.387702 0.390764 0.393378 0.395583 0.397421 0.398931 0.40015 0.401112 0.401846 
0.402376 0.402722 0.402896 0.402904 0.402747 0.402417 0.401902 0.401183 0.400235 
0.399029 0.397531 0.395703 0.393506 0.390899 0.387843 0.384298 0.380233 0.37562 
0.375729 0.380335 0.384382 0.387897 0.390914 0.393476 0.395623 0.397401 0.39885 
0.400011 0.40092 0.401609 0.402104 0.402425 0.402586 0.402593 0.402446 0.402139 
0.401657 0.40098 0.400083 0.398933 0.397493 0.395725 0.393585 0.39103 0.388016 
0.384505 0.38046 0.375852 0.375949 0.380551 0.384579 0.388063 0.391041 0.393556 
0.395653 0.397376 0.398772 0.399883 0.400747 0.401397 0.401861 0.402161 0.40231 
0.402316 0.402178 0.40189 0.401437 0.400797 0.399943 0.398842 0.397454 0.395738 
0.393648 0.391138 0.388164 0.384682 0.380655 0.376053 0.376146 0.380742 0.384752 
0.388209 0.391151 0.393623 0.395673 0.397348 0.398697 0.399762 0.400585 0.401201 
0.401638 0.401919 0.402058 0.402063 0.401933 0.401662 0.401234 0.400627 0.399812 
0.398755 0.397413 0.395744 0.3937 0.391232 0.388293 0.384839 0.380829 0.376233 
0.376328 0.380918 0.384911 0.38834 0.391248 0.39368 0.395686 0.397317 0.398621 
0.399645 0.400431 0.401015 0.401428 0.401691 0.401821 0.401825 0.401703 0.401448 
0.401043 0.400466 0.399687 0.398669 0.39737 0.395745 0.393743 0.391315 0.38841 
0.384982 0.38099 0.376399 0.376501 0.381085 0.38506 0.388463 0.391337 0.39373 
0.395694 0.397282 0.398544 0.399528 0.400279 0.400834 0.401223 0.401471 0.401592 
0.401595 0.40148 0.401239 0.400856 0.400308 0.399562 0.398583 0.397326 0.395742 
0.393782 0.391392 0.38852 0.385118 0.381144 0.376559 0.376672 0.381248 0.385206 
0.388582 0.391422 0.393776 0.395698 0.397243 0.398463 0.399409 0.400126 0.400652 
0.401019 0.401251 0.401365 0.401367 0.401259 0.401032 0.40067 0.400149 0.399437 
0.398495 0.397278 0.395737 0.393818 0.391466 0.388628 0.385253 0.381296 0.376719 
0.376846 0.381414 0.385353 0.388701 0.391506 0.39382 0.395699 0.3972 0.398378 
0.399285 0.399968 0.400466 0.400811 0.401028 0.401133 0.401135 0.401034 0.400821 
0.40048 0.399986 0.399307 0.398403 0.397228 0.39573 0.393853 0.391542 0.388739 
0.385391 0.381453 0.376884 0.377028 0.381588 0.385506 0.388825 0.391592 0.393863 
0.395697 0.397152 0.398287 0.399155 0.399802 0.400271 0.400594 0.400796 0.400894 
0.400895 0.400801 0.400602 0.400283 0.399817 0.399172 0.398307 0.397175 0.395721 
0.39389 0.39162 0.388854 0.385536 0.381618 0.377059 0.377223 0.381772 0.385669 
0.388954 0.391681 0.393907 0.395692 0.3971 0.398189 0.399015 0.399626 0.400065 
0.400366 0.400552 0.400642 0.400643 0.400556 0.400372 0.400074 0.399638 0.399028 
0.398205 0.397117 0.395712 0.393928 0.391703 0.388978 0.385692 0.381796 0.377247 
0.377434 0.381972 0.385844 0.389094 0.391777 0.393952 0.395686 0.397042 0.398082 
0.398864 0.399438 0.399846 0.400122 0.400293 0.400375 0.400376 0.400296 0.400127 
0.399853 0.399446 0.398874 0.398094 0.397056 0.395701 0.393969 0.391794 0.389112 
0.385863 0.381991 0.377453 0.377666 0.382192 0.386036 0.389246 0.39188 0.394001 
0.395678 0.396977 0.397965 0.3987 0.399234 0.399609 0.399861 0.400016 0.400089 
0.40009 0.400018 0.399865 0.399615 0.39924 0.398708 0.397975 0.396988 0.395689 
0.394013 0.391893 0.38926 0.38605 0.382206 0.37768 0.377924 0.382435 0.386248 
0.389414 0.391993 0.394053 0.395667 0.396906 0.397837 0.398521 0.399012 0.399354 
0.39958 0.399717 0.399782 0.399782 0.399719 0.399583 0.399358 0.399017 0.398527 
0.397844 0.396914 0.395676 0.394063 0.392003 0.389424 0.386259 0.382446 0.377935 
0.378212 0.382706 0.386485 0.3896 0.392117 0.394109 0.395653 0.396825 0.397695 
0.398325 0.398771 0.399076 0.399276 0.399395 0.399451 0.399451 0.399396 0.399278 
0.399079 0.398774 0.39833 0.3977 0.396831 0.39566 0.394116 0.392124 0.389607 
0.386493 0.382714 0.37822 0.378537 0.383012 0.386749 0.389806 0.392253 0.394169 
0.395636 0.396734 0.397536 0.398109 0.398506 0.398773 0.398945 0.399046 0.399093 
0.399094 0.399047 0.398947 0.398776 0.398509 0.398112 0.39754 0.396738 0.395641 
0.394174 0.392259 0.389812 0.386755 0.383018 0.378543 0.378906 0.383358 0.387047 
0.390037 0.392404 0.394233 0.395613 0.39663 0.397359 0.397869 0.398215 0.398443 
0.398586 0.398669 0.398706 0.398707 0.398669 0.398587 0.398445 0.398217 0.397871 
0.397362 0.396633 0.395617 0.394237 0.392408 0.390041 0.387052 0.383362 0.37891 
0.379326 0.383751 0.387385 0.390296 0.39257 0.3943 0.395583 0.396509 0.397159 
0.397602 0.397895 0.398082 0.398196 0.398259 0.398288 0.398288 0.39826 0.398196 
0.398083 0.397897 0.397604 0.397161 0.396511 0.395586 0.394303 0.392572 0.390299 
0.387388 0.383754 0.379329 0.379811 0.384203 0.387769 0.390587 0.392752 0.394369 
0.395542 0.396368 0.396932 0.397304 0.397541 0.397686 0.39777 0.397815 0.397835 
0.397835 0.397816 0.397771 0.397687 0.397542 0.397305 0.396933 0.396369 0.395543 
0.39437 0.392754 0.390589 0.387771 0.384205 0.379813 0.380372 0.384724 0.388208 
0.390914 0.39295 0.394435 0.395484 0.3962 0.396671 0.396969 0.397149 0.397252 
0.397307 0.397334 0.397345 0.397345 0.397335 0.397308 0.397253 0.39715 0.39697 
0.396672 0.396201 0.395485 0.394437 0.392951 0.390915 0.38821 0.384725 0.380374 
0.38103 0.385331 0.388712 0.39128 0.393163 0.394495 0.395404 0.395999 0.396371 
0.396592 0.396715 0.396777 0.396804 0.396814 0.396817 0.396817 0.396814 0.396804 
0.396777 0.396715 0.396593 0.396372 0.395999 0.395404 0.394496 0.393164 0.391281 
0.388713 0.385332 0.381031 0.381811 0.386044 0.389294 0.39169 0.393386 0.394539 
0.395289 0.395753 0.396022 0.396165 0.396232 0.396255 0.396258 0.396252 0.396248 
0.396248 0.396253 0.396258 0.396256 0.396232 0.396166 0.396022 0.395753 0.39529 
0.39454 0.393387 0.39169 0.389294 0.386045 0.381812 0.382751 0.386891 0.389965 
0.392141 0.393609 0.394552 0.395125 0.395449 0.395614 0.395682 0.395698 0.395687 
0.395668 0.395651 0.395641 0.395641 0.395651 0.395668 0.395687 0.395698 0.395682 
0.395614 0.395449 0.395125 0.394553 0.393609 0.392141 0.389965 0.386891 0.382751 
0.383901 0.387906 0.390737 0.392623 0.39381 0.39451 0.394891 0.395073 0.395138 
0.395139 0.395111 0.395074 0.395039 0.395014 0.395 0.395 0.395014 0.395039 
0.395074 0.395111 0.395139 0.395138 0.395073 0.394892 0.394511 0.39381 0.392623 
0.390737 0.387907 0.383901 0.385365 0.389152 0.391617 0.393109 0.393946 0.394372 
0.394554 0.3946 0.394578 0.394527 0.394469 0.394415 0.394372 0.394343 0.394328 
0.394328 0.394343 0.394372 0.394415 0.394469 0.394527 0.394578 0.394601 0.394554 
0.394372 0.393946 0.393109 0.391617 0.389152 0.385365 0.387328 0.390686 0.392552 
0.393494 0.393912 0.394051 0.394052 0.393993 0.393916 0.39384 0.393774 0.393721 
0.393682 0.393656 0.393644 0.393644 0.393656 0.393682 0.393721 0.393774 0.39384 
0.393916 0.393993 0.394052 0.394051 0.393912 0.393494 0.392552 0.390686 0.387328 
0.389758 0.392156 0.393162 0.393522 0.393601 0.393568 0.393498 0.393423 0.393356 
0.393302 0.393259 0.393228 0.393206 0.393192 0.393186 0.393186 0.393192 0.393206 
0.393228 0.393259 0.393302 0.393356 0.393423 0.393498 0.393568 0.393601 0.393522 
0.393162 0.392156 0.389758 852.109 1616.88 1905.81 2119.13 2258.17 2336.59 
2377.27 2394.5 2398.94 2397.05 2391.31 2385.7 2381.33 2379.87 2380.51 
2383.42 2387.21 2391.95 2397.74 2404.51 2410.87 2414.16 2409.89 2391.91 
2349.21 2268.75 2127.88 1912.98 1621.61 854.933 713.479 1494.39 1837.77 
2057.43 2197.04 2274.15 2312.38 2327.31 2329.67 2326.02 2319.54 2313.38 
2308.74 2306.75 2307.01 2309.43 2313.14 2318.08 2324.3 2331.62 2338.81 
2343.41 2341.15 2325.54 2285.68 2206.8 2065.46 1844.15 1498.57 715.263 
698.221 1388.15 1757.49 1987.37 2128.13 2204.57 2241.41 2254.98 2256.11 
2251.44 2244.51 2238.03 2233.22 2230.91 2230.88 2232.95 2236.54 2241.57 
2248.04 2255.65 2263.29 2268.65 2267.56 2253.38 2215.21 2137.21 1994.83 
1763.3 1391.96 699.742 718.706 1316.04 1685.64 1917.13 2057.19 2133.49 
2170.42 2184.23 2185.6 2181.13 2174.54 2168.31 2163.67 2161.28 2161.09 
2162.89 2166.28 2171.16 2177.44 2184.78 2192.08 2197.08 2195.72 2181.35 
2143.3 2065.62 1924.07 1691.02 1319.59 720.248 733.94 1283.35 1630.58 
1851.6 1987.56 2063.39 2101.22 2116.38 2119.07 2115.71 2110.08 2104.55 
2100.36 2098.12 2097.87 2099.45 2102.57 2107.09 2112.87 2119.48 2125.79 
2129.58 2126.88 2111.22 2072.43 1995.38 1858.06 1635.6 1286.74 735.554 
727.36 1270.51 1585.55 1790.08 1920.27 1995.73 2035.22 2052.61 2057.43 
2055.85 2051.64 2047.12 2043.57 2041.63 2041.41 2042.81 2045.61 2049.65 
2054.71 2060.27 2065.14 2067.1 2062.27 2044.43 2004.1 1927.55 1796.13 
1590.28 1273.79 728.992 699.05 1254.06 1543.68 1735.77 1861.49 1937.26 
1978.93 1998.91 2006.1 2006.46 2003.74 2000.27 1997.39 1995.78 1995.63 
1996.9 1999.4 2002.96 2007.28 2011.75 2015.12 2015.12 2007.91 1987.54 
1945.12 1868.37 1741.51 1548.2 1257.24 700.623 728.953 1261.7 1521.74 
1710.82 1833.71 1908.8 1951.19 1972.2 1980.39 1981.58 1979.51 1976.5 
1973.92 1972.45 1972.33 1973.54 1975.91 1979.26 1983.25 1987.25 1989.96 
1989.11 1980.91 1959.54 1916.45 1840.43 1716.46 1526.21 1264.9 730.639 
0.123615 0.124977 0.126402 0.127879 0.129393 0.130924 0.13245 0.133947 0.135386 
0.136743 0.137991 0.139105 0.140065 0.140852 0.141452 0.141857 0.14206 0.142063 
0.14187 0.14149 0.140935 0.140222 0.139369 0.138394 0.137318 0.13616 0.134937 
0.133664 0.132352 0.131008 0.123073 0.124453 0.125911 0.127437 0.129014 0.130619 
0.132228 0.133812 0.13534 0.136783 0.138112 0.139299 0.140321 0.141158 0.141793 
0.142217 0.142426 0.142418 0.1422 0.141783 0.141181 0.140413 0.1395 0.138464 
0.137328 0.136114 0.134843 0.133532 0.132194 0.130838 0.122621 0.124015 0.125503 
0.127073 0.128707 0.130379 0.132062 0.133723 0.135331 0.136851 0.138251 0.139502 
0.140577 0.141455 0.142119 0.142557 0.142764 0.142742 0.142496 0.142039 0.141389 
0.140565 0.139592 0.138495 0.137301 0.136033 0.134715 0.133366 0.132003 0.130634 
0.122076 0.123486 0.125009 0.126631 0.128333 0.130085 0.131858 0.133614 0.135317 
0.13693 0.138417 0.139745 0.140886 0.141814 0.142511 0.142966 0.143173 0.143134 
0.142855 0.142351 0.141642 0.140752 0.139707 0.138536 0.13727 0.135936 0.134562 
0.133169 0.131775 0.130391 0.121495 0.122921 0.124482 0.126162 0.127938 0.129778 
0.131647 0.133506 0.135313 0.137026 0.138607 0.140019 0.141229 0.142211 0.142944 
0.143417 0.143622 0.143561 0.143245 0.142688 0.141913 0.140948 0.139822 0.13857 
0.137224 0.135817 0.134379 0.132936 0.131509 0.130109 0.120864 0.122308 0.123911 
0.125654 0.127511 0.129448 0.131423 0.133394 0.135314 0.137138 0.138822 0.140324 
0.14161 0.142651 0.143423 0.143914 0.144116 0.144032 0.143673 0.143057 0.142209 
0.141161 0.139945 0.138601 0.137166 0.135677 0.134169 0.132671 0.131206 0.129789 
0.120187 0.121651 0.123299 0.125111 0.127056 0.129097 0.131188 0.133281 0.135325 
0.137268 0.139063 0.140663 0.142032 0.143135 0.143949 0.144458 0.144657 0.144546 
0.14414 0.143458 0.142529 0.141388 0.140073 0.138628 0.137094 0.135515 0.133928 
0.132369 0.130862 0.129425 0.119459 0.120945 0.122643 0.124529 0.126571 0.128725 
0.130942 0.133167 0.135344 0.137417 0.139331 0.141038 0.142495 0.143666 0.144524 
0.145053 0.145246 0.145107 0.144648 0.143893 0.142875 0.141631 0.140207 0.13865 
0.137007 0.135328 0.133655 0.132027 0.130474 0.129016 0.118681 0.12019 0.121941 
0.123909 0.126055 0.128332 0.130684 0.133052 0.135373 0.137585 0.139629 0.14145 
0.143002 0.144246 0.145152 0.145702 0.145888 0.145716 0.145199 0.144364 0.143248 
0.141892 0.140348 0.138667 0.136905 0.135115 0.133347 0.131644 0.13004 0.128558 
0.117848 0.119383 0.121192 0.123247 0.125506 0.127915 0.130414 0.132936 0.135412 
0.137774 0.139957 0.141902 0.143557 0.144878 0.145835 0.146407 0.146586 0.146376 
0.145796 0.144874 0.14365 0.142172 0.140495 0.138679 0.136786 0.134875 0.133002 
0.131216 0.129556 0.128048 0.116959 0.118522 0.120394 0.122543 0.124923 0.127475 
0.130132 0.132819 0.135462 0.137986 0.140319 0.142396 0.14416 0.145565 0.146576 
0.147171 0.147342 0.147092 0.146442 0.145425 0.144083 0.142471 0.14065 0.138686 
0.136649 0.134605 0.132617 0.13074 0.129018 0.127482 0.116012 0.117604 0.119544 
0.121795 0.124305 0.127011 0.129837 0.132702 0.135524 0.138221 0.140715 0.142933 
0.144816 0.14631 0.14738 0.147999 0.14816 0.147867 0.147141 0.14602 0.14455 
0.142792 0.140814 0.138689 0.136494 0.134304 0.13219 0.130213 0.128424 0.126856 
0.115004 0.116628 0.118641 0.121001 0.123652 0.126522 0.129529 0.132585 0.135599 
0.138481 0.141146 0.143517 0.145526 0.147116 0.148248 0.148894 0.149043 0.148703 
0.147896 0.146661 0.145053 0.143137 0.140987 0.138686 0.136319 0.13397 0.131718 
0.129632 0.127769 0.126166 0.113933 0.115593 0.117683 0.12016 0.12296 0.126006 
0.129207 0.132467 0.135686 0.138766 0.141615 0.144149 0.146292 0.147986 0.149184 
0.149858 0.149996 0.149604 0.148709 0.147353 0.145595 0.143507 0.141172 0.13868 
0.136126 0.133603 0.1312 0.128994 0.12705 0.125409 0.112799 0.114495 0.116668 
0.11927 0.122231 0.125464 0.128872 0.132349 0.135786 0.139078 0.142124 0.14483 
0.147119 0.148923 0.150193 0.150897 0.151022 0.150575 0.149585 0.148098 0.146178 
0.143904 0.141368 0.138669 0.135911 0.1332 0.130632 0.128296 0.126262 0.12458 
0.111598 0.113334 0.115596 0.118331 0.121461 0.124894 0.128522 0.13223 0.1359 
0.139417 0.142672 0.145564 0.148007 0.149929 0.151276 0.152012 0.152125 0.15162 
0.150528 0.1489 0.146806 0.144332 0.141578 0.138654 0.135676 0.132759 0.130013 
0.127534 0.125404 0.123676 0.110331 0.112109 0.114465 0.117341 0.120652 0.124297 
0.128158 0.132111 0.136028 0.139785 0.143262 0.146352 0.14896 0.151008 0.152437 
0.153209 0.153308 0.152741 0.151541 0.149762 0.147481 0.144791 0.141803 0.138637 
0.13542 0.13228 0.129339 0.126705 0.124469 0.122692 0.108996 0.110818 0.113274 
0.116299 0.119802 0.12367 0.127779 0.131991 0.136171 0.140181 0.143895 0.147195 
0.149979 0.152162 0.153681 0.154491 0.154577 0.153944 0.152628 0.150688 0.148206 
0.145285 0.142044 0.138617 0.135141 0.13176 0.128608 0.125806 0.123454 0.121624 
0.107592 0.109462 0.112023 0.115206 0.11891 0.123015 0.127384 0.131871 0.136328 
0.140607 0.144572 0.148096 0.151068 0.153396 0.15501 0.155863 0.155935 0.155232 
0.153793 0.151681 0.148985 0.145816 0.142304 0.138595 0.134841 0.131198 0.127817 
0.124832 0.122355 0.120466 0.106121 0.10804 0.110712 0.11406 0.117976 0.12233 
0.126974 0.13175 0.136499 0.141064 0.145295 0.149056 0.152228 0.154711 0.156428 
0.157327 0.157386 0.156611 0.155042 0.152746 0.149821 0.146387 0.142585 0.138572 
0.134518 0.130593 0.126964 0.123781 0.121168 0.119215 0.104582 0.106553 0.109341 
0.112862 0.117 0.121615 0.126547 0.131627 0.136684 0.14155 0.146063 0.150077 
0.153463 0.156111 0.157939 0.158889 0.158936 0.158084 0.156377 0.153888 0.150719 
0.147 0.142887 0.138549 0.134172 0.129944 0.126047 0.122648 0.119888 0.117865 
0.102976 0.105002 0.10791 0.111612 0.115982 0.120869 0.126103 0.131502 0.136884 
0.142066 0.146878 0.151161 0.154774 0.157599 0.159547 0.160553 0.160588 0.159657 
0.157804 0.155109 0.15168 0.147659 0.143213 0.138527 0.133803 0.129247 0.125062 
0.121431 0.11851 0.116412 0.101306 0.103388 0.106423 0.110312 0.114923 0.120093 
0.125641 0.131374 0.137096 0.142613 0.14774 0.152307 0.156163 0.159179 0.161255 
0.162323 0.162348 0.161334 0.159328 0.156414 0.15271 0.148367 0.143564 0.138506 
0.13341 0.128503 0.124007 0.120125 0.117031 0.114851 0.0995753 0.101715 0.104879 
0.108962 0.113822 0.119286 0.125161 0.131242 0.13732 0.143189 0.148649 0.153519 
0.157632 0.160852 0.163068 0.164204 0.16422 0.16312 0.160953 0.157807 0.153811 
0.149125 0.143944 0.138488 0.132994 0.12771 0.122879 0.118727 0.115446 0.113178 
0.0977866 0.0999864 0.103283 0.107564 0.11268 0.118447 0.124661 0.131105 0.137555 
0.143793 0.149605 0.154795 0.159185 0.162623 0.164989 0.1662 0.16621 0.165021 
0.162684 0.159294 0.154987 0.149937 0.144353 0.138473 0.132555 0.126867 0.121677 
0.117234 0.113752 0.111387 0.0959453 0.0982059 0.101637 0.106122 0.1115 0.117578 
0.124141 0.130959 0.137799 0.144423 0.150607 0.156137 0.16082 0.164493 0.167022 
0.168316 0.168322 0.16704 0.164525 0.160877 0.156241 0.150805 0.144794 0.138463 
0.132092 0.125973 0.120399 0.115644 0.111944 0.109476 0.0940576 0.0963798 0.0999481 
0.104638 0.110282 0.116677 0.123598 0.130804 0.138047 0.145078 0.151653 0.157543 
0.162541 0.166465 0.169171 0.170555 0.170559 0.169182 0.16648 0.162559 0.157577 
0.151733 0.145268 0.138458 0.131606 0.125028 0.119044 0.113954 0.11002 0.10744 
0.0921314 0.0945155 0.0982212 0.103118 0.109029 0.115745 0.123032 0.130636 0.138298 
0.145752 0.152739 0.159013 0.164345 0.168539 0.171436 0.17292 0.172926 0.171451 
0.168552 0.164345 0.158996 0.15272 0.145777 0.138461 0.131099 0.124033 0.117612 
0.112164 0.107979 0.105279 0.0901767 0.0926227 0.0964654 0.101568 0.107746 0.114785 
0.12244 0.130451 0.138544 0.146441 0.153862 0.160541 0.166231 0.170715 0.173818 
0.175412 0.175424 0.173846 0.170742 0.166234 0.1605 0.15377 0.146322 0.138472 
0.130571 0.12299 0.116104 0.110275 0.105823 0.102992 0.0882054 0.0907133 0.0946917 
0.0999966 0.106439 0.113797 0.121821 0.130244 0.13878 0.147135 0.155012 0.162121 
0.168193 0.172989 0.176315 0.178029 0.17805 0.176368 0.17305 0.168226 0.162088 
0.154882 0.146904 0.138494 0.130027 0.121902 0.114526 0.108292 0.103553 0.100583 
0.0862331 0.0888033 0.0929157 0.0984185 0.105117 0.112786 0.121174 0.130009 0.138996 
0.147826 0.156179 0.163743 0.170221 0.175351 0.178918 0.180763 0.180797 0.179008 
0.175468 0.170316 0.163757 0.156054 0.147524 0.13853 0.129472 0.120778 0.112886 
0.106224 0.101179 0.0980575 0.0842794 0.0869135 0.091159 0.0968528 0.103795 0.111759 
0.120498 0.129739 0.13918 0.148496 0.157347 0.16539 0.1723 0.177787 0.181612 
0.1836 0.183652 0.181755 0.177985 0.172494 0.1655 0.157284 0.148183 0.138584 
0.128914 0.119629 0.111199 0.104086 0.0987146 0.09543 0.0823659 0.0850696 0.0894501 
0.0953267 0.102493 0.110727 0.119793 0.129423 0.139312 0.149123 0.158488 0.167034 
0.174401 0.180267 0.184366 0.186508 0.186583 0.184577 0.180576 0.174739 0.167302 
0.158561 0.148878 0.138661 0.128365 0.118474 0.109488 0.101902 0.0961826 0.0927186 
0.0805145 0.0833025 0.0878266 0.0938757 0.101236 0.109701 0.119053 0.12904 0.139362 
0.149665 0.159556 0.168624 0.176471 0.182736 0.187125 0.189429 0.189531 0.18742 
0.183187 0.177006 0.169126 0.159862 0.149595 0.138759 0.127835 0.117334 0.107782 
0.0997068 0.0936141 0.0899475 0.0787805 0.0816851 0.086372 0.0925791 0.100089 0.108722 
0.118299 0.128596 0.139319 0.150102 0.160523 0.170128 0.178472 0.185153 0.189844 
0.192317 0.192451 0.190237 0.185781 0.179268 0.170959 0.161186 0.150348 0.138906 
0.127368 0.116271 0.106161 0.0975878 0.0910926 0.0871866 0.0772656 0.0803593 0.0852472 
0.091591 0.0991821 0.107894 0.117609 0.128144 0.139219 0.150457 0.1614 0.171549 
0.180403 0.187511 0.19251 0.195153 0.19532 0.193013 0.188349 0.181529 0.172824 
0.162577 0.151203 0.139188 0.127071 0.115413 0.104777 0.0957113 0.0887752 0.0845578 
0.0757937 0.0792559 0.0844136 0.0908439 0.0983979 0.107045 0.116757 0.127412 0.138746 
0.15037 0.161792 0.17246 0.181813 0.189339 0.194634 0.197435 0.19763 0.195239 
0.190401 0.183329 0.1743 0.163659 0.151831 0.139326 0.126717 0.114596 0.103524 
0.0940192 0.0865921 0.0818907 0.0738787 0.0780561 0.0835389 0.0899136 0.0972106 0.105556 
0.115046 0.125624 0.137047 0.148913 0.160704 0.171816 0.181616 0.189523 0.195079 
0.198008 0.198215 0.195754 0.190792 0.183559 0.174332 0.163448 0.15133 0.138507 
0.125593 0.113219 0.101943 0.0921968 0.0842981 0.0788063 0.0739552 0.0792762 0.0850851 
0.0912151 0.0980463 0.105918 0.11506 0.125477 0.136925 0.148987 0.161133 0.172705 
0.182993 0.191318 0.197156 0.200214 0.200426 0.197897 0.192838 0.185499 0.176149 
0.165103 0.152765 0.139681 0.126531 0.114028 0.102757 0.0930345 0.0847947 0.0782078 
0.0832795 0.0900221 0.0960999 0.101878 0.108238 0.115767 0.124816 0.135398 0.147209 
0.159785 0.172596 0.184975 0.196092 0.205113 0.211408 0.214672 0.214889 0.212233 
0.206986 0.199428 0.189807 0.17839 0.165542 0.151823 0.138019 0.12502 0.113544 
0.103831 0.0952936 0.08738 0.10976 0.118213 0.124475 0.129815 0.135773 0.143238 
0.15268 0.164044 0.176843 0.190523 0.204612 0.21846 0.23104 0.241248 0.248297 
0.251882 0.252071 0.249147 0.243521 0.235512 0.225326 0.213141 0.19923 0.184135 
0.168803 0.154479 0.142203 0.132243 0.123348 0.113745 0.162586 0.173387 0.17963 
0.184262 0.189708 0.197271 0.207592 0.220392 0.234728 0.249896 0.265768 0.2819 
0.296829 0.308856 0.316929 0.320884 0.320942 0.317559 0.31143 0.302924 0.292102 
0.278963 0.263541 0.246234 0.228181 0.211348 0.197458 0.187062 0.178136 0.166572 
0.266912 0.279585 0.285105 0.288521 0.29293 0.300268 0.31163 0.326246 0.341938 
0.357616 0.374326 0.392588 0.410055 0.423818 0.43255 0.436607 0.436495 0.432762 
0.42674 0.418802 0.408615 0.395846 0.379954 0.360714 0.339149 0.318632 0.302158 
0.291094 0.283173 0.270831 0.482919 0.493204 0.497744 0.501075 0.504376 0.509766 
0.519325 0.532567 0.545995 0.557162 0.567998 0.581097 0.594898 0.605913 0.612585 
0.615864 0.616655 0.614867 0.611974 0.608512 0.603728 0.597039 0.58741 0.573564 
0.554655 0.534371 0.516761 0.504505 0.497839 0.489025 0.871248 0.872313 0.876975 
0.887209 0.893431 0.894973 0.891498 0.887123 0.885344 0.88364 0.876222 0.863928 
0.854235 0.849865 0.849326 0.850159 0.853848 0.860618 0.866242 0.873236 0.881512 
0.889875 0.898787 0.907886 0.915629 0.914923 0.907502 0.894478 0.883195 0.878685 
1.33154 1.32583 1.33104 1.34976 1.36083 1.3601 1.33772 1.29971 1.26391 
1.23973 1.2139 1.17165 1.12732 1.09767 1.08619 1.08361 1.08719 1.10283 
1.11947 1.13852 1.16212 1.18829 1.21861 1.25249 1.2975 1.33171 1.3475 
1.33908 1.31953 1.31132 1.59848 1.59182 1.6104 1.61593 1.62579 1.61626 
1.59157 1.54589 1.48893 1.43735 1.39705 1.35599 1.30682 1.26779 1.24693 
1.24183 1.24216 1.249 1.27187 1.29447 1.32361 1.35825 1.39328 1.43239 
1.47116 1.51647 1.53787 1.54075 1.52507 1.51592 1.58724 1.59681 1.60909 
1.6163 1.61245 1.60316 1.58553 1.55769 1.51607 1.46326 1.41135 1.37222 
1.34297 1.31735 1.29889 1.28984 1.28892 1.29319 1.30379 1.3226 1.34467 
1.36755 1.39126 1.41457 1.43654 1.4546 1.47098 1.48002 1.47742 1.46614 
1.4656 1.48159 1.4881 1.49096 1.48741 1.48509 1.48357 1.47695 1.46234 
1.42765 1.37374 1.33028 1.30786 1.29007 1.27468 1.26726 1.26987 1.28081 
1.2895 1.29453 1.29919 1.3037 1.31093 1.32044 1.32875 1.33556 1.34243 
1.35087 1.35607 1.34327 1.36816 1.38222 1.38196 1.38379 1.38687 1.39109 
1.40168 1.40859 1.41813 1.41492 1.37506 1.31551 1.28375 1.2697 1.2544 
1.24482 1.2466 1.26712 1.27905 1.27316 1.2619 1.25259 1.24968 1.25359 
1.25784 1.26084 1.25953 1.25633 1.25789 1.24583 1.31075 1.31945 1.31987 
1.32203 1.34003 1.34977 1.36478 1.37878 1.39496 1.40731 1.40567 1.3517 
1.29606 1.27969 1.26638 1.25502 1.25257 1.26659 1.27824 1.26824 1.24816 
1.23681 1.23122 1.23161 1.23297 1.22943 1.22019 1.20534 1.19492 1.18104 
1.2453 1.25615 1.26635 1.27951 1.30575 1.32494 1.34152 1.35422 1.37645 
1.39297 1.39504 1.37819 1.32129 1.2908 1.2836 1.27645 1.27245 1.27746 
1.27657 1.25725 1.24017 1.22967 1.22604 1.22274 1.21771 1.20613 1.18317 
1.16473 1.15297 1.13135 1.15856 1.18656 1.20948 1.23551 1.2697 1.29378 
1.30755 1.32127 1.34252 1.368 1.37825 1.36584 1.33292 1.30332 1.29578 
1.29291 1.28906 1.28468 1.27432 1.25027 1.23059 1.22131 1.2153 1.20923 
1.20015 1.18494 1.15362 1.11859 1.09846 1.0842 1.09749 1.13202 1.16426 
1.20512 1.24056 1.26988 1.28505 1.29613 1.31082 1.33942 1.36022 1.36386 
1.3449 1.32993 1.31216 1.30282 1.29682 1.28793 1.27079 1.24852 1.22419 
1.212 1.20572 1.19767 1.18584 1.16769 1.13508 1.08219 1.04869 1.02053 
1.09402 1.12106 1.15636 1.19162 1.23058 1.26318 1.2819 1.29357 1.302 
1.31801 1.3428 1.35242 1.35564 1.34435 1.33055 1.30124 1.28837 1.28183 
1.26524 1.24042 1.2189 1.20122 1.19222 1.18537 1.17569 1.16152 1.13609 
1.07905 1.03526 1.00491 1.12823 1.15405 1.17994 1.20603 1.23247 1.26101 
1.28272 1.29887 1.30731 1.31271 1.32733 1.33587 1.3313 1.33753 1.33236 
1.29236 1.2761 1.27396 1.26072 1.23371 1.20919 1.18959 1.17977 1.17369 
1.17051 1.16354 1.1521 1.13002 1.07449 1.0628 1.17358 1.18189 1.21046 
1.22326 1.23534 1.24959 1.26996 1.29123 1.30549 1.31389 1.31502 1.31958 
1.31221 1.31066 1.31219 1.29339 1.27094 1.2658 1.25606 1.22687 1.19819 
1.18059 1.16753 1.16146 1.16231 1.16407 1.16368 1.15875 1.14921 1.12112 
1.18303 1.19475 1.21073 1.22111 1.22733 1.23459 1.24412 1.26289 1.28963 
1.30453 1.30216 1.30244 1.29761 1.29674 1.29882 1.2837 1.25941 1.25674 
1.24463 1.21457 1.18381 1.1626 1.15143 1.14426 1.14323 1.15308 1.15849 
1.15659 1.15384 1.1468 1.15881 1.1705 1.18462 1.19588 1.20094 1.20519 
1.20794 1.22584 1.24933 1.2777 1.28354 1.27965 1.27759 1.28323 1.28737 
1.27109 1.2447 1.23598 1.22477 1.19702 1.16485 1.14178 1.13071 1.12605 
1.12713 1.13277 1.1435 1.14314 1.13826 1.13096 1.12547 1.13353 1.13993 
1.15277 1.15434 1.1567 1.15956 1.17399 1.19938 1.22984 1.24733 1.25113 
1.2525 1.25978 1.27033 1.25559 1.22755 1.21561 1.20411 1.17827 1.14643 
1.12401 1.11403 1.11127 1.11366 1.1185 1.1279 1.12949 1.12573 1.11552 
1.09033 1.0993 1.10301 1.11426 1.11528 1.11324 1.11574 1.12779 1.15133 
1.17888 1.20404 1.21799 1.22705 1.23751 1.25118 1.24086 1.21315 1.2001 
1.18695 1.16124 1.13123 1.11012 1.09955 1.09721 1.09855 1.10431 1.11207 
1.11486 1.11351 1.10472 1.05975 1.07261 1.07904 1.09077 1.09361 1.09183 
1.09262 1.09984 1.11611 1.14425 1.17164 1.19182 1.20391 1.21853 1.23509 
1.22882 1.20263 1.18971 1.17566 1.14738 1.11747 1.09771 1.08472 1.07944 
1.07826 1.08661 1.09632 1.09935 1.1 1.09256 1.02961 1.04517 1.05715 
1.06862 1.07388 1.07648 1.08098 1.08513 1.09344 1.12353 1.15281 1.17413 
1.18214 1.19541 1.21213 1.21282 1.19117 1.17915 1.16755 1.13833 1.1088 
1.08836 1.07346 1.06296 1.06038 1.06858 1.0809 1.08454 1.08625 1.08048 
1.00378 1.01607 1.03139 1.04179 1.04976 1.05368 1.066 1.07331 1.08382 
1.10501 1.14081 1.15705 1.16262 1.16888 1.17921 1.18539 1.17354 1.16419 
1.15365 1.1272 1.1005 1.07748 1.06201 1.04812 1.04729 1.05446 1.06617 
1.0715 1.07275 1.07005 0.982873 0.990022 1.00181 1.01407 1.022 1.02802 
1.03924 1.05804 1.07074 1.09213 1.12286 1.14016 1.14418 1.15201 1.15809 
1.15603 1.15152 1.14571 1.13377 1.1095 1.08271 1.05709 1.03852 1.02768 
1.02753 1.0404 1.05162 1.05704 1.06033 1.05912 0.954564 0.965033 0.974901 
0.987367 0.994564 0.999708 1.01224 1.0323 1.0541 1.07402 1.10099 1.12167 
1.1275 1.14346 1.16086 1.14697 1.13548 1.12639 1.10808 1.08812 1.06027 
1.033 1.01057 1.00127 1.00552 1.02257 1.03595 1.04241 1.04627 1.04424 
0.927859 0.940451 0.950973 0.962851 0.971742 0.972883 0.982843 0.999277 1.02666 
1.05049 1.07562 1.09744 1.10793 1.1252 1.15392 1.14756 1.12502 1.10921 
1.0836 1.06018 1.03122 1.00766 0.987426 0.981726 0.987707 1.00508 1.02042 
1.02814 1.03292 1.02884 0.907678 0.916868 0.930048 0.940902 0.952879 0.953154 
0.954219 0.964994 0.987234 1.01847 1.04647 1.06592 1.08497 1.09955 1.11418 
1.12809 1.10731 1.09321 1.07356 1.03361 1.00178 0.977013 0.962062 0.961267 
0.969355 0.984541 1.00157 1.01056 1.01947 1.01678 0.890333 0.89671 0.909759 
0.924146 0.934018 0.936448 0.937304 0.942871 0.956056 0.986102 1.01746 1.0366 
1.05794 1.07964 1.08978 1.08932 1.08618 1.08029 1.0677 1.02499 0.982617 
0.95175 0.9378 0.931915 0.942622 0.960949 0.976171 0.988804 1.00167 1.00412 
0.875974 0.878893 0.890492 0.906409 0.915114 0.917445 0.920818 0.928341 0.939456 
0.964767 0.994189 1.01221 1.03858 1.06454 1.0764 1.07422 1.06913 1.06092 
1.04807 1.01244 0.967136 0.936293 0.920396 0.909011 0.91707 0.937325 0.955607 
0.968137 0.980876 0.985621 0.866184 0.864308 0.872149 0.884737 0.893939 0.89527 
0.898512 0.906671 0.921775 0.946954 0.982977 1.00859 1.02999 1.05165 1.06453 
1.06203 1.05591 1.04195 1.01683 0.984257 0.942789 0.917627 0.902939 0.891537 
0.895997 0.916679 0.938193 0.950668 0.96143 0.963434 0.851795 0.84948 0.852175 
0.86221 0.87093 0.873377 0.873599 0.881479 0.89901 0.930031 0.973231 1.02339 
1.03125 1.04182 1.0473 1.0446 1.03729 1.02897 1.0064 0.959349 0.920761 
0.896474 0.877892 0.867336 0.864302 0.886418 0.909802 0.926116 0.940238 0.937867 
0.822618 0.822027 0.824571 0.834223 0.846228 0.849809 0.849799 0.857337 0.880214 
0.914129 0.94802 0.994394 1.01902 1.02188 1.02779 1.02552 1.01527 1.01198 
0.995558 0.955859 0.911729 0.876385 0.853922 0.837971 0.829928 0.846033 0.873026 
0.893142 0.908258 0.90499 0.78151 0.782655 0.78599 0.797873 0.815106 0.815592 
0.818923 0.825357 0.854997 0.891891 0.915514 0.921305 0.957541 0.977887 1.00194 
1.00554 0.991444 0.983351 0.966567 0.936549 0.897687 0.855253 0.831355 0.816025 
0.815478 0.818991 0.840857 0.861702 0.871727 0.869502 0.745896 0.747121 0.748525 
0.762572 0.77772 0.776579 0.777335 0.783278 0.811434 0.855454 0.88001 0.877451 
0.879491 0.918557 0.965055 0.975337 0.962522 0.948193 0.933751 0.89436 0.858293 
0.826606 0.800773 0.79538 0.81006 0.810963 0.816158 0.827776 0.83798 0.835612 
0.724361 0.720051 0.727459 0.735083 0.744635 0.743755 0.74079 0.751031 0.770052 
0.813517 0.841341 0.845937 0.842517 0.86709 0.91526 0.937595 0.929117 0.91626 
0.899205 0.86477 0.820784 0.788015 0.768375 0.762156 0.771821 0.793567 0.788899 
0.786781 0.793713 0.795716 0.709836 0.69642 0.702716 0.717731 0.719967 0.709565 
0.710083 0.726186 0.743439 0.777704 0.802881 0.810976 0.816935 0.828345 0.863477 
0.89707 0.891225 0.88367 0.861354 0.835145 0.798447 0.757701 0.738972 0.72687 
0.720424 0.742198 0.745661 0.741376 0.743831 0.743532 0.685349 0.674422 0.669695 
0.692315 0.699514 0.676544 0.674795 0.68949 0.722092 0.745702 0.766104 0.774721 
0.786969 0.793271 0.811412 0.843514 0.845064 0.832899 0.818303 0.786567 0.763483 
0.72992 0.703948 0.690474 0.689503 0.68824 0.695701 0.691714 0.691294 0.692182 
0.648602 0.644911 0.645126 0.65511 0.670343 0.657263 0.64184 0.651201 0.685791 
0.72258 0.732432 0.735311 0.745368 0.751754 0.757537 0.775005 0.78296 0.768159 
0.761687 0.732502 0.711219 0.692283 0.663745 0.649506 0.649584 0.652175 0.645886 
0.6375 0.636373 0.641261 0.612033 0.606983 0.612267 0.624202 0.630482 0.628272 
0.62076 0.62526 0.634173 0.685628 0.699859 0.687688 0.688315 0.691941 0.697585 
0.710711 0.711664 0.701973 0.694981 0.677114 0.657489 0.648934 0.628769 0.611726 
0.602259 0.607096 0.593005 0.582782 0.58339 0.586706 0.57157 0.567764 0.570986 
0.587241 0.591015 0.583195 0.586217 0.59882 0.604745 0.630849 0.650577 0.639073 
0.626263 0.620418 0.629025 0.643973 0.644648 0.634235 0.630161 0.617648 0.601335 
0.59878 0.589321 0.574244 0.563579 0.556752 0.543798 0.529479 0.530444 0.534441 
0.528657 0.528588 0.531112 0.540053 0.550573 0.54038 0.535453 0.551668 0.576401 
0.587784 0.599559 0.587356 0.569196 0.552615 0.554904 0.56934 0.57361 0.560183 
0.563104 0.559995 0.542333 0.540556 0.53875 0.528762 0.520539 0.510041 0.494136 
0.478162 0.475907 0.480419 0.485266 0.487683 0.49265 0.492517 0.499619 0.505249 
0.495444 0.502248 0.52742 0.537765 0.543716 0.528708 0.517065 0.495882 0.4854 
0.493668 0.500528 0.489881 0.490213 0.497242 0.486759 0.479357 0.480899 0.473378 
0.464059 0.452623 0.438287 0.424379 0.422387 0.423185 0.441259 0.443269 0.445855 
0.445715 0.44223 0.461102 0.468823 0.471108 0.476688 0.483652 0.483042 0.470275 
0.462958 0.447295 0.429668 0.429973 0.432734 0.432177 0.425854 0.431749 0.431118 
0.421096 0.420472 0.412456 0.398939 0.383537 0.374843 0.368724 0.372609 0.370476 
0.394899 0.396467 0.391215 0.390639 0.39156 0.403596 0.430093 0.436922 0.437759 
0.43704 0.432076 0.427383 0.407901 0.397698 0.384861 0.380946 0.377359 0.378496 
0.375829 0.377684 0.374763 0.369029 0.362164 0.354542 0.3399 0.324405 0.315486 
0.317251 0.324037 0.325167 0.349337 0.350485 0.338194 0.335001 0.341654 0.354838 
0.376252 0.389929 0.389323 0.384971 0.383673 0.382906 0.359777 0.345865 0.340234 
0.33819 0.333681 0.329131 0.329506 0.329428 0.328236 0.321698 0.311843 0.303126 
0.291768 0.281567 0.27314 0.275003 0.281012 0.284045 0.306493 0.307313 0.294849 
0.288763 0.295251 0.313496 0.326777 0.336634 0.337343 0.328565 0.325239 0.323174 
0.313729 0.298893 0.297968 0.299554 0.296385 0.288392 0.28739 0.287008 0.287996 
0.281985 0.2723 0.261598 0.252471 0.246055 0.241601 0.243191 0.249039 0.25117 
0.268571 0.266244 0.257934 0.253348 0.257106 0.274295 0.287413 0.288513 0.291166 
0.284212 0.275211 0.268062 0.273154 0.265191 0.265781 0.269254 0.265835 0.259399 
0.254267 0.254643 0.25388 0.250689 0.242927 0.231358 0.222248 0.21443 0.213364 
0.217117 0.2273 0.229199 0.239397 0.231546 0.22272 0.222363 0.227396 0.23947 
0.254045 0.256184 0.256393 0.254845 0.244842 0.239061 0.242309 0.245684 0.246055 
0.246759 0.244485 0.238125 0.231759 0.229893 0.226883 0.225089 0.218868 0.210048 
0.199565 0.190555 0.187315 0.193399 0.207118 0.214604 0.219483 0.20644 0.193134 
0.19376 0.202258 0.21218 0.226433 0.232958 0.234091 0.234778 0.227808 0.225318 
0.225128 0.231322 0.231242 0.229229 0.226516 0.220907 0.214777 0.210424 0.206155 
0.202835 0.197999 0.191523 0.181654 0.172458 0.166457 0.171571 0.186166 0.199633 
0.205422 0.187836 0.170832 0.170782 0.180377 0.192567 0.204991 0.212123 0.216559 
0.216331 0.215463 0.214047 0.214353 0.215717 0.214819 0.212375 0.208027 0.20473 
0.200505 0.19525 0.19182 0.185995 0.181739 0.175075 0.166571 0.157425 0.15051 
0.153144 0.167571 0.185359 0.195615 0.170207 0.153132 0.153024 0.16379 0.177106 
0.18951 0.196752 0.200568 0.20113 0.202765 0.204902 0.204387 0.201019 0.19872 
0.195909 0.192196 0.190753 0.189129 0.185695 0.182231 0.177199 0.171641 0.164743 
0.156209 0.1467 0.139136 0.13955 0.154123 0.178134 0.190296 0.153245 0.137773 
0.139526 0.151927 0.165857 0.178945 0.187474 0.189987 0.191834 0.193129 0.197001 
0.196563 0.191453 0.187488 0.184326 0.182031 0.181674 0.18177 0.180144 0.176809 
0.173139 0.167362 0.16037 0.151767 0.141152 0.132282 0.129915 0.144766 0.179222 
0.190565 0.138699 0.125047 0.130891 0.144674 0.15953 0.173034 0.182724 0.184759 
0.186559 0.18762 0.190211 0.189491 0.186205 0.182505 0.179168 0.177857 0.176992 
0.177523 0.176115 0.173288 0.170335 0.165231 0.158674 0.150072 0.138672 0.127635 
0.12185 0.135333 0.184884 0.195033 0.12549 0.115729 0.126246 0.141737 0.157256 
0.170673 0.180583 0.183247 0.182911 0.183566 0.184679 0.183695 0.181628 0.180847 
0.178661 0.176258 0.174867 0.17452 0.173816 0.170319 0.167624 0.163229 0.157102 
0.148833 0.136915 0.123932 0.113776 0.123857 0.191203 0.1989 0.111827 0.10904 
0.124766 0.141626 0.157282 0.169863 0.178677 0.183293 0.180744 0.180392 0.180378 
0.180097 0.177636 0.178832 0.178464 0.173603 0.172137 0.17148 0.173036 0.168692 
0.165246 0.161198 0.155668 0.147988 0.135967 0.121552 0.106577 0.110398 0.195254 
0.195078 0.0975773 0.105547 0.126385 0.143791 0.158709 0.168722 0.176636 0.180733 
0.180168 0.178497 0.178191 0.177946 0.175433 0.174376 0.174009 0.169465 0.166793 
0.16724 0.169544 0.167258 0.16254 0.158899 0.154417 0.147788 0.136041 0.120955 
0.101685 0.0956452 0.191814 0.188358 0.0838388 0.10578 0.130424 0.146876 0.16072 
0.167885 0.173953 0.175682 0.178272 0.177488 0.177731 0.177006 0.174412 0.169373 
0.166428 0.164639 0.161956 0.163049 0.163182 0.163612 0.159453 0.156771 0.153278 
0.148125 0.137056 0.122211 0.100034 0.0814273 0.185452 0.222974 0.0724766 0.109287 
0.135334 0.150115 0.16257 0.170246 0.174217 0.175728 0.177759 0.180073 0.181095 
0.180888 0.178285 0.172741 0.167461 0.166434 0.1663 0.166875 0.165449 0.164712 
0.162648 0.160354 0.156432 0.151634 0.141147 0.127223 0.102951 0.0705734 0.220456 
0.31572 0.0671788 0.117109 0.141639 0.154305 0.166167 0.175 0.180709 0.183673 
0.184697 0.188433 0.189769 0.19072 0.189272 0.186923 0.182622 0.181388 0.182263 
0.182532 0.180866 0.178507 0.176243 0.173458 0.167314 0.160926 0.150198 0.137533 
0.113014 0.0665797 0.314259 0.0883465 0.11572 0.119043 0.131657 0.140045 0.144757 
0.147343 0.14853 0.148834 0.148594 0.148499 0.148248 0.148087 0.147906 0.147855 
0.147692 0.14777 0.148132 0.148539 0.148853 0.149056 0.149161 0.148924 0.14764 
0.145155 0.140447 0.131894 0.119096 0.116009 0.0886333 
Froude 1 4740 float
0.0492191 0.0545791 0.0563181 0.0596589 0.0616545 0.0628113 0.0634657 0.0637831 0.0639025 
0.0639153 0.0638787 0.0638289 0.0637867 0.0637632 0.0637616 0.0637813 0.0638196 0.0638733 
0.0639378 0.0640033 0.06405 0.0640428 0.0639238 0.0636014 0.0629372 0.0617677 0.0597574 
0.0564021 0.0546468 0.0492868 0.0842197 0.0383122 0.0534189 0.0594762 0.0621138 0.0643009 
0.0657817 0.0667565 0.0673773 0.0677513 0.0679653 0.0680809 0.0681394 0.0681679 0.068183 
0.0681927 0.0681973 0.0681889 0.0681498 0.0680506 0.0678482 0.0674806 0.0668624 0.0658881 
0.0644056 0.0622144 0.0595702 0.0535033 0.0383888 0.0843002 0.0648836 0.0486899 0.0565738 
0.0614487 0.0639768 0.0657114 0.0668198 0.0674995 0.0678984 0.0681166 0.0682256 0.068274 
0.0682932 0.0683023 0.0683118 0.0683258 0.0683431 0.0683583 0.0683596 0.068327 0.0682289 
0.0680167 0.0676195 0.0669379 0.0658243 0.0640817 0.0615434 0.0566562 0.0487586 0.0649643 
0.0614842 0.0558508 0.0599815 0.0637824 0.0662082 0.0678743 0.0689761 0.0696792 0.0701124 
0.0703674 0.0705101 0.0705862 0.0706261 0.0706489 0.0706648 0.0706781 0.0706877 0.070688 
0.0706674 0.0706063 0.0704742 0.0702254 0.0697943 0.0690898 0.0679834 0.0663101 0.0638752 
0.0600628 0.0559247 0.0615803 0.0658389 0.0627811 0.0650928 0.0679324 0.0701109 0.0717494 
0.0729187 0.0737223 0.074258 0.074604 0.0748211 0.0749541 0.0750341 0.0750818 0.075109 
0.0751207 0.0751163 0.0750894 0.0750273 0.0749087 0.074702 0.0743626 0.0738299 0.0730261 
0.0718538 0.07021 0.0680244 0.0651766 0.0628579 0.0659058 0.0724138 0.071249 0.0727806 
0.0748943 0.0767859 0.078345 0.0795402 0.0804152 0.0810343 0.0814597 0.0817447 0.0819312 
0.0820501 0.0821226 0.0821614 0.0821723 0.0821547 0.0821019 0.0820002 0.0818277 0.0815533 
0.081135 0.0805197 0.0796456 0.0784486 0.0768858 0.0749891 0.0728694 0.071337 0.0724675 
0.0791798 0.0792243 0.0804281 0.0820555 0.0836809 0.0851224 0.0862953 0.0871996 0.0878705 
0.0883531 0.0886913 0.0889224 0.089075 0.0891696 0.0892189 0.0892291 0.0891996 0.0891237 
0.0889875 0.0887702 0.0884426 0.0879675 0.0873011 0.0863986 0.0852251 0.0837811 0.0821522 
0.0805217 0.0793147 0.0792946 0.0832616 0.0839277 0.0848743 0.0861174 0.087472 0.0887436 
0.0898284 0.0907013 0.0913751 0.0918786 0.0922447 0.0925033 0.092679 0.0927897 0.092847 
0.0928562 0.0928169 0.092723 0.0925624 0.0923165 0.0919606 0.0914646 0.0907957 0.0899253 
0.0888408 0.0875681 0.0862113 0.0849657 0.0840192 0.0833707 0.088185 0.0890378 0.0897784 
0.0907749 0.0919301 0.093058 0.0940543 0.0948836 0.0955455 0.0960566 0.0964399 0.0967185 
0.0969121 0.0970358 0.0970995 0.0971078 0.0970604 0.0969519 0.0967721 0.0965053 0.0961317 
0.095628 0.0949714 0.0941451 0.0931502 0.0920222 0.0908657 0.0898676 0.0891204 0.0882987 
0.0980403 0.0984715 0.0991406 0.100061 0.101128 0.102186 0.10314 0.103955 0.104623 
0.105153 0.105562 0.105865 0.106081 0.10622 0.106291 0.106299 0.106243 0.106118 
0.105916 0.105624 0.105225 0.104703 0.10404 0.103229 0.102277 0.10122 0.100153 
0.0992317 0.098565 0.0980738 0.110854 0.110598 0.111271 0.112217 0.113253 0.114276 
0.115208 0.116018 0.116697 0.117248 0.117681 0.11801 0.118247 0.118401 0.118481 
0.118488 0.118424 0.118283 0.11806 0.117742 0.117318 0.116775 0.116103 0.115297 
0.114368 0.113347 0.112311 0.111366 0.110697 0.110974 0.124273 0.123429 0.124147 
0.125143 0.126163 0.127156 0.128064 0.128863 0.129543 0.130106 0.130556 0.130902 
0.131155 0.13132 0.131406 0.131413 0.131342 0.13119 0.13095 0.130615 0.130175 
0.129621 0.128947 0.128153 0.127248 0.126258 0.125239 0.124245 0.123523 0.124368 
0.134351 0.133473 0.134234 0.135227 0.136202 0.13714 0.138001 0.138766 0.139424 
0.139976 0.140423 0.140771 0.141026 0.141195 0.141282 0.141289 0.141216 0.141059 
0.140816 0.140479 0.140042 0.139498 0.138847 0.138087 0.13723 0.136296 0.135322 
0.13433 0.13357 0.134449 0.137467 0.137105 0.13784 0.138741 0.139621 0.140463 
0.141241 0.141936 0.14254 0.14305 0.143468 0.143796 0.144039 0.1442 0.144283 
0.144289 0.144218 0.144069 0.143837 0.143519 0.14311 0.142608 0.14201 0.14132 
0.140547 0.139708 0.13883 0.137931 0.137196 0.137559 0.137057 0.137358 0.138065 
0.138859 0.139638 0.140382 0.14107 0.141687 0.142227 0.142686 0.143064 0.143362 
0.143584 0.143732 0.143808 0.143813 0.143748 0.14361 0.143398 0.143109 0.142739 
0.142287 0.141754 0.141141 0.140457 0.139717 0.13894 0.138148 0.137441 0.137141 
0.136926 0.137614 0.138336 0.139069 0.139779 0.140449 0.141066 0.141619 0.142102 
0.142514 0.142855 0.143124 0.143325 0.143459 0.143528 0.143533 0.143473 0.143348 
0.143156 0.142894 0.142561 0.142156 0.141678 0.14113 0.140517 0.13985 0.139142 
0.138411 0.13769 0.137002 0.137009 0.137822 0.138568 0.139277 0.139943 0.14056 
0.141122 0.141622 0.142058 0.142429 0.142736 0.142978 0.14316 0.143281 0.143343 
0.143347 0.143293 0.14318 0.143006 0.142771 0.142471 0.142105 0.141674 0.141179 
0.140621 0.140007 0.139343 0.138635 0.13789 0.137078 0.137129 0.137971 0.13873 
0.139427 0.140064 0.140643 0.141162 0.14162 0.142016 0.142352 0.142628 0.142847 
0.14301 0.143119 0.143175 0.143178 0.14313 0.143028 0.142872 0.142659 0.142388 
0.142058 0.141666 0.141212 0.140697 0.140121 0.139486 0.138791 0.138032 0.137189 
0.137247 0.138094 0.138856 0.139542 0.140158 0.140708 0.141193 0.141617 0.141981 
0.142287 0.142537 0.142735 0.142882 0.142979 0.14303 0.143033 0.142989 0.142897 
0.142756 0.142564 0.142319 0.142017 0.141658 0.141238 0.140755 0.140208 0.139594 
0.138909 0.138148 0.137301 0.137353 0.1382 0.138958 0.139634 0.140232 0.140759 
0.141219 0.141615 0.141952 0.142233 0.142462 0.142641 0.142773 0.142861 0.142906 
0.142909 0.14287 0.142787 0.142659 0.142485 0.142261 0.141984 0.141651 0.141258 
0.140801 0.140276 0.13968 0.139005 0.138247 0.1374 0.137443 0.138289 0.139043 
0.139708 0.140292 0.1408 0.141239 0.141613 0.141928 0.142188 0.142398 0.142562 
0.142682 0.142762 0.142802 0.142805 0.142769 0.142694 0.142578 0.142418 0.142212 
0.141955 0.141644 0.141273 0.140837 0.140331 0.139748 0.139084 0.138331 0.137485 
0.137519 0.138364 0.139112 0.139769 0.14034 0.140833 0.141254 0.14161 0.141907 
0.14215 0.142344 0.142495 0.142605 0.142677 0.142714 0.142716 0.142683 0.142615 
0.142509 0.142362 0.14217 0.141931 0.141637 0.141283 0.140864 0.140373 0.139804 
0.139148 0.1384 0.137555 0.137583 0.138426 0.13917 0.139818 0.140379 0.140859 
0.141266 0.141606 0.141888 0.142117 0.142298 0.142438 0.142539 0.142606 0.142639 
0.142641 0.142611 0.142548 0.14245 0.142313 0.142134 0.141908 0.141629 0.141291 
0.140886 0.140408 0.139848 0.139201 0.138458 0.137614 0.137636 0.138479 0.139218 
0.139859 0.14041 0.140879 0.141274 0.141602 0.141871 0.142087 0.142258 0.142388 
0.142482 0.142544 0.142575 0.142576 0.142548 0.14249 0.142398 0.142271 0.142103 
0.141888 0.141622 0.141295 0.140903 0.140435 0.139885 0.139244 0.138505 0.137663 
0.137681 0.138523 0.139258 0.139893 0.140436 0.140896 0.14128 0.141597 0.141855 
0.142061 0.142223 0.142345 0.142433 0.14249 0.142518 0.142519 0.142493 0.142439 
0.142353 0.142233 0.142074 0.14187 0.141613 0.141298 0.140915 0.140457 0.139915 
0.13928 0.138546 0.137704 0.13772 0.138561 0.139292 0.139922 0.140458 0.140909 
0.141284 0.141591 0.14184 0.142037 0.14219 0.142306 0.142388 0.142441 0.142468 
0.142469 0.142444 0.142393 0.142313 0.142199 0.142048 0.141852 0.141605 0.141299 
0.140925 0.140475 0.13994 0.139311 0.13858 0.13774 0.137755 0.138594 0.139322 
0.139947 0.140476 0.140919 0.141286 0.141585 0.141825 0.142014 0.14216 0.142269 
0.142347 0.142397 0.142421 0.142422 0.142399 0.142351 0.142275 0.142168 0.142023 
0.141835 0.141596 0.141298 0.140933 0.14049 0.139962 0.139338 0.13861 0.137771 
0.137787 0.138625 0.139349 0.139969 0.140492 0.140928 0.141286 0.141577 0.14181 
0.141992 0.142131 0.142235 0.142308 0.142355 0.142378 0.142378 0.142357 0.142312 
0.14224 0.142137 0.141999 0.141818 0.141587 0.141297 0.140939 0.140504 0.139981 
0.139362 0.138638 0.1378 0.137817 0.138653 0.139375 0.139989 0.140506 0.140935 
0.141286 0.141569 0.141794 0.141969 0.142103 0.142201 0.14227 0.142314 0.142335 
0.142336 0.142316 0.142273 0.142205 0.142108 0.141975 0.141801 0.141577 0.141295 
0.140944 0.140516 0.14 0.139385 0.138664 0.137828 0.137847 0.138681 0.139399 
0.140009 0.14052 0.140942 0.141285 0.141561 0.141778 0.141946 0.142074 0.142167 
0.142232 0.142273 0.142293 0.142294 0.142275 0.142234 0.14217 0.142078 0.141951 
0.141784 0.141567 0.141292 0.140949 0.140528 0.140017 0.139408 0.13869 0.137855 
0.137877 0.13871 0.139424 0.140029 0.140533 0.140948 0.141283 0.141551 0.141761 
0.141922 0.142044 0.142132 0.142193 0.142232 0.14225 0.142251 0.142233 0.142195 
0.142135 0.142047 0.141926 0.141766 0.141556 0.141289 0.140954 0.140539 0.140035 
0.139431 0.138717 0.137884 0.137908 0.138739 0.13945 0.140049 0.140546 0.140953 
0.141281 0.141541 0.141743 0.141897 0.142012 0.142095 0.142153 0.142189 0.142206 
0.142206 0.14219 0.142154 0.142098 0.142015 0.1419 0.141746 0.141545 0.141286 
0.140958 0.140552 0.140054 0.139456 0.138745 0.137914 0.137942 0.138771 0.139477 
0.14007 0.14056 0.140959 0.141278 0.141529 0.141723 0.14187 0.141979 0.142057 
0.14211 0.142143 0.142159 0.142159 0.142144 0.142111 0.142059 0.141981 0.141873 
0.141726 0.141533 0.141282 0.140963 0.140564 0.140075 0.139482 0.138775 0.137946 
0.137978 0.138805 0.139507 0.140093 0.140575 0.140965 0.141275 0.141517 0.141702 
0.141841 0.141943 0.142016 0.142065 0.142095 0.14211 0.14211 0.142096 0.142066 
0.142017 0.141945 0.141843 0.141704 0.141519 0.141278 0.140968 0.140579 0.140097 
0.13951 0.138809 0.137982 0.138019 0.138843 0.13954 0.140119 0.140592 0.140972 
0.141271 0.141503 0.141679 0.14181 0.141905 0.141972 0.142016 0.142044 0.142057 
0.142057 0.142044 0.142017 0.141972 0.141906 0.141811 0.141681 0.141505 0.141273 
0.140974 0.140594 0.140121 0.139542 0.138846 0.138021 0.138063 0.138885 0.139576 
0.140146 0.14061 0.140979 0.141267 0.141488 0.141654 0.141776 0.141863 0.141924 
0.141964 0.141988 0.142 0.142 0.141989 0.141964 0.141924 0.141864 0.141777 
0.141655 0.14149 0.141269 0.14098 0.140611 0.140148 0.139578 0.138887 0.138065 
0.138114 0.138932 0.139616 0.140177 0.140629 0.140986 0.141262 0.141471 0.141626 
0.141738 0.141818 0.141872 0.141907 0.141929 0.141939 0.141939 0.141929 0.141908 
0.141872 0.141818 0.141739 0.141627 0.141472 0.141263 0.140988 0.140631 0.140179 
0.139617 0.138933 0.138115 0.13817 0.138985 0.139661 0.140212 0.140651 0.140994 
0.141257 0.141452 0.141595 0.141697 0.141768 0.141816 0.141846 0.141864 0.141872 
0.141872 0.141864 0.141846 0.141816 0.141768 0.141698 0.141596 0.141453 0.141257 
0.140995 0.140652 0.140213 0.139662 0.138986 0.138171 0.138235 0.139045 0.139712 
0.140251 0.140676 0.141003 0.14125 0.141431 0.141561 0.141652 0.141714 0.141754 
0.14178 0.141794 0.141801 0.141801 0.141794 0.14178 0.141754 0.141714 0.141652 
0.141562 0.141432 0.14125 0.141004 0.140676 0.140252 0.139713 0.139045 0.138236 
0.138309 0.139113 0.13977 0.140295 0.140703 0.141012 0.141242 0.141407 0.141523 
0.141602 0.141654 0.141687 0.141707 0.141719 0.141724 0.141724 0.141719 0.141707 
0.141687 0.141654 0.141602 0.141523 0.141407 0.141242 0.141013 0.140703 0.140295 
0.139771 0.139114 0.13831 0.138394 0.139192 0.139837 0.140344 0.140732 0.141022 
0.141231 0.141379 0.141479 0.141545 0.141588 0.141614 0.141629 0.141637 0.14164 
0.14164 0.141637 0.141629 0.141614 0.141588 0.141546 0.141479 0.141379 0.141231 
0.141022 0.140733 0.140344 0.139837 0.139193 0.138395 0.138494 0.139283 0.139913 
0.140399 0.140765 0.14103 0.141218 0.141346 0.14143 0.141483 0.141515 0.141533 
0.141543 0.141548 0.14155 0.14155 0.141548 0.141543 0.141533 0.141515 0.141483 
0.14143 0.141346 0.141218 0.141031 0.140765 0.1404 0.139913 0.139284 0.138494 
0.13861 0.13939 0.14 0.140462 0.1408 0.141038 0.1412 0.141306 0.141373 
0.141412 0.141434 0.141445 0.14145 0.141452 0.141452 0.141452 0.141452 0.14145 
0.141445 0.141434 0.141412 0.141373 0.141306 0.1412 0.141038 0.1408 0.140462 
0.14 0.13939 0.13861 0.138749 0.139516 0.140102 0.140532 0.140836 0.141042 
0.141176 0.141259 0.141307 0.141333 0.141345 0.141349 0.141349 0.141348 0.141347 
0.141347 0.141348 0.141349 0.141349 0.141345 0.141333 0.141307 0.141259 0.141176 
0.141042 0.140836 0.140532 0.140102 0.139516 0.138749 0.138916 0.139665 0.140219 
0.140609 0.140872 0.141041 0.141143 0.141201 0.141231 0.141243 0.141246 0.141244 
0.14124 0.141237 0.141235 0.141235 0.141237 0.14124 0.141244 0.141246 0.141243 
0.141231 0.141201 0.141143 0.141041 0.140872 0.140609 0.140219 0.139665 0.138916 
0.13912 0.139844 0.140354 0.140692 0.140904 0.14103 0.141098 0.14113 0.141142 
0.141142 0.141137 0.14113 0.141124 0.14112 0.141117 0.141117 0.14112 0.141124 
0.141131 0.141137 0.141142 0.141142 0.14113 0.141098 0.14103 0.140904 0.140692 
0.140354 0.139844 0.139121 0.139382 0.140065 0.140508 0.140775 0.140925 0.141001 
0.141034 0.141042 0.141038 0.141029 0.141018 0.141009 0.141001 0.140996 0.140993 
0.140993 0.140996 0.141001 0.141009 0.141018 0.141029 0.141038 0.141042 0.141034 
0.141001 0.140925 0.140775 0.140508 0.140065 0.139382 0.139732 0.140336 0.140671 
0.14084 0.140914 0.140939 0.14094 0.140929 0.140915 0.140902 0.14089 0.140881 
0.140874 0.140869 0.140867 0.140867 0.140869 0.140874 0.140881 0.14089 0.140902 
0.140915 0.140929 0.14094 0.140939 0.140914 0.14084 0.140671 0.140336 0.139732 
0.140164 0.140594 0.140775 0.14084 0.140854 0.140849 0.140836 0.140823 0.140811 
0.140802 0.140794 0.140789 0.140785 0.140782 0.140781 0.140781 0.140782 0.140785 
0.140789 0.140794 0.140802 0.140811 0.140823 0.140836 0.140849 0.140854 0.14084 
0.140775 0.140594 0.140164 0.0416614 0.0595234 0.0642318 0.0676567 0.0698192 0.0709682 
0.0715333 0.0717497 0.0717837 0.0717323 0.0716282 0.0715328 0.0714596 0.0714355 0.0714451 
0.0714918 0.0715522 0.0716278 0.071722 0.0718354 0.0719484 0.0720226 0.0719913 0.0717645 
0.0711686 0.0699901 0.0678025 0.0643584 0.0596151 0.0417309 0.0378622 0.0564543 0.0625784 
0.0662047 0.0683959 0.0695421 0.0700808 0.0702696 0.0702764 0.0702003 0.0700865 0.069983 
0.0699062 0.0698739 0.0698778 0.0699166 0.0699755 0.0700546 0.0701556 0.0702767 0.0704007 
0.0704921 0.0704871 0.0702886 0.0697258 0.0685542 0.0663391 0.0626916 0.0565366 0.0379088 
0.0376713 0.0539028 0.0607753 0.0646437 0.0668828 0.0680506 0.0685933 0.0687809 0.068783 
0.0687008 0.0685867 0.0684823 0.0684053 0.0683687 0.0683685 0.0684016 0.0684583 0.0685377 
0.0686402 0.0687621 0.0688868 0.0689799 0.0689786 0.0687821 0.0682199 0.0670299 0.0647687 
0.0608792 0.0539787 0.0377121 0.0384992 0.0522384 0.0592064 0.0631301 0.0653823 0.0665758 
0.0671418 0.0673497 0.0673673 0.067296 0.0671924 0.067095 0.0670224 0.0669856 0.066983 
0.0670116 0.0670648 0.0671409 0.0672389 0.0673535 0.0674678 0.0675474 0.0675301 0.0673142 
0.0667319 0.065519 0.0632468 0.0593031 0.0523104 0.0385412 0.0391639 0.0513981 0.0579505 
0.0617122 0.0639221 0.0651344 0.0657346 0.0659782 0.0660263 0.0659789 0.0658945 0.0658106 
0.0657465 0.0657126 0.0657093 0.0657343 0.0657828 0.0658528 0.0659416 0.0660423 0.0661372 
0.0661914 0.0661433 0.0658927 0.0652786 0.0640492 0.0618213 0.0580412 0.0514671 0.0392085 
0.0392071 0.0508855 0.0568573 0.0603724 0.0625191 0.0637532 0.0643993 0.0646911 0.0647812 
0.0647671 0.0647083 0.0646422 0.0645894 0.0645605 0.0645578 0.06458 0.0646233 0.0646852 
0.0647617 0.0648441 0.0649132 0.0649333 0.0648432 0.0645452 0.0638872 0.062638 0.060475 
0.0569428 0.0509517 0.0392534 0.0385018 0.0501925 0.0558214 0.0591923 0.0613017 0.0625662 
0.0632624 0.0636044 0.0637373 0.0637567 0.0637231 0.0636743 0.0636324 0.0636089 0.0636072 
0.0636272 0.0636659 0.0637201 0.0637848 0.0638494 0.0638933 0.0638794 0.0637466 0.0633993 
0.0626926 0.0614147 0.0592903 0.0559034 0.0502562 0.0385476 0.0389976 0.0500559 0.0552584 
0.058633 0.0607136 0.0619725 0.0626804 0.0630361 0.0631816 0.0632112 0.0631854 0.0631422 
0.0631037 0.0630817 0.0630803 0.0630994 0.0631364 0.0631881 0.063249 0.0633079 0.0633439 
0.0633197 0.0631745 0.0628138 0.0620962 0.0608245 0.0587295 0.0553395 0.050119 0.0390448 
0.0678156 0.0681884 0.068576 0.0689754 0.0693825 0.0697918 0.0701975 0.0705929 0.0709713 
0.0713261 0.0716507 0.0719394 0.0721872 0.0723897 0.0725438 0.0726475 0.0726996 0.0727004 
0.072651 0.0725535 0.0724112 0.0722277 0.0720076 0.0717554 0.0714759 0.0711738 0.0708534 
0.0705184 0.0701714 0.0698144 0.0676666 0.0680449 0.0684425 0.068856 0.0692806 0.0697104 
0.0701383 0.070557 0.0709589 0.0713362 0.0716818 0.0719893 0.0722529 0.0724679 0.0726308 
0.0727394 0.0727926 0.0727907 0.072735 0.0726282 0.0724739 0.0722764 0.072041 0.071773 
0.0714781 0.0711616 0.0708286 0.0704833 0.0701293 0.0697685 0.0675419 0.0679248 0.0683311 
0.0687572 0.0691977 0.0696458 0.0700938 0.0705334 0.070956 0.0713534 0.0717176 0.0720413 
0.0723184 0.0725439 0.0727138 0.0728258 0.0728787 0.072873 0.0728103 0.0726936 0.0725269 
0.0723153 0.0720646 0.0717809 0.0714706 0.0711399 0.0707944 0.0704392 0.0700782 0.0697138 
0.0673914 0.0677793 0.068196 0.0686372 0.0690968 0.0695671 0.0700393 0.0705041 0.0709521 
0.0713737 0.0717603 0.0721038 0.0723973 0.0726354 0.0728139 0.07293 0.0729828 0.0729727 
0.0729016 0.072773 0.0725915 0.0723629 0.0720938 0.0717911 0.0714623 0.0711143 0.0707538 
0.0703866 0.0700173 0.0696487 0.0672305 0.0676239 0.0680519 0.0685096 0.0689901 0.0694845 
0.0699831 0.0704753 0.0709506 0.0713985 0.0718092 0.0721739 0.0724851 0.0727367 0.072924 
0.0730444 0.0730966 0.0730813 0.0730007 0.0728587 0.0726606 0.072413 0.0721233 0.0717995 
0.07145 0.0710827 0.0707055 0.0703249 0.0699463 0.0695731 0.0670555 0.0674549 0.0678954 
0.0683713 0.0688747 0.0693957 0.0699232 0.0704456 0.0709508 0.0714274 0.0718645 0.0722523 
0.0725827 0.0728488 0.0730458 0.0731706 0.073222 0.0732007 0.0731094 0.0729525 0.072736 
0.0724673 0.0721547 0.0718073 0.0714346 0.0710459 0.0706499 0.0702544 0.0698653 0.069487 
0.0668669 0.067273 0.0677272 0.068223 0.0687514 0.0693014 0.0698604 0.0704155 0.0709532 
0.0714609 0.0719265 0.0723393 0.0726902 0.072972 0.0731792 0.0733086 0.0733589 0.0733309 
0.0732278 0.0730544 0.0728175 0.0725253 0.0721874 0.0718139 0.0714156 0.071003 0.0705862 
0.070174 0.0697734 0.0693894 0.066664 0.0670774 0.0675464 0.068064 0.0686197 0.0692012 
0.0697945 0.070385 0.070958 0.0714992 0.0719955 0.0724352 0.0728083 0.0731069 0.073325 
0.0734591 0.073508 0.0734726 0.0733563 0.0731647 0.0729054 0.0725875 0.0722216 0.0718193 
0.0713927 0.0709538 0.0705139 0.0700832 0.0696698 0.0692794 0.0664461 0.0668673 0.0673527 
0.0678939 0.0684793 0.069095 0.0697254 0.0703543 0.0709653 0.0715427 0.0720721 0.0725407 
0.0729376 0.073254 0.0734837 0.0736228 0.0736699 0.0736263 0.0734956 0.0732841 0.0730001 
0.072654 0.0722574 0.0718235 0.0713657 0.0708977 0.0704323 0.0699811 0.0695535 0.0691561 
0.0662123 0.0666422 0.0671452 0.0677121 0.0683298 0.0689825 0.0696531 0.0703234 0.0709753 
0.0715917 0.0721566 0.0726562 0.0730785 0.0734141 0.0736561 0.0738004 0.0738455 0.0737928 
0.0736463 0.0734131 0.0731022 0.0727252 0.0722951 0.0718264 0.0713343 0.0708343 0.0703407 
0.0698669 0.0694236 0.0690184 0.0659619 0.0664011 0.0669234 0.0675182 0.0681707 0.0688636 
0.0695774 0.0702922 0.0709882 0.0716464 0.0722495 0.0727822 0.0732317 0.0735878 0.0738429 
0.0739926 0.0740354 0.0739727 0.0738091 0.0735522 0.0732121 0.0728014 0.0723347 0.071828 
0.0712984 0.0707631 0.0702386 0.0697398 0.0692791 0.0688653 0.0656939 0.0661434 0.0666866 
0.0673115 0.0680018 0.0687378 0.0694983 0.070261 0.0710042 0.0717072 0.072351 0.0729192 
0.0733978 0.0737756 0.0740447 0.0742002 0.0742403 0.0741669 0.0739848 0.0737022 0.0733304 
0.0728832 0.0723765 0.0718283 0.0712576 0.0706837 0.0701251 0.0695989 0.0691191 0.0686957 
0.0654077 0.0658682 0.066434 0.0670915 0.0678224 0.068605 0.0694155 0.0702296 0.0710234 
0.0717742 0.0724617 0.0730677 0.0735772 0.0739783 0.0742622 0.0744238 0.0744611 0.074376 
0.0741739 0.0738638 0.0734577 0.0729708 0.0724208 0.0718275 0.0712119 0.0705957 0.0699997 
0.0694433 0.0689423 0.0685085 0.0651024 0.0655748 0.066165 0.0668577 0.0676324 0.0684649 
0.0693291 0.0701981 0.0710459 0.0718479 0.0725817 0.0732281 0.0737706 0.0741964 0.0744962 
0.0746642 0.0746985 0.074601 0.0743774 0.0740375 0.0735945 0.0730648 0.0724679 0.0718255 
0.071161 0.0704985 0.0698616 0.069272 0.0687478 0.0683024 0.0647772 0.0652625 0.065879 
0.0666095 0.0674312 0.0683172 0.0692388 0.0701666 0.071072 0.0719283 0.0727116 0.0734008 
0.0739784 0.0744305 0.0747472 0.0749222 0.0749533 0.0748424 0.0745959 0.0742242 0.0737415 
0.0731657 0.0725181 0.0718224 0.0711047 0.0703918 0.0697101 0.069084 0.0685343 0.0680762 
0.0644314 0.0649307 0.0655754 0.0663465 0.0672185 0.0681618 0.0691446 0.0701349 0.0711016 
0.0720158 0.0728515 0.0735862 0.0742011 0.0746813 0.075016 0.0751984 0.0752262 0.0751013 
0.0748304 0.0744246 0.0738994 0.0732741 0.0725717 0.0718184 0.071043 0.0702751 0.0695444 
0.0688783 0.0683006 0.0678285 0.0640643 0.0645785 0.0652536 0.0660681 0.0669939 0.0679983 
0.0690464 0.0701032 0.0711349 0.0721105 0.0730018 0.0737849 0.0744393 0.0749494 0.0753032 
0.0754937 0.0755181 0.0753783 0.0750815 0.0746395 0.0740688 0.0733904 0.0726291 0.0718137 
0.0709756 0.0701479 0.0693637 0.0686539 0.0680454 0.0675579 0.0636753 0.0642056 0.0649131 
0.0657741 0.0667572 0.0678266 0.068944 0.0700712 0.0711719 0.0722125 0.0731628 0.073997 
0.0746934 0.0752351 0.0756095 0.0758087 0.0758297 0.0756743 0.0753501 0.0748696 0.0742506 
0.0735152 0.0726907 0.0718083 0.0709024 0.0700098 0.0691672 0.0684096 0.0677672 0.0672629 
0.0632639 0.0638113 0.0645535 0.065464 0.0665081 0.0676464 0.0688372 0.0700391 0.0712127 
0.0723219 0.0733345 0.0742229 0.0749639 0.0755393 0.0759355 0.0761442 0.0761618 0.0759901 
0.075637 0.0751159 0.0744453 0.0736493 0.072757 0.0718024 0.0708234 0.0698602 0.0689541 
0.0681442 0.0674648 0.0669418 0.0628296 0.0633953 0.0641744 0.0651375 0.0662463 0.0674576 
0.068726 0.0700067 0.0712573 0.0724389 0.0735173 0.0744629 0.0752511 0.0758622 0.0762819 
0.0765009 0.0765152 0.0763266 0.0759432 0.075379 0.0746538 0.0737931 0.0728284 0.0717964 
0.0707383 0.0696988 0.0687236 0.0678565 0.0671365 0.0665931 0.0623721 0.0629574 0.0637756 
0.0647944 0.0659716 0.06726 0.0686102 0.069974 0.0713055 0.0725635 0.0737113 0.0747173 
0.0755554 0.0762046 0.0766493 0.0768796 0.0768908 0.0766846 0.0762694 0.0756599 0.0748768 
0.0739474 0.0729054 0.0717903 0.0706471 0.069525 0.0684746 0.0675453 0.0667808 0.0662149 
0.0618914 0.0624973 0.063357 0.0644346 0.0656839 0.0670534 0.0684897 0.0699406 0.0713574 
0.0726957 0.0739165 0.0749863 0.0758772 0.0765668 0.0770383 0.0772809 0.0772893 0.077065 
0.0766165 0.0759593 0.0751151 0.0741128 0.0729883 0.0717843 0.0705497 0.0693384 0.0682064 
0.067209 0.0663959 0.0658054 0.0613875 0.0620152 0.0629186 0.064058 0.065383 0.0668376 
0.068364 0.0699064 0.0714126 0.0728352 0.074133 0.0752701 0.0762168 0.0769493 0.0774495 
0.0777056 0.0777115 0.0774685 0.0769854 0.0762781 0.0753694 0.0742899 0.0730778 0.0717788 
0.0704461 0.0691384 0.067918 0.0668465 0.0659801 0.0653627 0.0608607 0.0615113 0.0624605 
0.0636647 0.065069 0.0666125 0.0682332 0.0698712 0.0714709 0.072982 0.0743606 0.0755687 
0.0765745 0.0773526 0.0778836 0.0781543 0.0781583 0.0778961 0.0773769 0.076617 0.0756405 
0.0744794 0.0731742 0.071774 0.070336 0.0689246 0.0676084 0.0664564 0.0655317 0.0648846 
0.0603115 0.0609862 0.0619833 0.0632551 0.0647418 0.0663778 0.0680967 0.0698345 0.0715319 
0.0731357 0.0745992 0.0758821 0.0769505 0.077777 0.0783409 0.0786278 0.0786302 0.0783484 
0.0777917 0.0769769 0.075929 0.0746818 0.0732781 0.0717701 0.0702196 0.0686966 0.0672769 
0.0660371 0.0650489 0.0643692 0.0597409 0.0604407 0.0614875 0.0628294 0.0644016 0.0661337 
0.0679544 0.0697957 0.071595 0.0732958 0.0748485 0.0762102 0.0773448 0.0782229 0.0788221 
0.0791266 0.079128 0.0788262 0.0782305 0.0773583 0.0762356 0.0748977 0.0733898 0.0717674 
0.0700968 0.0684541 0.0669225 0.0655875 0.0645298 0.0638144 0.0591502 0.059876 0.0609744 
0.0623886 0.0640489 0.0658798 0.0678056 0.0697543 0.0716595 0.0734616 0.0751079 0.0765526 
0.0777573 0.0786903 0.0793273 0.0796511 0.0796522 0.07933 0.0786938 0.0777617 0.0765607 
0.0751275 0.0735097 0.0717661 0.0699677 0.0681968 0.0665447 0.0651065 0.0639729 0.0632183 
0.0585414 0.0592941 0.0604453 0.0619337 0.0636841 0.0656163 0.0676501 0.0697094 0.0717245 
0.0736321 0.0753764 0.0769087 0.0781876 0.079179 0.0798565 0.0802014 0.0802029 0.0798599 
0.079182 0.0781875 0.0769047 0.0753716 0.0736382 0.0717667 0.0698326 0.0679248 0.0661431 
0.0645931 0.0633768 0.0625792 0.057917 0.0586974 0.0599026 0.0614663 0.0633083 0.0653434 
0.0674872 0.06966 0.0717884 0.0738058 0.0756528 0.0772773 0.0786349 0.0796885 0.0804095 
0.0807773 0.08078 0.0804159 0.0796948 0.0786356 0.0772675 0.0756302 0.0737757 0.0717695 
0.069692 0.0676385 0.0657179 0.0640469 0.0627405 0.0618957 0.0572805 0.0580893 0.0593494 
0.0609892 0.0629232 0.0650616 0.0673164 0.0696047 0.0718495 0.0739807 0.0759351 0.0776568 
0.0790975 0.0802173 0.0809848 0.0813776 0.0813823 0.080997 0.0802314 0.0791053 0.0776488 
0.0759031 0.0739223 0.0717752 0.0695466 0.0673387 0.0652697 0.0634685 0.0620641 0.0611674 
0.0566366 0.0574745 0.0587902 0.060506 0.0625312 0.0647719 0.0671374 0.0695418 0.0719053 
0.074154 0.0762204 0.0780443 0.0795731 0.0807632 0.0815803 0.082 0.0820078 0.081601 
0.0807901 0.0795952 0.0780475 0.0761898 0.0740782 0.0717845 0.069398 0.0670275 0.0648007 
0.0628594 0.0613485 0.0603947 0.0559914 0.0568598 0.0582319 0.0600229 0.0621367 0.0644766 
0.06695 0.0694696 0.0719528 0.074322 0.0765048 0.0784358 0.0800575 0.0813222 0.0821922 
0.0826409 0.0826526 0.0822246 0.0813675 0.0801026 0.0784618 0.0764894 0.0742435 0.0717986 
0.0692484 0.0667081 0.0643148 0.0622237 0.060597 0.0595801 0.0553522 0.0562535 0.0576836 
0.0595483 0.0617459 0.0641784 0.0667539 0.069385 0.0719872 0.0744786 0.0767816 0.0788245 
0.080544 0.0818873 0.0828131 0.0832927 0.0833094 0.0828605 0.0819574 0.0806221 0.0788876 
0.0767995 0.0744174 0.0718186 0.0691009 0.0663854 0.063818 0.0615675 0.0598149 0.0587278 
0.0547268 0.0556663 0.057158 0.0590935 0.0613664 0.0638803 0.0665474 0.0692826 0.0720002 
0.074614 0.0770399 0.0791988 0.0810204 0.082446 0.0834303 0.0839424 0.083965 0.0834959 
0.0825477 0.0811433 0.0793166 0.0771139 0.0745964 0.0718441 0.0689582 0.0660653 0.0633192 
0.060901 0.059011 0.0578437 0.0541346 0.0551236 0.0566829 0.0586843 0.0610179 0.0635949 
0.0663365 0.0691632 0.0719889 0.0747228 0.0772728 0.079551 0.0814783 0.0829893 0.084034 
0.0845795 0.0846089 0.084121 0.08313 0.0816599 0.0797451 0.0774324 0.0747841 0.0718824 
0.0688324 0.0657656 0.0628416 0.0602507 0.0582112 0.0569493 0.053612 0.0546748 0.056313 
0.0583706 0.0607412 0.0633527 0.066143 0.0690417 0.0719633 0.074811 0.0774836 0.0798823 
0.0819177 0.0835158 0.0846216 0.0852006 0.0852369 0.0847321 0.0837024 0.0821732 0.080179 
0.0777658 0.0749965 0.0719554 0.0687522 0.065523 0.0624308 0.0596691 0.0574664 0.0560847 
0.0530993 0.0542985 0.0560373 0.0581324 0.0605008 0.0631029 0.0659032 0.068844 0.0718406 
0.0747889 0.077577 0.0800935 0.0822363 0.0839209 0.085086 0.0856961 0.0857384 0.0852184 
0.0841562 0.0825789 0.08052 0.0780238 0.075152 0.0719912 0.0686567 0.0652907 0.0620567 
0.0591397 0.0567559 0.0551936 0.0524245 0.0538861 0.0557464 0.0578339 0.0601345 0.0626623 
0.0654178 0.0683585 0.0713982 0.0744244 0.0773142 0.0799417 0.0821897 0.0839593 0.0851808 
0.0858179 0.0858628 0.0853283 0.0842402 0.0826285 0.0805256 0.0779721 0.0750267 0.0717783 
0.0683509 0.0648972 0.0615811 0.0585639 0.0559994 0.0541446 0.0524593 0.0543127 0.0562669 
0.0582581 0.0603996 0.0627767 0.0654292 0.0683259 0.0713737 0.0744501 0.0774244 0.0801555 
0.0825077 0.084363 0.08564 0.0863015 0.0863474 0.0858013 0.084698 0.0830714 0.0809518 
0.0783735 0.0753893 0.0720898 0.0686137 0.0651365 0.0618343 0.0588372 0.0561721 0.0539492 
0.0561382 0.0583312 0.0602513 0.0620258 0.0639237 0.0661004 0.0686245 0.0714618 0.0744984 
0.0775987 0.0806318 0.0834558 0.0859113 0.0878527 0.0891823 0.0898649 0.0899123 0.0893622 
0.0882622 0.0866504 0.0845515 0.0819872 0.0789975 0.07567 0.0721629 0.0686943 0.065479 
0.0626324 0.0600299 0.0575363 0.066206 0.0685753 0.0702929 0.0717357 0.0733232 0.0752708 
0.0776649 0.0804466 0.0834593 0.0865519 0.0896145 0.0925166 0.0950686 0.0970846 0.0984499 
0.0991378 0.0991785 0.0986283 0.097555 0.0960002 0.0939751 0.0914788 0.0885237 0.0851807 
0.0816261 0.0781461 0.0750297 0.0724054 0.0699878 0.0672965 0.08408 0.0866674 0.0881007 
0.0891351 0.0903491 0.0920261 0.0942729 0.0969769 0.0998926 0.102855 0.10584 0.108772 
0.111398 0.113452 0.114798 0.11545 0.115466 0.114925 0.113934 0.112536 0.11071 
0.108413 0.105603 0.102296 0.0986719 0.0951273 0.0920766 0.0897146 0.0876206 0.0848078 
0.113856 0.11641 0.117467 0.118061 0.11881 0.120076 0.122037 0.124495 0.127007 
0.129375 0.131803 0.134403 0.13682 0.138652 0.139768 0.140278 0.140277 0.139838 
0.139145 0.138227 0.136995 0.135355 0.133158 0.130285 0.126822 0.123324 0.120368 
0.118282 0.116675 0.114056 0.163593 0.165377 0.166205 0.16675 0.167141 0.167654 
0.168588 0.169883 0.171032 0.171671 0.172074 0.172674 0.173407 0.173971 0.174269 
0.174464 0.174663 0.174797 0.174988 0.175267 0.175512 0.175621 0.175414 0.174627 
0.172966 0.170779 0.168569 0.16674 0.16539 0.163425 0.236128 0.23671 0.237661 
0.239538 0.240536 0.240241 0.238334 0.235686 0.233456 0.231402 0.22803 0.223194 
0.218819 0.216078 0.214873 0.214541 0.215285 0.217139 0.218963 0.221175 0.223885 
0.226873 0.230323 0.23429 0.238495 0.24095 0.241492 0.240013 0.237511 0.235122 
0.311465 0.312243 0.312701 0.31659 0.318688 0.318592 0.313429 0.304626 0.296569 
0.291382 0.285236 0.27431 0.263051 0.255594 0.25271 0.25184 0.252514 0.256524 
0.260078 0.264144 0.269331 0.275043 0.282054 0.290149 0.301926 0.310786 0.315891 
0.315419 0.311252 0.306368 0.355635 0.355629 0.359497 0.35969 0.36287 0.361375 
0.356683 0.346938 0.335021 0.324767 0.316427 0.306166 0.293082 0.28315 0.278226 
0.277371 0.277785 0.279868 0.285587 0.289924 0.295711 0.303028 0.310731 0.320236 
0.330382 0.34315 0.34924 0.351102 0.347654 0.342728 0.357415 0.359622 0.361725 
0.36305 0.363007 0.361656 0.358094 0.351931 0.343132 0.332414 0.321168 0.310763 
0.301536 0.293919 0.288999 0.286963 0.287246 0.289167 0.29235 0.296476 0.301158 
0.306514 0.312752 0.319818 0.327423 0.334589 0.340374 0.34345 0.343059 0.339524 
0.340366 0.34254 0.343372 0.343926 0.343627 0.343266 0.342534 0.340423 0.336674 
0.329018 0.317103 0.305942 0.298239 0.292274 0.287849 0.285853 0.286668 0.289718 
0.292382 0.293956 0.295515 0.297688 0.301167 0.305813 0.310688 0.31517 0.318926 
0.322099 0.323965 0.322034 0.324381 0.325498 0.324677 0.325249 0.32578 0.326573 
0.32835 0.32853 0.330036 0.32868 0.318228 0.303889 0.295325 0.290405 0.286037 
0.283599 0.284153 0.289854 0.292962 0.291644 0.289939 0.289205 0.290714 0.294326 
0.298108 0.301565 0.303303 0.304332 0.306748 0.305878 0.313948 0.313892 0.312899 
0.312772 0.316964 0.318254 0.320813 0.322791 0.325582 0.327721 0.326212 0.310848 
0.297089 0.293143 0.289344 0.286469 0.286205 0.290814 0.294534 0.292279 0.287745 
0.28635 0.286886 0.28968 0.29313 0.295448 0.295941 0.293951 0.293798 0.294095 
0.302552 0.302286 0.303072 0.305028 0.310659 0.313902 0.316762 0.318196 0.322646 
0.325828 0.325148 0.319018 0.30299 0.29609 0.294122 0.291812 0.291163 0.294135 
0.295517 0.291108 0.286921 0.28514 0.286171 0.288109 0.290336 0.291205 0.28869 
0.286283 0.285804 0.283115 0.286614 0.290072 0.293185 0.297194 0.304651 0.308932 
0.31082 0.312752 0.31704 0.322119 0.323222 0.318022 0.307575 0.299408 0.298035 
0.296693 0.295887 0.296694 0.296064 0.290222 0.285559 0.284029 0.284294 0.285646 
0.287126 0.287664 0.283434 0.277454 0.27529 0.275137 0.274004 0.279741 0.284585 
0.29237 0.299109 0.304515 0.306468 0.308032 0.31103 0.317396 0.320472 0.318681 
0.310485 0.306459 0.30247 0.300164 0.299161 0.298867 0.296295 0.290888 0.284549 
0.282382 0.282682 0.283442 0.284331 0.284351 0.280648 0.271078 0.2658 0.262923 
0.271643 0.275286 0.282283 0.288926 0.296536 0.302357 0.305008 0.30688 0.3087 
0.312906 0.317725 0.317288 0.315227 0.310811 0.308109 0.302092 0.299598 0.299346 
0.29644 0.290139 0.284359 0.280668 0.280097 0.280937 0.281905 0.282568 0.280596 
0.268949 0.262589 0.257612 0.275395 0.280168 0.284709 0.290036 0.295364 0.300953 
0.304188 0.307045 0.309337 0.311185 0.314912 0.315402 0.312264 0.312986 0.312134 
0.30178 0.298546 0.299557 0.296905 0.289716 0.283159 0.27842 0.277527 0.278073 
0.279955 0.281649 0.281918 0.278424 0.265568 0.266729 0.282801 0.283297 0.289946 
0.29236 0.294853 0.297508 0.301236 0.305616 0.308599 0.311576 0.312652 0.313211 
0.310118 0.309918 0.310757 0.304801 0.299114 0.298965 0.29735 0.289421 0.28149 
0.277125 0.274878 0.275215 0.277857 0.280623 0.282951 0.282933 0.281075 0.275474 
0.284881 0.286328 0.289734 0.291866 0.292836 0.294051 0.295806 0.299798 0.306387 
0.31036 0.310415 0.310836 0.308716 0.30865 0.310119 0.305507 0.298591 0.299039 
0.296695 0.288279 0.279576 0.274149 0.272135 0.271817 0.273597 0.278533 0.281872 
0.282748 0.283108 0.282405 0.281433 0.282891 0.28586 0.288063 0.288716 0.289068 
0.289063 0.293388 0.299239 0.306604 0.308071 0.307343 0.306337 0.308027 0.309949 
0.305428 0.297852 0.296723 0.294478 0.286343 0.276964 0.270736 0.268415 0.268326 
0.270365 0.274254 0.279272 0.280726 0.281157 0.281169 0.276688 0.277215 0.278379 
0.281443 0.281167 0.281122 0.280966 0.284399 0.29077 0.298979 0.303016 0.30349 
0.303204 0.305398 0.309007 0.304729 0.296559 0.294333 0.291891 0.283992 0.274236 
0.26775 0.265326 0.265358 0.267604 0.271305 0.27644 0.278633 0.279616 0.279389 
0.271002 0.271594 0.271886 0.274748 0.274336 0.27318 0.273151 0.276039 0.282243 
0.289993 0.29621 0.29874 0.299964 0.302674 0.307092 0.30384 0.295491 0.292691 
0.28975 0.28177 0.272112 0.265549 0.262742 0.262766 0.26475 0.268689 0.273567 
0.276354 0.278121 0.27842 0.265748 0.267117 0.267693 0.27053 0.270425 0.268943 
0.268699 0.270695 0.27564 0.283319 0.2907 0.294856 0.296918 0.300421 0.305397 
0.303085 0.294948 0.291907 0.288445 0.279841 0.270157 0.263732 0.260161 0.259566 
0.261026 0.265678 0.270918 0.273931 0.276338 0.277087 0.26063 0.26255 0.264088 
0.266724 0.26695 0.266244 0.266383 0.267835 0.270572 0.279598 0.28725 0.292486 
0.293739 0.297496 0.302628 0.301607 0.294234 0.291139 0.287963 0.278676 0.268823 
0.262213 0.258044 0.256363 0.257442 0.26245 0.268477 0.271556 0.274497 0.275654 
0.255902 0.257317 0.260078 0.262067 0.262921 0.262091 0.264158 0.265404 0.268753 
0.275464 0.285658 0.2899 0.291126 0.293631 0.297724 0.298324 0.292672 0.289644 
0.286408 0.277443 0.268084 0.260601 0.256197 0.253324 0.25511 0.259846 0.266014 
0.269679 0.272432 0.274368 0.25265 0.252722 0.254954 0.257419 0.258248 0.257771 
0.259233 0.263098 0.266349 0.2732 0.282685 0.287317 0.28827 0.291151 0.294277 
0.293642 0.29016 0.287675 0.283841 0.275088 0.265644 0.25752 0.252375 0.25003 
0.251688 0.257794 0.263729 0.267487 0.270748 0.272984 0.247832 0.248526 0.250272 
0.252908 0.253623 0.252996 0.254367 0.258531 0.263643 0.270063 0.278812 0.284326 
0.285623 0.290098 0.295026 0.291967 0.288013 0.285279 0.280198 0.27219 0.262357 
0.253571 0.247378 0.245387 0.247946 0.25499 0.261328 0.265274 0.268787 0.27083 
0.243091 0.244409 0.246085 0.248817 0.24986 0.248277 0.249509 0.252722 0.259401 
0.266231 0.274415 0.280518 0.282435 0.287497 0.295939 0.292545 0.286867 0.283324 
0.276258 0.268464 0.257837 0.249578 0.243339 0.241749 0.24478 0.252239 0.258851 
0.263142 0.266869 0.268314 0.239656 0.240136 0.242591 0.24489 0.246984 0.245051 
0.244159 0.246508 0.252521 0.261239 0.269544 0.274905 0.279357 0.283614 0.288702 
0.291658 0.284551 0.280983 0.275488 0.263705 0.252974 0.244522 0.239141 0.238664 
0.241943 0.248778 0.256137 0.260435 0.265001 0.266325 0.236832 0.236545 0.239013 
0.242115 0.243837 0.242393 0.241105 0.242133 0.246324 0.25539 0.264701 0.269872 
0.274815 0.28062 0.284521 0.284312 0.28172 0.279461 0.275283 0.26247 0.249513 
0.239806 0.23516 0.233685 0.237752 0.245182 0.251938 0.257067 0.262348 0.264446 
0.234396 0.233427 0.235582 0.239382 0.240739 0.23928 0.238278 0.239556 0.242987 
0.251439 0.260498 0.265508 0.271498 0.27827 0.282074 0.281517 0.27901 0.276743 
0.273284 0.261109 0.247106 0.237248 0.23224 0.229533 0.233135 0.241171 0.248412 
0.253589 0.258991 0.261456 0.232886 0.230761 0.232362 0.235707 0.237401 0.235563 
0.234495 0.235734 0.240105 0.248167 0.258211 0.263951 0.269761 0.275699 0.280158 
0.279521 0.277243 0.273836 0.267544 0.257343 0.243341 0.234412 0.229716 0.226664 
0.229616 0.237599 0.2457 0.250739 0.255603 0.25742 0.230656 0.228456 0.228871 
0.231854 0.233605 0.231849 0.230019 0.231158 0.236059 0.245204 0.256424 0.266848 
0.268928 0.273505 0.276864 0.276732 0.274274 0.271765 0.265842 0.252316 0.2397 
0.231222 0.225687 0.223198 0.224531 0.233015 0.241227 0.24691 0.252206 0.252749 
0.226089 0.224175 0.224245 0.227323 0.229586 0.22804 0.225625 0.226616 0.232636 
0.242799 0.251952 0.263812 0.26715 0.269462 0.273261 0.27342 0.270344 0.26911 
0.264557 0.251654 0.238056 0.228052 0.221696 0.218571 0.2188 0.226232 0.235004 
0.241193 0.247043 0.246849 0.219086 0.217399 0.21795 0.221085 0.224876 0.222348 
0.2206 0.221159 0.228924 0.239734 0.246915 0.249032 0.258031 0.261666 0.268584 
0.270346 0.266277 0.264322 0.259399 0.24956 0.236768 0.224351 0.218244 0.21471 
0.216234 0.221159 0.229267 0.235637 0.239931 0.240305 0.212593 0.210951 0.21078 
0.215267 0.218714 0.215391 0.213337 0.213735 0.221728 0.234435 0.241311 0.240519 
0.241568 0.250697 0.262506 0.265422 0.261462 0.257936 0.253846 0.241984 0.230675 
0.220391 0.213147 0.211636 0.21659 0.219677 0.224464 0.229392 0.233728 0.233685 
0.208505 0.205866 0.207036 0.210213 0.212933 0.20958 0.206342 0.207735 0.213972 
0.227109 0.234764 0.234907 0.233536 0.24004 0.253153 0.258727 0.255699 0.251728 
0.247617 0.236496 0.223605 0.214002 0.207841 0.20649 0.21135 0.218423 0.219838 
0.221539 0.225313 0.226644 0.205924 0.201218 0.203301 0.207431 0.208456 0.203747 
0.200601 0.203795 0.209044 0.220957 0.227666 0.228379 0.228629 0.231897 0.24255 
0.251208 0.248639 0.246067 0.240123 0.231633 0.219849 0.208497 0.203276 0.200932 
0.201515 0.210815 0.212711 0.212885 0.215583 0.216771 0.201789 0.197541 0.196479 
0.203984 0.205383 0.196948 0.194576 0.19735 0.205469 0.214674 0.221216 0.221314 
0.223048 0.224626 0.231544 0.241526 0.240213 0.236721 0.232175 0.222628 0.214408 
0.204277 0.197929 0.195137 0.19673 0.200005 0.203637 0.203515 0.205302 0.206651 
0.194485 0.19252 0.192314 0.196572 0.200731 0.193839 0.187861 0.189949 0.200273 
0.210429 0.214098 0.214026 0.21542 0.216724 0.220394 0.227527 0.229168 0.224052 
0.221872 0.212208 0.20487 0.198334 0.191018 0.188251 0.190568 0.193757 0.19435 
0.192836 0.194102 0.196894 0.187469 0.185356 0.186668 0.190803 0.192943 0.189374 
0.184238 0.18511 0.189385 0.20518 0.208825 0.204638 0.204522 0.205323 0.208167 
0.214282 0.214752 0.210831 0.2086 0.20188 0.194593 0.190895 0.185221 0.181847 
0.181645 0.186116 0.183814 0.181816 0.183248 0.185746 0.179441 0.177862 0.178815 
0.184162 0.18504 0.180847 0.178759 0.181057 0.183295 0.193685 0.199667 0.195372 
0.19208 0.190779 0.194172 0.200529 0.201018 0.197059 0.19519 0.190098 0.183876 
0.181864 0.178728 0.175522 0.174713 0.176088 0.173971 0.170566 0.172192 0.174795 
0.170692 0.170247 0.170861 0.174702 0.17711 0.172278 0.169232 0.172883 0.178838 
0.184593 0.189266 0.185201 0.180317 0.176341 0.17847 0.184807 0.18621 0.181523 
0.181318 0.178437 0.172049 0.170753 0.169659 0.167388 0.16689 0.16664 0.163715 
0.159678 0.160514 0.163382 0.161525 0.16206 0.163416 0.164263 0.166765 0.165446 
0.160975 0.162473 0.170235 0.174641 0.177917 0.173462 0.169456 0.163801 0.162927 
0.167931 0.17035 0.165636 0.165527 0.165852 0.16052 0.158373 0.158498 0.156921 
0.156017 0.155156 0.151855 0.148096 0.148508 0.150696 0.152217 0.152806 0.153847 
0.154466 0.153346 0.157249 0.156205 0.156356 0.15895 0.162743 0.164626 0.160278 
0.158204 0.153175 0.149661 0.152704 0.154449 0.152623 0.150227 0.151107 0.149282 
0.145771 0.146092 0.144336 0.142229 0.139769 0.137907 0.135494 0.137275 0.138119 
0.142024 0.142714 0.141856 0.142211 0.141796 0.144218 0.149471 0.149952 0.150926 
0.152196 0.152148 0.150468 0.145189 0.142082 0.139153 0.140612 0.140535 0.139883 
0.138228 0.138419 0.136401 0.134336 0.133034 0.13154 0.128555 0.125351 0.123234 
0.123306 0.125683 0.127153 0.131548 0.132177 0.129235 0.128859 0.130086 0.132721 
0.13797 0.140352 0.140444 0.140501 0.140902 0.140597 0.133702 0.129739 0.128557 
0.130018 0.129309 0.127499 0.126823 0.12667 0.125331 0.123277 0.120995 0.119192 
0.11672 0.114429 0.11216 0.112585 0.114741 0.116606 0.121198 0.121813 0.118312 
0.116913 0.11844 0.123024 0.126171 0.128525 0.128455 0.12664 0.126589 0.126523 
0.122363 0.117804 0.118019 0.119947 0.119632 0.116496 0.115958 0.115528 0.115359 
0.113346 0.110884 0.108474 0.106387 0.105223 0.103761 0.104189 0.105925 0.107549 
0.11149 0.111189 0.108932 0.107508 0.108236 0.113214 0.116582 0.116285 0.117123 
0.115116 0.113053 0.111139 0.112128 0.1086 0.109311 0.111746 0.111023 0.108465 
0.106625 0.106716 0.106225 0.105093 0.103095 0.100082 0.0980799 0.0963085 0.0961733 
0.0970826 0.0999969 0.100878 0.103481 0.101542 0.0993737 0.0992231 0.10007 0.103825 
0.107951 0.107535 0.107597 0.106997 0.104173 0.102219 0.103226 0.103238 0.103719 
0.105239 0.104745 0.102305 0.100079 0.0996586 0.0986643 0.0980978 0.0964799 0.0940934 
0.0915336 0.0892636 0.0886127 0.0904449 0.0944408 0.0964989 0.0977334 0.0942118 0.0907466 
0.0909975 0.0931424 0.0958599 0.100284 0.101364 0.101141 0.101411 0.0988274 0.0981391 
0.0977983 0.0994072 0.0996584 0.0999989 0.0995157 0.0972521 0.0950915 0.0939923 0.0925103 
0.0917822 0.090445 0.0888984 0.0862697 0.0838985 0.0822636 0.0840846 0.0883463 0.0920837 
0.0933554 0.0888692 0.0839921 0.0840064 0.0866219 0.0900814 0.0939301 0.0953824 0.0962785 
0.0960089 0.0952705 0.0946717 0.0947044 0.0950724 0.0950691 0.0951025 0.093907 0.0924817 
0.0908842 0.0893083 0.088235 0.0865192 0.085575 0.0838918 0.0817248 0.0792852 0.077354 
0.0784343 0.0826466 0.0874482 0.0900984 0.0837492 0.0786118 0.0784513 0.0814577 0.0853515 
0.0891709 0.0907128 0.0914906 0.0912749 0.0914749 0.0919741 0.0917284 0.0906884 0.0903222 
0.0900488 0.0888961 0.0880958 0.0873749 0.0862436 0.0851877 0.0836552 0.0822668 0.0805262 
0.078324 0.0758063 0.0737137 0.0741589 0.0783358 0.084582 0.0879758 0.078557 0.0739244 
0.0740194 0.0776509 0.0817049 0.0857284 0.0878101 0.0880798 0.0882561 0.0883302 0.0896323 
0.0894334 0.0876152 0.0867196 0.0862378 0.0854237 0.085092 0.0849669 0.0844849 0.0833694 
0.0823234 0.0807895 0.0789917 0.0768142 0.0739157 0.0715707 0.0711464 0.0754994 0.0841587 
0.0873623 0.0740451 0.0698511 0.0711599 0.0751547 0.079509 0.0836278 0.0861857 0.086286 
0.0864985 0.086525 0.0875049 0.0872767 0.0859658 0.0849703 0.0842938 0.0838144 0.0833858 
0.0835539 0.0831921 0.0822419 0.0814224 0.0800644 0.0784115 0.0762537 0.0731393 0.0701722 
0.0687582 0.0727804 0.0851888 0.08789 0.0700431 0.0669119 0.0696219 0.0741071 0.0786046 
0.0826129 0.0854175 0.085597 0.0852736 0.0852176 0.0857592 0.0853749 0.0845507 0.0843576 
0.0838834 0.083173 0.0825332 0.0825123 0.0823406 0.0812516 0.0805359 0.079385 0.0778703 
0.0758324 0.0725628 0.0690298 0.066301 0.0694387 0.0863652 0.0883865 0.0658781 0.0648421 
0.0691472 0.0739495 0.0784769 0.0821525 0.0846205 0.0855817 0.0844066 0.0841794 0.0843101 
0.084192 0.0831976 0.0837377 0.0838043 0.0822308 0.0816882 0.0814689 0.0820555 0.0806081 
0.0797106 0.0786849 0.0773196 0.0754746 0.0721746 0.0682173 0.0640069 0.0653735 0.0869657 
0.0871314 0.0614174 0.0637636 0.0695926 0.0745197 0.0787204 0.0816439 0.0837799 0.0848441 
0.0841401 0.0834997 0.0834863 0.0834567 0.0824677 0.0824353 0.0826071 0.0808937 0.0800622 
0.0801544 0.0811742 0.0801844 0.0788614 0.0779062 0.0768531 0.075289 0.0720697 0.0679193 
0.0623778 0.0607013 0.0859132 0.085326 0.0569003 0.0639039 0.0708722 0.0753856 0.0793091 
0.0810797 0.0829387 0.0831992 0.0837775 0.0832336 0.0833574 0.083167 0.0822887 0.0808973 
0.0802842 0.0795726 0.0784976 0.0789413 0.079178 0.0793261 0.0778937 0.0772494 0.0764394 
0.0753076 0.0722494 0.0681491 0.0617639 0.0558928 0.084273 0.0925311 0.0528376 0.0649403 
0.0722491 0.076246 0.0796772 0.0815808 0.0825134 0.0827236 0.0833208 0.0837733 0.0841017 
0.0839982 0.0831681 0.0814006 0.079908 0.0795893 0.0793809 0.0796147 0.0792585 0.0791446 
0.0784954 0.0779256 0.0770679 0.0760635 0.0732044 0.0693798 0.0624877 0.0518979 0.0916818 
0.109496 0.0504754 0.0668701 0.0734145 0.0767896 0.0798467 0.0820054 0.0833187 0.0838628 
0.0839736 0.0850099 0.0853503 0.0855981 0.0850672 0.0842566 0.0828766 0.0825038 0.0827743 
0.082904 0.0824457 0.0818328 0.0813128 0.0807614 0.079295 0.0779662 0.0752432 0.0718419 
0.0651742 0.0501325 0.108965 0.0569799 0.0658387 0.0667403 0.0701038 0.0723446 0.0735847 
0.0742465 0.0745481 0.0745845 0.074426 0.0744785 0.074427 0.0744164 0.0743178 0.0742568 
0.0740633 0.0740222 0.0741554 0.0742985 0.0743581 0.0743659 0.0743958 0.0744034 0.0740543 
0.0735185 0.0723327 0.0700259 0.0665681 0.0659036 0.0570187 
Vel_Mag_m_p_s 1 4740 float
0.123964 0.138783 0.142757 0.151171 0.156221 0.159125 0.160764 0.161554 0.161847 
0.161873 0.161776 0.161648 0.16154 0.16148 0.161475 0.161525 0.161623 0.161759 
0.161924 0.162092 0.162214 0.162202 0.161911 0.161108 0.159444 0.156507 0.151421 
0.142969 0.13896 0.124115 0.211608 0.0962864 0.134158 0.14935 0.155968 0.161458 
0.165177 0.167627 0.169189 0.170131 0.17067 0.170963 0.171111 0.171183 0.171221 
0.171246 0.171256 0.171235 0.171135 0.170884 0.170373 0.169447 0.167892 0.165443 
0.16172 0.15622 0.149585 0.134371 0.0964754 0.211843 0.160986 0.120826 0.140353 
0.152426 0.158689 0.162986 0.165733 0.167418 0.168408 0.16895 0.169222 0.169343 
0.169391 0.169414 0.169438 0.169472 0.169515 0.169552 0.169554 0.169473 0.169228 
0.168701 0.167715 0.166025 0.163265 0.158948 0.152661 0.140556 0.120999 0.161195 
0.150481 0.136751 0.146837 0.156127 0.162056 0.166127 0.168819 0.170537 0.171596 
0.17222 0.172569 0.172755 0.172853 0.172909 0.172948 0.172981 0.173004 0.173005 
0.172954 0.172804 0.172481 0.171872 0.170818 0.169096 0.166393 0.162305 0.156354 
0.147037 0.13693 0.15069 0.158584 0.151286 0.156838 0.163668 0.168908 0.172847 
0.175659 0.177591 0.178879 0.179712 0.180234 0.180554 0.180747 0.180862 0.180927 
0.180955 0.180944 0.18088 0.18073 0.180444 0.179947 0.17913 0.177849 0.175917 
0.173098 0.169146 0.163889 0.157039 0.15147 0.158743 0.169746 0.167078 0.170652 
0.175599 0.180024 0.183671 0.186467 0.188514 0.189962 0.190957 0.191624 0.192061 
0.192339 0.192509 0.192599 0.192625 0.192584 0.19246 0.192222 0.191818 0.191176 
0.190197 0.188758 0.186713 0.183913 0.180258 0.17582 0.17086 0.167277 0.169923 
0.179286 0.179386 0.182103 0.18578 0.189452 0.192708 0.195358 0.1974 0.198916 
0.200006 0.20077 0.201292 0.201637 0.201851 0.201962 0.201985 0.201919 0.201747 
0.201439 0.200948 0.200208 0.199134 0.197629 0.195591 0.19294 0.189679 0.185998 
0.182314 0.179594 0.179516 0.185103 0.186611 0.188705 0.191464 0.194469 0.19729 
0.199696 0.201633 0.203127 0.204244 0.205056 0.20563 0.206019 0.206265 0.206392 
0.206412 0.206325 0.206117 0.20576 0.205215 0.204425 0.203325 0.201841 0.199911 
0.197505 0.194682 0.191671 0.188908 0.186813 0.185348 0.19393 0.195825 0.197443 
0.199629 0.202163 0.204637 0.206822 0.208641 0.210092 0.211213 0.212053 0.212664 
0.213089 0.21336 0.213499 0.213518 0.213414 0.213176 0.212781 0.212196 0.211377 
0.210273 0.208833 0.207021 0.204839 0.202365 0.199827 0.197637 0.196013 0.194113 
0.209593 0.210626 0.212033 0.213995 0.21627 0.218525 0.220559 0.222295 0.223719 
0.224848 0.225718 0.226365 0.226824 0.22712 0.227272 0.227288 0.227169 0.226904 
0.226473 0.225851 0.225002 0.223888 0.222477 0.220749 0.218719 0.216466 0.214191 
0.212227 0.21082 0.209748 0.228831 0.228343 0.22971 0.231653 0.233785 0.235888 
0.237804 0.239468 0.240863 0.241995 0.242885 0.243561 0.244047 0.244365 0.244527 
0.244543 0.24441 0.244122 0.243662 0.24301 0.242139 0.241024 0.239642 0.237987 
0.236077 0.233978 0.231847 0.229905 0.228541 0.229044 0.247505 0.245896 0.247311 
0.249283 0.251308 0.253275 0.255076 0.256659 0.258007 0.25912 0.260011 0.260697 
0.261197 0.261525 0.261694 0.261708 0.261568 0.261266 0.260792 0.260128 0.259256 
0.258159 0.256825 0.255252 0.253458 0.251496 0.249473 0.247502 0.246085 0.247699 
0.259242 0.257599 0.259055 0.260962 0.262838 0.264639 0.266293 0.267761 0.269025 
0.270083 0.27094 0.271607 0.272098 0.272422 0.272588 0.272601 0.27246 0.272161 
0.271694 0.271047 0.270209 0.269167 0.267916 0.266458 0.264812 0.263017 0.261144 
0.259239 0.257785 0.259429 0.26183 0.261166 0.262564 0.264276 0.265947 0.267546 
0.26902 0.270338 0.271483 0.27245 0.273241 0.273862 0.274322 0.274627 0.274784 
0.274795 0.274661 0.274378 0.273939 0.273337 0.272563 0.271611 0.270478 0.269171 
0.267704 0.266112 0.264445 0.262735 0.261339 0.262005 0.260995 0.261574 0.262922 
0.264431 0.265911 0.267324 0.268629 0.2698 0.270824 0.271693 0.272409 0.272974 
0.273393 0.273673 0.273817 0.273828 0.273704 0.273443 0.273042 0.272493 0.271793 
0.270937 0.269926 0.268764 0.267466 0.26606 0.264584 0.263077 0.261732 0.261153 
0.260748 0.262059 0.263434 0.264829 0.266178 0.267451 0.268622 0.269671 0.270588 
0.27137 0.272015 0.272525 0.272906 0.27316 0.273291 0.2733 0.273187 0.272949 
0.272585 0.272089 0.271458 0.270689 0.269782 0.268742 0.267579 0.266312 0.264967 
0.263575 0.262202 0.26089 0.260907 0.262454 0.263876 0.265224 0.266491 0.267664 
0.26873 0.26968 0.270508 0.271212 0.271793 0.272253 0.272596 0.272826 0.272944 
0.272951 0.272849 0.272635 0.272306 0.271858 0.27129 0.270597 0.269779 0.268837 
0.267778 0.266611 0.265348 0.264003 0.262583 0.261036 0.261135 0.262739 0.264185 
0.26551 0.266723 0.267823 0.268809 0.269679 0.270431 0.271069 0.271593 0.272008 
0.272317 0.272523 0.272629 0.272636 0.272544 0.27235 0.272054 0.271651 0.271137 
0.27051 0.269766 0.268904 0.267925 0.26683 0.265621 0.264299 0.262854 0.26125 
0.261361 0.262975 0.264425 0.265731 0.266902 0.267948 0.268871 0.269677 0.270368 
0.270948 0.271424 0.271799 0.272077 0.272263 0.272358 0.272364 0.27228 0.272106 
0.271839 0.271475 0.271009 0.270436 0.269753 0.268955 0.268037 0.266997 0.265829 
0.264526 0.263077 0.261463 0.261564 0.263177 0.264622 0.265907 0.267046 0.268048 
0.268922 0.269676 0.270316 0.27085 0.271284 0.271624 0.271876 0.272043 0.272129 
0.272134 0.272058 0.271901 0.271659 0.271328 0.270902 0.270376 0.269743 0.268996 
0.268127 0.267129 0.265994 0.26471 0.263267 0.261654 0.261738 0.26335 0.264784 
0.266051 0.267162 0.268129 0.268963 0.269675 0.270273 0.270768 0.271167 0.271478 
0.271707 0.271858 0.271935 0.27194 0.271871 0.271729 0.271508 0.271205 0.270813 
0.270326 0.269733 0.269027 0.268198 0.267235 0.266127 0.264862 0.263428 0.261817 
0.261885 0.263494 0.264919 0.266169 0.267256 0.268194 0.268996 0.269673 0.270237 
0.270699 0.271069 0.271355 0.271564 0.271702 0.271772 0.271776 0.271713 0.271583 
0.271381 0.271102 0.270738 0.270282 0.269723 0.269051 0.268254 0.267319 0.266235 
0.264987 0.263563 0.261954 0.262009 0.263616 0.265031 0.266266 0.267333 0.268247 
0.269021 0.269669 0.270205 0.27064 0.270985 0.271251 0.271443 0.27157 0.271633 
0.271637 0.271579 0.271459 0.271273 0.271013 0.270674 0.270244 0.269713 0.269068 
0.268298 0.267387 0.266323 0.26509 0.263675 0.262068 0.262114 0.263718 0.265126 
0.266347 0.267397 0.268289 0.26904 0.269665 0.270176 0.270588 0.270913 0.271161 
0.27134 0.271456 0.271515 0.271518 0.271465 0.271353 0.27118 0.270937 0.270617 
0.270209 0.269702 0.269081 0.268333 0.267443 0.266395 0.265175 0.263769 0.262164 
0.262203 0.263806 0.265205 0.266415 0.267449 0.268324 0.269055 0.269659 0.27015 
0.270543 0.27085 0.271083 0.27125 0.271358 0.271412 0.271414 0.271365 0.271261 
0.271098 0.27087 0.270567 0.270178 0.26969 0.26909 0.268361 0.267489 0.266456 
0.265248 0.263849 0.262246 0.262281 0.263882 0.265275 0.266474 0.267494 0.268353 
0.269066 0.269652 0.270125 0.270501 0.270793 0.271012 0.271169 0.27127 0.27132 
0.271322 0.271276 0.271179 0.271026 0.27081 0.270521 0.270149 0.269678 0.269095 
0.268384 0.267527 0.266508 0.26531 0.263918 0.262317 0.262351 0.263949 0.265336 
0.266525 0.267533 0.268377 0.269075 0.269644 0.270101 0.270462 0.27074 0.270948 
0.271095 0.27119 0.271237 0.271239 0.271195 0.271103 0.270959 0.270754 0.270479 
0.27012 0.269666 0.269099 0.268403 0.26756 0.266554 0.265365 0.26398 0.262381 
0.262416 0.264012 0.265392 0.266571 0.267568 0.268398 0.269081 0.269635 0.270077 
0.270424 0.270689 0.270887 0.271026 0.271115 0.271159 0.27116 0.271119 0.271033 
0.270896 0.270701 0.270437 0.270093 0.269653 0.269101 0.268419 0.26759 0.266595 
0.265416 0.264037 0.262441 0.262478 0.264071 0.265445 0.266615 0.2676 0.268417 
0.269085 0.269624 0.270052 0.270386 0.27064 0.270827 0.270959 0.271042 0.271083 
0.271084 0.271045 0.270964 0.270835 0.270649 0.270397 0.270065 0.269639 0.269102 
0.268434 0.267618 0.266635 0.265465 0.264091 0.262498 0.262539 0.264129 0.265497 
0.266658 0.26763 0.268434 0.269088 0.269613 0.270027 0.270347 0.270589 0.270767 
0.270891 0.27097 0.271008 0.271009 0.270972 0.270896 0.270773 0.270597 0.270356 
0.270037 0.269625 0.269101 0.268448 0.267645 0.266674 0.265513 0.264146 0.262556 
0.262602 0.264189 0.265549 0.2667 0.267661 0.26845 0.26909 0.2696 0.27 
0.270307 0.270538 0.270706 0.270823 0.270896 0.270932 0.270932 0.270898 0.270826 
0.270711 0.270544 0.270314 0.270008 0.26961 0.269101 0.268462 0.267673 0.266713 
0.265562 0.264202 0.262615 0.262667 0.26425 0.265604 0.266744 0.267692 0.268467 
0.269091 0.269586 0.269971 0.270264 0.270484 0.270642 0.270751 0.27082 0.270853 
0.270853 0.270821 0.270754 0.270646 0.270489 0.27027 0.269977 0.269593 0.2691 
0.268476 0.267701 0.266754 0.265614 0.264261 0.262677 0.262737 0.264316 0.265662 
0.266791 0.267724 0.268484 0.269092 0.26957 0.269939 0.270219 0.270426 0.270575 
0.270676 0.270739 0.270769 0.27077 0.27074 0.270678 0.270578 0.27043 0.270224 
0.269945 0.269576 0.269098 0.268491 0.267732 0.266799 0.26567 0.264324 0.262745 
0.262812 0.264387 0.265724 0.266841 0.267759 0.268501 0.269092 0.269552 0.269905 
0.27017 0.270364 0.270502 0.270596 0.270654 0.270681 0.270681 0.270655 0.270598 
0.270505 0.270367 0.270174 0.269909 0.269557 0.269097 0.268507 0.267765 0.266847 
0.26573 0.264394 0.262819 0.262895 0.264465 0.265792 0.266895 0.267796 0.26852 
0.269091 0.269532 0.269868 0.270117 0.270297 0.270424 0.27051 0.270562 0.270587 
0.270587 0.270563 0.270511 0.270426 0.2703 0.270119 0.269871 0.269536 0.269095 
0.268524 0.267801 0.2669 0.265797 0.26447 0.2629 0.262987 0.264552 0.265867 
0.266955 0.267837 0.26854 0.269089 0.26951 0.269826 0.270058 0.270225 0.27034 
0.270417 0.270463 0.270485 0.270485 0.270464 0.270418 0.270342 0.270226 0.27006 
0.269829 0.269513 0.269092 0.268543 0.267841 0.266958 0.265871 0.264555 0.262991 
0.263089 0.264648 0.265951 0.267021 0.267882 0.268562 0.269087 0.269485 0.26978 
0.269994 0.270145 0.270249 0.270316 0.270357 0.270375 0.270376 0.270357 0.270317 
0.27025 0.270146 0.269996 0.269782 0.269487 0.269089 0.268564 0.267884 0.267023 
0.265954 0.264651 0.263092 0.263205 0.264756 0.266045 0.267094 0.267931 0.268584 
0.269084 0.269457 0.269729 0.269923 0.270058 0.270149 0.270207 0.270241 0.270257 
0.270257 0.270241 0.270207 0.270149 0.270059 0.269924 0.269731 0.269458 0.269085 
0.268586 0.267933 0.267096 0.266047 0.264758 0.263207 0.263335 0.264878 0.26615 
0.267176 0.267985 0.268609 0.269079 0.269424 0.269672 0.269845 0.269962 0.270039 
0.270088 0.270116 0.270128 0.270129 0.270116 0.270088 0.27004 0.269963 0.269845 
0.269673 0.269425 0.26908 0.26861 0.267986 0.267177 0.266151 0.264879 0.263337 
0.263484 0.265017 0.266268 0.267267 0.268044 0.268634 0.269071 0.269386 0.269606 
0.269757 0.269856 0.26992 0.269958 0.26998 0.269989 0.269989 0.26998 0.269958 
0.26992 0.269857 0.269757 0.269607 0.269387 0.269072 0.268635 0.268045 0.267268 
0.266269 0.265018 0.263485 0.263655 0.265175 0.266403 0.267369 0.268109 0.26866 
0.26906 0.269341 0.269532 0.269659 0.269739 0.269788 0.269817 0.269832 0.269839 
0.269839 0.269832 0.269817 0.269788 0.269739 0.269659 0.269533 0.269341 0.26906 
0.268661 0.26811 0.26737 0.266404 0.265176 0.263656 0.263853 0.265358 0.266557 
0.267484 0.26818 0.268686 0.269043 0.269287 0.269447 0.269548 0.269609 0.269644 
0.269663 0.269672 0.269675 0.269675 0.269672 0.269663 0.269644 0.269609 0.269548 
0.269447 0.269287 0.269044 0.268687 0.26818 0.267484 0.266557 0.265358 0.263853 
0.264084 0.26557 0.266733 0.267613 0.268256 0.26871 0.269019 0.269221 0.269348 
0.269423 0.269465 0.269486 0.269495 0.269498 0.269499 0.269499 0.269498 0.269495 
0.269486 0.269465 0.269423 0.269348 0.269221 0.269019 0.26871 0.268256 0.267613 
0.266733 0.265571 0.264084 0.264358 0.265819 0.266936 0.267756 0.268335 0.268728 
0.268983 0.269141 0.269232 0.269281 0.269304 0.269312 0.269313 0.269311 0.269309 
0.269309 0.269311 0.269313 0.269312 0.269304 0.269281 0.269233 0.269141 0.268983 
0.268728 0.268335 0.267756 0.266936 0.265819 0.264358 0.264686 0.266114 0.267169 
0.267913 0.268414 0.268736 0.268931 0.269041 0.269097 0.26912 0.269126 0.269122 
0.269116 0.26911 0.269106 0.269106 0.26911 0.269116 0.269122 0.269126 0.26912 
0.269097 0.269041 0.268931 0.268736 0.268415 0.267913 0.267169 0.266114 0.264686 
0.265087 0.266467 0.267437 0.268082 0.268486 0.268725 0.268855 0.268917 0.268939 
0.268939 0.26893 0.268917 0.268905 0.268897 0.268892 0.268892 0.268897 0.268905 
0.268917 0.26893 0.268939 0.268939 0.268917 0.268855 0.268725 0.268487 0.268082 
0.267437 0.266467 0.265087 0.265596 0.266898 0.267742 0.268251 0.268537 0.268682 
0.268744 0.26876 0.268752 0.268735 0.268715 0.268697 0.268682 0.268672 0.268667 
0.268667 0.268672 0.268682 0.268697 0.268715 0.268735 0.268752 0.26876 0.268744 
0.268682 0.268537 0.268251 0.267742 0.266898 0.265596 0.266275 0.267427 0.268066 
0.268387 0.268529 0.268576 0.268577 0.268557 0.26853 0.268505 0.268482 0.268464 
0.26845 0.268442 0.268437 0.268437 0.268442 0.26845 0.268464 0.268482 0.268505 
0.268531 0.268557 0.268577 0.268577 0.268529 0.268387 0.268066 0.267427 0.266275 
0.267115 0.267935 0.268279 0.268401 0.268428 0.268416 0.268392 0.268366 0.268343 
0.268324 0.26831 0.268299 0.268292 0.268287 0.268285 0.268285 0.268287 0.268292 
0.268299 0.26831 0.268324 0.268343 0.268366 0.268392 0.268416 0.268428 0.268401 
0.268279 0.267935 0.267115 0.104873 0.141848 0.154469 0.162975 0.168263 0.171223 
0.172768 0.173444 0.173644 0.173603 0.173417 0.173228 0.173078 0.173028 0.173051 
0.173153 0.173287 0.173452 0.173653 0.173884 0.174092 0.17418 0.173986 0.173285 
0.171674 0.168647 0.163303 0.154753 0.14205 0.105046 0.0962922 0.137296 0.152288 
0.161142 0.166541 0.169491 0.170963 0.171559 0.171682 0.171573 0.171353 0.171138 
0.170974 0.170904 0.170913 0.171 0.171134 0.171311 0.171532 0.171789 0.172034 
0.172177 0.172058 0.171438 0.169912 0.166903 0.161449 0.152546 0.137484 0.0964134 
0.0949833 0.132948 0.149439 0.158893 0.164437 0.167392 0.168814 0.169348 0.169409 
0.169247 0.168997 0.16876 0.168582 0.168496 0.168495 0.168572 0.168705 0.168892 
0.16913 0.169409 0.169686 0.169872 0.169813 0.169257 0.167789 0.164782 0.159186 
0.149682 0.133127 0.0950869 0.0960164 0.129752 0.14674 0.156505 0.162138 0.165127 
0.166559 0.167095 0.167152 0.166984 0.166734 0.166496 0.166318 0.166227 0.166219 
0.166287 0.166417 0.166603 0.166843 0.167122 0.167399 0.167586 0.16753 0.166974 
0.165502 0.162466 0.156785 0.146971 0.129925 0.0961185 0.0967076 0.128364 0.144672 
0.154217 0.159799 0.162813 0.164291 0.164874 0.164971 0.164834 0.164611 0.164392 
0.164226 0.164137 0.164126 0.164188 0.16431 0.164488 0.164715 0.164975 0.165225 
0.165378 0.165281 0.16468 0.163167 0.160111 0.154484 0.144893 0.128532 0.0968119 
0.0960036 0.128039 0.143021 0.152017 0.157461 0.160503 0.16206 0.162729 0.162902 
0.162826 0.16265 0.162464 0.162319 0.16224 0.16223 0.162286 0.162398 0.162561 
0.162765 0.162992 0.163194 0.163285 0.163112 0.162426 0.160839 0.157759 0.152273 
0.143233 0.128204 0.0961084 0.094037 0.127666 0.141473 0.150018 0.155352 0.158445 
0.160106 0.160883 0.161148 0.161145 0.161024 0.160876 0.160755 0.160688 0.160681 
0.160732 0.160835 0.160981 0.161159 0.161347 0.161494 0.161511 0.161246 0.160455 
0.158767 0.155639 0.150266 0.14168 0.127828 0.0941396 0.0964192 0.128424 0.140674 
0.149104 0.154352 0.157445 0.159154 0.159984 0.160297 0.160332 0.160239 0.160111 
0.160002 0.159941 0.159936 0.159985 0.160082 0.16022 0.160385 0.160553 0.160671 
0.16065 0.160338 0.159495 0.15776 0.154635 0.14935 0.14088 0.128588 0.096528 
0.162296 0.163188 0.164115 0.165071 0.166045 0.167025 0.167996 0.168942 0.169848 
0.170696 0.171473 0.172164 0.172757 0.173242 0.173611 0.173859 0.173983 0.173985 
0.173867 0.173634 0.173293 0.172854 0.172327 0.171724 0.171055 0.170332 0.169565 
0.168763 0.167933 0.167079 0.16194 0.162845 0.163797 0.164786 0.165803 0.166831 
0.167855 0.168857 0.169819 0.170722 0.171549 0.172285 0.172916 0.17343 0.17382 
0.17408 0.174207 0.174203 0.17407 0.173814 0.173445 0.172972 0.172409 0.171767 
0.171061 0.170304 0.169507 0.168681 0.167834 0.16697 0.161643 0.162559 0.163531 
0.164551 0.165605 0.166678 0.16775 0.168802 0.169813 0.170764 0.171636 0.172411 
0.173074 0.173613 0.17402 0.174288 0.174415 0.174401 0.174251 0.173972 0.173573 
0.173066 0.172466 0.171787 0.171045 0.170253 0.169427 0.168576 0.167712 0.16684 
0.161284 0.162212 0.163209 0.164265 0.165365 0.16649 0.167621 0.168733 0.169805 
0.170814 0.171739 0.172561 0.173264 0.173834 0.174261 0.174539 0.174665 0.174641 
0.174471 0.174163 0.173729 0.173182 0.172537 0.171813 0.171026 0.170193 0.169331 
0.168452 0.167568 0.166686 0.1609 0.161841 0.162865 0.163961 0.165111 0.166294 
0.167487 0.168665 0.169803 0.170875 0.171858 0.17273 0.173475 0.174077 0.174526 
0.174814 0.174939 0.174902 0.174709 0.174369 0.173895 0.173303 0.172609 0.171834 
0.170998 0.170119 0.169216 0.168305 0.167399 0.166506 0.160482 0.161438 0.162492 
0.163631 0.164836 0.166082 0.167345 0.168595 0.169804 0.170945 0.171991 0.172919 
0.17371 0.174347 0.174818 0.175117 0.17524 0.175189 0.17497 0.174595 0.174077 
0.173434 0.172685 0.171854 0.170962 0.170032 0.169084 0.168137 0.167206 0.166301 
0.160032 0.161003 0.16209 0.163277 0.164542 0.165858 0.167196 0.168524 0.169811 
0.171026 0.17214 0.173128 0.173968 0.174643 0.175139 0.175448 0.175569 0.175502 
0.175255 0.17484 0.174273 0.173574 0.172765 0.171871 0.170918 0.16993 0.168933 
0.167946 0.166987 0.166068 0.159547 0.160536 0.161659 0.162897 0.164227 0.165619 
0.167039 0.168452 0.169824 0.171119 0.172307 0.173359 0.174252 0.174967 0.175489 
0.17581 0.175926 0.175842 0.175563 0.175105 0.174484 0.173723 0.172848 0.171885 
0.170864 0.169814 0.168761 0.16773 0.16674 0.165806 0.159026 0.160034 0.161196 
0.162491 0.163892 0.165366 0.166875 0.16838 0.169842 0.171224 0.172491 0.173613 
0.174562 0.17532 0.17587 0.176202 0.176315 0.176211 0.175898 0.175392 0.174712 
0.173884 0.172935 0.171896 0.1708 0.16968 0.168566 0.167487 0.166463 0.165512 
0.158468 0.159496 0.160701 0.162057 0.163536 0.165098 0.166703 0.168307 0.169867 
0.171342 0.172694 0.17389 0.174901 0.175704 0.176283 0.176628 0.176736 0.17661 
0.17626 0.175701 0.174957 0.174055 0.173026 0.171904 0.170726 0.169529 0.168348 
0.167214 0.166153 0.165184 0.157869 0.15892 0.160171 0.161594 0.163156 0.164814 
0.166522 0.168233 0.169899 0.171474 0.172918 0.174193 0.175268 0.176121 0.176731 
0.177089 0.177192 0.177042 0.17665 0.176035 0.175222 0.174239 0.173121 0.171909 
0.170641 0.16936 0.168105 0.166911 0.165808 0.164818 0.157229 0.158304 0.159605 
0.1611 0.162752 0.164514 0.166334 0.168159 0.169938 0.171621 0.173162 0.174521 
0.175667 0.176571 0.177215 0.177587 0.177683 0.177508 0.177072 0.176395 0.175506 
0.174435 0.173223 0.171911 0.170545 0.169171 0.167834 0.166575 0.165426 0.164413 
0.156545 0.157647 0.159001 0.160575 0.162324 0.164197 0.166137 0.168085 0.169985 
0.171782 0.173427 0.174878 0.176097 0.177057 0.177737 0.178123 0.178213 0.178009 
0.177525 0.176783 0.175811 0.174646 0.17333 0.171909 0.170436 0.168961 0.167535 
0.166203 0.165004 0.163966 0.155815 0.156945 0.158358 0.160016 0.16187 0.163862 
0.165931 0.168011 0.17004 0.171959 0.173716 0.175262 0.176561 0.17758 0.178297 
0.1787 0.178782 0.178548 0.178013 0.1772 0.176139 0.174872 0.173443 0.171905 
0.170315 0.16873 0.167205 0.165794 0.164539 0.163474 0.155037 0.156199 0.157674 
0.159423 0.161389 0.16351 0.165715 0.167936 0.170103 0.172153 0.174027 0.175677 
0.177059 0.178141 0.178899 0.179318 0.179392 0.179127 0.178537 0.177647 0.176492 
0.175114 0.173564 0.171899 0.170181 0.168475 0.166843 0.165345 0.164029 0.162933 
0.15421 0.155405 0.156948 0.158794 0.160881 0.163138 0.165491 0.167861 0.170175 
0.172363 0.174363 0.176121 0.177593 0.178742 0.179543 0.17998 0.180046 0.179747 
0.179099 0.178128 0.176871 0.175374 0.173693 0.17189 0.170034 0.168196 0.166448 
0.164853 0.163471 0.162341 0.153332 0.154563 0.156179 0.158128 0.160344 0.162748 
0.165256 0.167786 0.170255 0.17259 0.174723 0.176597 0.178164 0.179385 0.180232 
0.180687 0.180746 0.180411 0.179701 0.178643 0.177277 0.175653 0.173831 0.17188 
0.169874 0.167893 0.166016 0.164317 0.16286 0.161694 0.152402 0.153671 0.155364 
0.157425 0.159778 0.162338 0.165012 0.16771 0.170344 0.172835 0.175109 0.177106 
0.178773 0.180069 0.180965 0.181442 0.181492 0.18112 0.180344 0.179195 0.177713 
0.175953 0.17398 0.171867 0.169699 0.167563 0.165546 0.163733 0.162196 0.160989 
0.151418 0.152728 0.154504 0.156683 0.159183 0.161907 0.164757 0.167634 0.170443 
0.173097 0.175521 0.177647 0.179421 0.180798 0.181746 0.182246 0.182288 0.181877 
0.181032 0.179785 0.17818 0.176274 0.174139 0.171854 0.169511 0.167206 0.165037 
0.163098 0.161472 0.160221 0.150379 0.151733 0.153598 0.155903 0.158557 0.161456 
0.164492 0.167557 0.17055 0.173378 0.175959 0.178222 0.180109 0.181572 0.182576 
0.1831 0.183134 0.182683 0.181765 0.180415 0.178679 0.176619 0.17431 0.17184 
0.169308 0.16682 0.164486 0.16241 0.160687 0.159387 0.149285 0.150685 0.152644 
0.155082 0.1579 0.160983 0.164215 0.167479 0.170666 0.173677 0.176424 0.178832 
0.180838 0.182392 0.183456 0.184007 0.184034 0.18354 0.182547 0.181088 0.179214 
0.176989 0.174495 0.171826 0.16909 0.166404 0.16389 0.161666 0.159836 0.158482 
0.148135 0.149584 0.151642 0.154221 0.157211 0.160489 0.163927 0.1674 0.170791 
0.173994 0.176916 0.179476 0.181609 0.183259 0.184388 0.184968 0.184988 0.184451 
0.183378 0.181805 0.179784 0.177386 0.174694 0.171813 0.168858 0.165958 0.163249 
0.160862 0.158916 0.157503 0.146929 0.148431 0.150593 0.15332 0.156492 0.159973 
0.163627 0.167318 0.170923 0.174328 0.177434 0.180156 0.182422 0.184175 0.185372 
0.185985 0.185999 0.185418 0.184262 0.182569 0.180394 0.17781 0.174909 0.1718 
0.16861 0.16548 0.162559 0.159995 0.157921 0.156443 0.145668 0.147225 0.149497 
0.152379 0.15574 0.159435 0.163314 0.167234 0.171063 0.17468 0.17798 0.180871 
0.183278 0.185141 0.186412 0.18706 0.187069 0.186442 0.185199 0.18338 0.181043 
0.178264 0.17514 0.171789 0.168347 0.164969 0.161819 0.159061 0.156848 0.155299 
0.144354 0.145969 0.148355 0.151399 0.154958 0.158873 0.162988 0.167147 0.171209 
0.175048 0.178551 0.181622 0.184179 0.186157 0.187507 0.188193 0.188199 0.187525 
0.186192 0.184242 0.181734 0.178749 0.175389 0.17178 0.168069 0.164423 0.161025 
0.158058 0.155693 0.154066 0.142989 0.144663 0.147169 0.150381 0.154144 0.158289 
0.162647 0.167054 0.171361 0.175432 0.179148 0.182407 0.185123 0.187225 0.188659 
0.189388 0.189391 0.188669 0.187243 0.185155 0.182468 0.179266 0.175657 0.171774 
0.167775 0.163843 0.160177 0.156982 0.154451 0.152739 0.141575 0.143312 0.145941 
0.149326 0.1533 0.157682 0.162291 0.166955 0.171515 0.175829 0.179769 0.183227 
0.18611 0.188343 0.189868 0.190643 0.190646 0.189875 0.188352 0.186121 0.183246 
0.179816 0.175944 0.171771 0.167466 0.163228 0.159273 0.155831 0.153118 0.151312 
0.140118 0.141919 0.144675 0.148237 0.152427 0.157051 0.161919 0.166848 0.171671 
0.176237 0.180412 0.184079 0.18714 0.189513 0.191135 0.191961 0.191964 0.191143 
0.189521 0.18714 0.18407 0.180401 0.176252 0.171772 0.167143 0.162577 0.158312 
0.154602 0.151691 0.149783 0.138624 0.140491 0.143376 0.147118 0.151527 0.156398 
0.161529 0.16673 0.171824 0.176653 0.181074 0.184962 0.188211 0.190733 0.192459 
0.193339 0.193346 0.192474 0.190748 0.188213 0.184938 0.18102 0.176581 0.171779 
0.166807 0.161892 0.157295 0.153295 0.150168 0.148147 0.1371 0.139035 0.142051 
0.145976 0.150605 0.155723 0.16112 0.166597 0.17197 0.177071 0.181749 0.18587 
0.189319 0.191999 0.193836 0.194776 0.194787 0.193865 0.192033 0.189337 0.185851 
0.181673 0.176932 0.171793 0.166459 0.161174 0.156222 0.151911 0.148549 0.146404 
0.135558 0.137564 0.140713 0.14482 0.149667 0.15503 0.160692 0.166447 0.172104 
0.177486 0.182432 0.186798 0.190457 0.193305 0.195261 0.196266 0.196285 0.195311 
0.19337 0.19051 0.186806 0.182359 0.177305 0.171815 0.166103 0.160429 0.155099 
0.150453 0.146836 0.144554 0.134014 0.136092 0.139376 0.143663 0.148722 0.154323 
0.160243 0.166274 0.172217 0.177888 0.183113 0.187735 0.191617 0.194644 0.196726 
0.1978 0.197828 0.196804 0.194752 0.191724 0.187797 0.183076 0.177701 0.171849 
0.165745 0.159664 0.153936 0.148931 0.145037 0.142604 0.132484 0.13464 0.138063 
0.142527 0.147786 0.153609 0.159773 0.166071 0.1723 0.178263 0.183775 0.188665 
0.192781 0.195996 0.198212 0.19936 0.1994 0.198326 0.196164 0.192968 0.188816 
0.183818 0.178117 0.171896 0.165391 0.158892 0.152747 0.14736 0.143165 0.140564 
0.130986 0.133234 0.136805 0.141437 0.146878 0.152895 0.159279 0.165826 0.17233 
0.178587 0.184394 0.189562 0.193922 0.197334 0.19969 0.200916 0.20097 0.199847 
0.197578 0.194216 0.189843 0.184571 0.178545 0.171957 0.165049 0.158125 0.151552 
0.145764 0.14124 0.138447 0.129568 0.131934 0.135667 0.140457 0.146043 0.152211 
0.158774 0.16554 0.172303 0.178848 0.184952 0.190405 0.195019 0.198635 0.201136 
0.202442 0.202512 0.201344 0.198972 0.195453 0.190869 0.185333 0.178994 0.172048 
0.164748 0.157407 0.150408 0.144207 0.139325 0.136305 0.128315 0.130859 0.13478 
0.139705 0.145379 0.15163 0.15831 0.165248 0.172242 0.179059 0.185456 0.191198 
0.196071 0.199897 0.202544 0.20393 0.204017 0.202808 0.200343 0.196682 0.191908 
0.186131 0.179502 0.172222 0.164554 0.156825 0.149423 0.142813 0.137541 0.134234 
0.127087 0.129957 0.134119 0.139134 0.144803 0.151032 0.157736 0.164776 0.171949 
0.179007 0.185682 0.191707 0.196837 0.20087 0.203659 0.20512 0.205221 0.203975 
0.201432 0.197656 0.192726 0.18675 0.179875 0.172308 0.164326 0.156268 0.148527 
0.141544 0.135838 0.132099 0.125471 0.128969 0.133422 0.138419 0.143927 0.149979 
0.156576 0.163616 0.170894 0.17814 0.185059 0.191351 0.196733 0.20097 0.203895 
0.20542 0.205527 0.204247 0.201641 0.197782 0.192746 0.186632 0.179579 0.171801 
0.163596 0.155327 0.147388 0.140166 0.134027 0.129587 0.125526 0.129965 0.134643 
0.139409 0.144536 0.150227 0.156577 0.163512 0.17081 0.178175 0.185297 0.191837 
0.197469 0.201911 0.204969 0.206553 0.206662 0.205354 0.202711 0.198815 0.193739 
0.187564 0.180419 0.172518 0.164196 0.155871 0.147966 0.140791 0.134411 0.129082 
0.132646 0.137953 0.142554 0.14679 0.151312 0.156497 0.162511 0.169275 0.176521 
0.183926 0.191178 0.197936 0.203816 0.208467 0.211651 0.213283 0.213388 0.212057 
0.209406 0.205529 0.20049 0.194345 0.187195 0.179251 0.17089 0.162628 0.154968 
0.148171 0.141917 0.135834 0.150247 0.156075 0.160241 0.163698 0.167459 0.172048 
0.177682 0.184241 0.19137 0.19872 0.206029 0.21298 0.219112 0.223972 0.227269 
0.228928 0.229009 0.227646 0.225007 0.221204 0.216283 0.210262 0.203191 0.195255 
0.18687 0.178697 0.17139 0.16522 0.159498 0.153063 0.179014 0.185035 0.188458 
0.190973 0.193875 0.197816 0.203065 0.209403 0.21631 0.223422 0.230659 0.237811 
0.244265 0.249363 0.25274 0.25438 0.254397 0.252977 0.250388 0.246759 0.24209 
0.23634 0.229466 0.221565 0.213075 0.204888 0.197903 0.19252 0.187793 0.181511 
0.22311 0.22846 0.23079 0.232273 0.234189 0.237314 0.24205 0.24803 0.25437 
0.26065 0.267236 0.274264 0.280851 0.285984 0.28923 0.290732 0.290677 0.289263 
0.286951 0.283877 0.279932 0.274997 0.268865 0.261424 0.252997 0.244829 0.238144 
0.233607 0.230394 0.225364 0.290364 0.293395 0.294681 0.295674 0.296787 0.298704 
0.302055 0.306638 0.311367 0.315542 0.319759 0.324708 0.329776 0.333802 0.336267 
0.337428 0.33756 0.336697 0.335325 0.333635 0.331435 0.328574 0.324783 0.319743 
0.313297 0.306609 0.300953 0.2972 0.295449 0.293264 0.37623 0.376111 0.376861 
0.378663 0.379862 0.380588 0.380994 0.381717 0.382958 0.384099 0.384489 0.384536 
0.385089 0.386035 0.386932 0.387516 0.388104 0.388739 0.389013 0.389404 0.389788 
0.389965 0.389936 0.389553 0.388571 0.386362 0.383579 0.38061 0.378984 0.379445 
0.450278 0.448271 0.449262 0.451194 0.45247 0.452358 0.450427 0.447117 0.443756 
0.441249 0.43899 0.435912 0.432449 0.430029 0.42908 0.429054 0.429541 0.430761 
0.432641 0.434765 0.437234 0.439958 0.442744 0.445596 0.448541 0.450813 0.451128 
0.449348 0.447383 0.448828 0.48328 0.481772 0.483364 0.484476 0.484554 0.483421 
0.481005 0.477177 0.472108 0.46699 0.46312 0.460399 0.457708 0.455194 0.453528 
0.45283 0.452584 0.452758 0.454343 0.456927 0.460051 0.463354 0.466398 0.469063 
0.471148 0.472938 0.47375 0.473156 0.471862 0.4731 0.47953 0.480217 0.481579 
0.482313 0.481479 0.480292 0.478689 0.476488 0.472856 0.467814 0.463213 0.461077 
0.460576 0.459813 0.458829 0.458045 0.457574 0.457186 0.457483 0.459196 0.461302 
0.463075 0.464382 0.464984 0.464895 0.464218 0.464138 0.464184 0.463835 0.463572 
0.462871 0.46517 0.466136 0.46643 0.4658 0.465501 0.465641 0.465518 0.464623 
0.461611 0.456825 0.454002 0.454002 0.453925 0.453302 0.452895 0.452951 0.453468 
0.453693 0.453799 0.453822 0.453339 0.452587 0.451578 0.450133 0.448638 0.447707 
0.447597 0.447593 0.445751 0.450295 0.452981 0.453488 0.453541 0.453926 0.454409 
0.455763 0.45732 0.458594 0.458757 0.456345 0.451736 0.449915 0.44998 0.449299 
0.448641 0.448682 0.449721 0.450485 0.449941 0.448265 0.446348 0.444412 0.442714 
0.441015 0.439264 0.437661 0.436088 0.434771 0.432254 0.443232 0.445478 0.446291 
0.446927 0.448489 0.450018 0.45195 0.454026 0.456048 0.457572 0.458229 0.455834 
0.451801 0.450516 0.449921 0.449127 0.448675 0.448837 0.449069 0.44815 0.446293 
0.444324 0.442402 0.440368 0.438133 0.435468 0.432651 0.430145 0.427465 0.423522 
0.434487 0.437515 0.439605 0.441605 0.444298 0.446859 0.449006 0.45117 0.453552 
0.45539 0.456373 0.456557 0.453895 0.451182 0.450794 0.450683 0.450124 0.449165 
0.447881 0.446127 0.444785 0.443335 0.441556 0.43918 0.436142 0.43238 0.428045 
0.424806 0.42194 0.417963 0.422874 0.427942 0.431817 0.435798 0.439334 0.442471 
0.444641 0.446749 0.449059 0.451832 0.453591 0.454195 0.453469 0.451937 0.45101 
0.451278 0.45088 0.44912 0.446876 0.444947 0.443259 0.441934 0.440097 0.437409 
0.43382 0.42929 0.423879 0.418627 0.414585 0.410655 0.415281 0.420662 0.425943 
0.431249 0.435732 0.439479 0.441995 0.443719 0.445326 0.448032 0.451058 0.453232 
0.454379 0.453529 0.451927 0.451238 0.450431 0.448332 0.445774 0.443971 0.442313 
0.440686 0.438738 0.435955 0.432044 0.42706 0.420831 0.413144 0.4075 0.401446 
0.416094 0.420969 0.425499 0.430161 0.434974 0.439298 0.442238 0.443892 0.444744 
0.445814 0.448646 0.451363 0.453646 0.454001 0.452471 0.449384 0.447899 0.446382 
0.444204 0.442377 0.441024 0.439077 0.437052 0.434518 0.43111 0.426707 0.421152 
0.413874 0.40604 0.400896 0.422902 0.426462 0.430145 0.433225 0.436339 0.439754 
0.443045 0.445137 0.445645 0.445694 0.446747 0.448551 0.449641 0.450698 0.450003 
0.447313 0.44548 0.444169 0.442666 0.440903 0.439314 0.43764 0.435628 0.433516 
0.431179 0.427958 0.424598 0.421097 0.415176 0.410887 0.429847 0.431751 0.434485 
0.436115 0.437478 0.439285 0.441886 0.444207 0.445712 0.445715 0.445236 0.445995 
0.446334 0.446082 0.445869 0.445358 0.443707 0.442471 0.441108 0.439295 0.437607 
0.436172 0.434311 0.432351 0.430528 0.428888 0.427012 0.425669 0.424433 0.420843 
0.43086 0.432958 0.434717 0.435907 0.436846 0.437875 0.4391 0.441093 0.443234 
0.444199 0.443556 0.443326 0.443609 0.443433 0.442914 0.44234 0.441069 0.440039 
0.438576 0.436849 0.435144 0.43351 0.431974 0.430203 0.428514 0.427442 0.426396 
0.425213 0.424184 0.422766 0.426818 0.428934 0.430553 0.431959 0.43284 0.433724 
0.434468 0.436038 0.437945 0.44 0.440455 0.439975 0.440163 0.440408 0.440102 
0.439136 0.437743 0.436269 0.434945 0.433565 0.431926 0.430361 0.429073 0.427816 
0.426506 0.425061 0.424212 0.423014 0.421335 0.419296 0.421139 0.422997 0.423897 
0.42514 0.425783 0.426469 0.427379 0.428749 0.430888 0.433 0.434684 0.435336 
0.435899 0.436222 0.436388 0.435611 0.434156 0.43261 0.43133 0.430231 0.428913 
0.427692 0.426779 0.425959 0.424853 0.42332 0.42201 0.42079 0.419001 0.416316 
0.415532 0.417637 0.418469 0.419461 0.420065 0.420376 0.421106 0.422286 0.42414 
0.42592 0.428156 0.430037 0.431551 0.432358 0.432789 0.432404 0.431107 0.429664 
0.428285 0.427234 0.426294 0.425477 0.424686 0.423987 0.422783 0.421322 0.419746 
0.418411 0.416701 0.414008 0.410758 0.413429 0.414839 0.416019 0.416912 0.417549 
0.417965 0.418483 0.419306 0.42138 0.423442 0.425867 0.42761 0.428977 0.429797 
0.429787 0.428694 0.427444 0.426186 0.42486 0.423927 0.423356 0.422462 0.421401 
0.419878 0.418599 0.417306 0.415865 0.414233 0.411572 0.405893 0.408983 0.41129 
0.412578 0.413925 0.415228 0.416419 0.416484 0.416748 0.4184 0.420831 0.422819 
0.424074 0.42493 0.425723 0.426626 0.426142 0.425154 0.424335 0.423225 0.422502 
0.421864 0.420886 0.419161 0.417518 0.415912 0.414769 0.413452 0.411718 0.409213 
0.401895 0.404462 0.406852 0.408367 0.41004 0.411839 0.413816 0.414963 0.415395 
0.416305 0.418704 0.42006 0.420686 0.420579 0.420444 0.42167 0.422526 0.422189 
0.421681 0.421051 0.420704 0.419991 0.419016 0.417244 0.415534 0.413843 0.41242 
0.411142 0.409417 0.407199 0.398138 0.400251 0.402047 0.403787 0.4055 0.407666 
0.409837 0.412324 0.413482 0.414367 0.415923 0.417314 0.417725 0.417784 0.417204 
0.417099 0.418365 0.418577 0.418097 0.41786 0.417497 0.416484 0.415153 0.413827 
0.412416 0.411323 0.409954 0.408636 0.407115 0.405098 0.393275 0.39595 0.397589 
0.399298 0.400913 0.402966 0.405652 0.408338 0.410745 0.411574 0.412668 0.414392 
0.415062 0.416212 0.417421 0.415832 0.415527 0.415003 0.413635 0.413992 0.413559 
0.412519 0.410834 0.409644 0.408821 0.408252 0.407222 0.406072 0.404529 0.402413 
0.388729 0.391619 0.393554 0.395048 0.396949 0.398563 0.400627 0.403054 0.40598 
0.407696 0.408752 0.410417 0.41195 0.413071 0.414908 0.415581 0.413476 0.41166 
0.409651 0.408802 0.408564 0.408134 0.407092 0.40666 0.405979 0.405196 0.404558 
0.403518 0.402088 0.399814 0.385101 0.387634 0.389818 0.391375 0.393427 0.395061 
0.396114 0.397556 0.399564 0.402125 0.404018 0.405623 0.407759 0.408759 0.409177 
0.410904 0.410243 0.408892 0.407371 0.404695 0.403609 0.40289 0.402713 0.402865 
0.402648 0.401735 0.401046 0.400398 0.399557 0.397773 0.381825 0.384107 0.386282 
0.388342 0.390065 0.391988 0.393303 0.394214 0.394938 0.396972 0.399192 0.400912 
0.403409 0.405342 0.405384 0.405407 0.406384 0.406365 0.405851 0.403107 0.400555 
0.398917 0.398401 0.397775 0.397751 0.397376 0.39666 0.396488 0.3963 0.395448 
0.379152 0.380887 0.382888 0.384918 0.386592 0.38851 0.390399 0.39174 0.392451 
0.393569 0.395475 0.39704 0.400282 0.402772 0.403385 0.403169 0.403536 0.40285 
0.401704 0.400439 0.397736 0.396167 0.395305 0.393934 0.393476 0.393256 0.393137 
0.392924 0.392635 0.392196 0.377186 0.378304 0.37956 0.380929 0.382525 0.384444 
0.386364 0.387969 0.389214 0.390656 0.393859 0.397142 0.399076 0.400965 0.40141 
0.401158 0.401061 0.399541 0.396879 0.394907 0.393209 0.392581 0.391804 0.390691 
0.389627 0.389638 0.389885 0.389791 0.389337 0.388567 0.374273 0.375305 0.375856 
0.376724 0.378152 0.380381 0.381964 0.383596 0.385242 0.38773 0.392287 0.399318 
0.400059 0.399746 0.398879 0.398203 0.397881 0.397306 0.395081 0.391228 0.389221 
0.388427 0.387033 0.38567 0.383514 0.383669 0.384519 0.385168 0.385453 0.38431 
0.368281 0.36965 0.37045 0.37116 0.373305 0.375756 0.377759 0.379436 0.381965 
0.384638 0.388038 0.393045 0.397813 0.396938 0.395875 0.395106 0.394366 0.394308 
0.392836 0.390674 0.387686 0.384525 0.382476 0.379792 0.376857 0.375996 0.377705 
0.379252 0.379482 0.378606 0.36001 0.3618 0.362497 0.363991 0.366741 0.368984 
0.371578 0.373292 0.376745 0.380005 0.381852 0.382029 0.386325 0.389729 0.391753 
0.391524 0.39035 0.38939 0.388025 0.38635 0.38424 0.380651 0.377824 0.37564 
0.374126 0.371131 0.371784 0.373522 0.37339 0.372385 0.352903 0.354709 0.355353 
0.356568 0.359004 0.361365 0.363365 0.365107 0.368086 0.37244 0.374971 0.374768 
0.374605 0.379905 0.385269 0.386205 0.385278 0.383563 0.382216 0.379019 0.376397 
0.374366 0.371717 0.371156 0.371953 0.369639 0.367432 0.367338 0.367274 0.366529 
0.348601 0.349261 0.350957 0.351029 0.352173 0.354665 0.356367 0.358847 0.360273 
0.3644 0.367565 0.368957 0.368916 0.371815 0.37704 0.379761 0.37941 0.378415 
0.376205 0.373838 0.369701 0.366532 0.364951 0.363918 0.363126 0.364719 0.361938 
0.35982 0.359149 0.35877 0.34549 0.344541 0.345092 0.3471 0.347054 0.347231 
0.350135 0.353272 0.355006 0.357172 0.360379 0.362533 0.36433 0.365537 0.368729 
0.372841 0.372929 0.372487 0.369905 0.367995 0.36521 0.360573 0.358384 0.356031 
0.353149 0.353069 0.352721 0.351056 0.349719 0.348653 0.339942 0.339462 0.338587 
0.340682 0.342165 0.340774 0.342179 0.345301 0.350341 0.351119 0.352962 0.355856 
0.358665 0.359547 0.360193 0.363085 0.364577 0.363284 0.361992 0.358866 0.357601 
0.354215 0.350204 0.347624 0.345849 0.342535 0.342223 0.340853 0.339212 0.338429 
0.332247 0.332512 0.332773 0.332962 0.335224 0.336127 0.335407 0.3372 0.341392 
0.346363 0.346888 0.347969 0.350393 0.35158 0.35065 0.351061 0.352491 0.351426 
0.350915 0.348454 0.346884 0.345489 0.341102 0.338057 0.336025 0.334245 0.331318 
0.329372 0.327861 0.327401 0.323994 0.323817 0.324781 0.325928 0.326558 0.328754 
0.330311 0.331322 0.331058 0.337224 0.339458 0.338431 0.338759 0.339433 0.339166 
0.338998 0.338968 0.338605 0.337865 0.336798 0.335562 0.335485 0.332616 0.32884 
0.325197 0.3232 0.319539 0.317128 0.316133 0.315338 0.314602 0.314416 0.314911 
0.316908 0.317677 0.318145 0.32124 0.324328 0.324731 0.326074 0.328656 0.327832 
0.325647 0.324465 0.324958 0.325449 0.325308 0.324571 0.324549 0.323957 0.322846 
0.323591 0.322544 0.31921 0.315482 0.311388 0.307794 0.304692 0.303664 0.303096 
0.304224 0.304592 0.305133 0.305562 0.3079 0.307843 0.308475 0.312106 0.317128 
0.316757 0.317511 0.316064 0.312859 0.309428 0.308533 0.309093 0.309657 0.308107 
0.309486 0.310681 0.308883 0.30929 0.309508 0.307258 0.30412 0.299733 0.295298 
0.291728 0.289938 0.289423 0.293281 0.293891 0.294901 0.29408 0.295017 0.298691 
0.298391 0.300067 0.304098 0.304643 0.304327 0.301807 0.300297 0.296003 0.292077 
0.29136 0.292294 0.291682 0.291927 0.294771 0.294877 0.293477 0.294069 0.292069 
0.288579 0.284013 0.280236 0.276989 0.275631 0.27401 0.281325 0.281741 0.282014 
0.281382 0.28075 0.286071 0.290623 0.291544 0.291719 0.291453 0.289507 0.287572 
0.286067 0.283316 0.278109 0.275471 0.275228 0.276603 0.275735 0.27778 0.279167 
0.277569 0.276955 0.274641 0.269839 0.264284 0.261525 0.260607 0.260955 0.259037 
0.267981 0.268128 0.266261 0.265635 0.266494 0.270316 0.278492 0.28135 0.280843 
0.279325 0.276985 0.276256 0.271562 0.269349 0.265553 0.262153 0.260372 0.261568 
0.261737 0.262524 0.262923 0.261891 0.259488 0.256828 0.251703 0.246134 0.243102 
0.244051 0.245599 0.244814 0.253987 0.254006 0.250094 0.248684 0.251185 0.255843 
0.262203 0.267023 0.266625 0.264333 0.263288 0.263178 0.257559 0.253842 0.251887 
0.249338 0.247517 0.246713 0.247581 0.247686 0.248331 0.246641 0.243214 0.239891 
0.235573 0.231653 0.228713 0.229447 0.230996 0.230994 0.239877 0.239751 0.235833 
0.233558 0.235947 0.242158 0.246677 0.249916 0.25038 0.24723 0.2454 0.244294 
0.242947 0.238768 0.237997 0.237017 0.235444 0.233751 0.233681 0.233882 0.234657 
0.233016 0.229494 0.225156 0.221378 0.218342 0.216883 0.217505 0.219594 0.219328 
0.226515 0.225345 0.222318 0.220794 0.222494 0.228367 0.233069 0.234036 0.234803 
0.232586 0.229102 0.22655 0.228754 0.227339 0.226977 0.226686 0.225254 0.223744 
0.222309 0.222461 0.222473 0.221556 0.218477 0.213774 0.209536 0.205851 0.205227 
0.206952 0.211045 0.211437 0.215689 0.212361 0.208498 0.208406 0.211035 0.215381 
0.220795 0.222617 0.222689 0.222301 0.218628 0.216788 0.217922 0.220182 0.219919 
0.218794 0.217793 0.21606 0.214055 0.213209 0.212174 0.211522 0.208851 0.205059 
0.200075 0.195703 0.19391 0.196593 0.202536 0.205772 0.207946 0.202285 0.196064 
0.19627 0.200343 0.204706 0.21014 0.21352 0.214533 0.214719 0.212646 0.211639 
0.211874 0.214474 0.214148 0.212385 0.211008 0.209473 0.207415 0.205444 0.203924 
0.202254 0.200089 0.196852 0.192054 0.187307 0.184201 0.186378 0.193308 0.199527 
0.202458 0.194034 0.185877 0.185821 0.190652 0.196354 0.20152 0.205176 0.207414 
0.207541 0.207716 0.207344 0.207531 0.208116 0.20747 0.205661 0.203779 0.202898 
0.201498 0.199259 0.19782 0.195205 0.1929 0.189443 0.184902 0.179941 0.176137 
0.177211 0.184696 0.193667 0.198661 0.185636 0.177001 0.177088 0.182881 0.189447 
0.194999 0.198849 0.200876 0.201536 0.202541 0.203586 0.203473 0.202102 0.200772 
0.19894 0.197373 0.197149 0.196696 0.195279 0.19373 0.191434 0.188484 0.184738 
0.179991 0.174538 0.170108 0.169975 0.178172 0.191135 0.196929 0.177161 0.168616 
0.170113 0.17704 0.18433 0.190501 0.194919 0.196573 0.197806 0.198724 0.200234 
0.200123 0.198233 0.196151 0.194205 0.193303 0.193395 0.193614 0.192861 0.191445 
0.189651 0.186632 0.182798 0.177861 0.171718 0.166217 0.16447 0.17316 0.192492 
0.197829 0.169327 0.161301 0.16538 0.173474 0.181486 0.18808 0.192996 0.194493 
0.195671 0.196475 0.197392 0.197088 0.195997 0.194197 0.192295 0.191784 0.191575 
0.191812 0.191085 0.189867 0.188376 0.185682 0.182016 0.177016 0.170348 0.163424 
0.159451 0.167674 0.195841 0.200693 0.161508 0.155506 0.162727 0.172029 0.180572 
0.187292 0.192156 0.194074 0.194174 0.19476 0.195026 0.194683 0.193976 0.193571 
0.192355 0.191223 0.190825 0.190566 0.190186 0.18856 0.187144 0.184777 0.181289 
0.176408 0.169395 0.161172 0.15424 0.160623 0.199467 0.203096 0.152742 0.151071 
0.161846 0.172111 0.180742 0.187148 0.191528 0.194128 0.193433 0.19341 0.193249 
0.193158 0.192315 0.192661 0.192287 0.190139 0.18956 0.189271 0.189875 0.187954 
0.186106 0.183863 0.180686 0.176072 0.168967 0.159788 0.14947 0.151859 0.201928 
0.201599 0.142819 0.148668 0.162895 0.173413 0.181688 0.186782 0.190835 0.192924 
0.193276 0.192663 0.192432 0.192267 0.191364 0.190536 0.190037 0.188266 0.186999 
0.187267 0.188006 0.187247 0.184803 0.182799 0.18014 0.17611 0.16916 0.159548 
0.146166 0.14152 0.20047 0.198434 0.132418 0.14875 0.165272 0.175182 0.18273 
0.186733 0.189611 0.190724 0.192163 0.192152 0.192207 0.191838 0.190736 0.188186 
0.186434 0.185754 0.184731 0.185142 0.184978 0.185171 0.183292 0.181728 0.179626 
0.176389 0.169893 0.160517 0.145098 0.130713 0.197355 0.216255 0.123196 0.151213 
0.16829 0.177064 0.183879 0.188119 0.190316 0.191309 0.192272 0.193621 0.194065 
0.194018 0.192876 0.190393 0.187742 0.187251 0.187383 0.187593 0.186808 0.186317 
0.185325 0.18403 0.181646 0.17862 0.172546 0.163956 0.147399 0.12185 0.215412 
0.258047 0.11907 0.156944 0.172749 0.180116 0.186724 0.191547 0.194663 0.196412 
0.197103 0.198862 0.19952 0.199979 0.199459 0.198548 0.196729 0.196173 0.19656 
0.196623 0.195818 0.194624 0.193386 0.19174 0.188342 0.184474 0.178313 0.170818 
0.154786 0.118677 0.257775 0.137626 0.15676 0.159039 0.167352 0.172551 0.17539 
0.176941 0.177649 0.177878 0.177852 0.177704 0.17754 0.177407 0.177363 0.177389 
0.177475 0.177594 0.17776 0.177955 0.178165 0.178338 0.178397 0.178175 0.177438 
0.175831 0.172936 0.167672 0.159297 0.156976 0.137914 
Water_Depth_m 1 4740 float
0.64683 0.659301 0.655183 0.654713 0.654652 0.654435 0.654283 0.65417 0.65409 
0.654038 0.654005 0.653986 0.653976 0.653972 0.653971 0.653972 0.653974 0.653979 
0.653988 0.654007 0.654039 0.654091 0.65417 0.654282 0.654433 0.654649 0.654712 
0.655171 0.659349 0.646619 0.643725 0.644049 0.643144 0.642962 0.642923 0.642905 
0.642912 0.642932 0.642954 0.642975 0.642993 0.643007 0.643017 0.643022 0.643025 
0.643024 0.64302 0.643012 0.643001 0.642987 0.642969 0.642947 0.642925 0.642906 
0.642899 0.642918 0.642955 0.64315 0.644005 0.643926 0.627728 0.627925 0.627586 
0.627422 0.627351 0.62731 0.627293 0.627289 0.627293 0.627301 0.627308 0.627315 
0.627321 0.627324 0.627325 0.627325 0.627322 0.627318 0.627311 0.627304 0.627295 
0.627288 0.627284 0.627287 0.627305 0.627347 0.627419 0.627577 0.627949 0.627798 
0.610801 0.611318 0.611087 0.610972 0.6109 0.610846 0.610813 0.610795 0.610786 
0.610783 0.610783 0.610784 0.610786 0.610787 0.610788 0.610787 0.610786 0.610784 
0.610781 0.610779 0.610778 0.610781 0.61079 0.610808 0.610841 0.610896 0.610967 
0.611089 0.611298 0.610592 0.591587 0.592108 0.591969 0.591888 0.591823 0.591769 
0.591732 0.591709 0.591694 0.591686 0.591683 0.591681 0.591681 0.591681 0.591681 
0.59168 0.59168 0.591679 0.591678 0.591679 0.591682 0.591689 0.591704 0.591727 
0.591765 0.591819 0.591883 0.591965 0.592105 0.591573 0.560298 0.560718 0.5606 
0.560542 0.560484 0.560433 0.560394 0.560367 0.560349 0.560337 0.56033 0.560326 
0.560324 0.560323 0.560322 0.560322 0.560322 0.560322 0.560323 0.560326 0.560333 
0.560344 0.560362 0.560389 0.560428 0.560479 0.560536 0.560602 0.560667 0.560639 
0.522789 0.522786 0.522737 0.522693 0.522651 0.52261 0.522578 0.522553 0.522536 
0.522524 0.522516 0.522511 0.522508 0.522506 0.522505 0.522505 0.522505 0.522506 
0.522508 0.522512 0.52252 0.522531 0.522549 0.522573 0.522605 0.522646 0.522689 
0.522731 0.522803 0.522615 0.503966 0.504113 0.504057 0.504028 0.503997 0.503964 
0.503937 0.503915 0.503899 0.503887 0.503878 0.503873 0.503869 0.503866 0.503865 
0.503865 0.503865 0.503867 0.50387 0.503875 0.503883 0.503895 0.503911 0.503933 
0.50396 0.503992 0.504024 0.504053 0.504106 0.503979 0.493133 0.493233 0.493178 
0.493148 0.49312 0.493088 0.49306 0.493036 0.493018 0.493003 0.492992 0.492984 
0.492979 0.492975 0.492973 0.492973 0.492974 0.492977 0.492981 0.492989 0.492999 
0.493014 0.493032 0.493055 0.493083 0.493115 0.493144 0.493169 0.493266 0.492794 
0.466022 0.466517 0.466409 0.46638 0.466352 0.46632 0.466291 0.466266 0.466245 
0.466227 0.466214 0.466204 0.466197 0.466192 0.466189 0.466189 0.466191 0.466195 
0.466201 0.466211 0.466224 0.46624 0.466261 0.466287 0.466315 0.466347 0.466375 
0.466407 0.466488 0.466393 0.434503 0.434657 0.434569 0.434535 0.434507 0.434476 
0.434446 0.43442 0.434397 0.434378 0.434362 0.434351 0.434342 0.434336 0.434333 
0.434333 0.434335 0.43434 0.434348 0.434359 0.434374 0.434393 0.434415 0.434441 
0.434471 0.434502 0.434529 0.434566 0.434634 0.434369 0.404459 0.404701 0.404646 
0.40461 0.404584 0.404555 0.404527 0.404501 0.404478 0.404458 0.404442 0.404429 
0.40442 0.404414 0.404411 0.40441 0.404413 0.404418 0.404427 0.404439 0.404454 
0.404473 0.404496 0.404522 0.40455 0.404579 0.404605 0.404639 0.404707 0.404478 
0.379658 0.379808 0.379772 0.379748 0.379727 0.379704 0.379681 0.37966 0.37964 
0.379623 0.379609 0.379597 0.379589 0.379583 0.37958 0.37958 0.379582 0.379587 
0.379595 0.379606 0.37962 0.379636 0.379656 0.379677 0.3797 0.379723 0.379743 
0.379767 0.379803 0.379653 0.369921 0.369993 0.369984 0.369972 0.369958 0.369942 
0.369925 0.369908 0.369893 0.369879 0.369867 0.369858 0.369851 0.369846 0.369843 
0.369843 0.369845 0.369849 0.369856 0.369865 0.369876 0.36989 0.369905 0.369921 
0.369938 0.369954 0.369968 0.36998 0.369988 0.369917 0.369762 0.369784 0.369785 
0.369779 0.36977 0.369758 0.369745 0.369731 0.369719 0.369708 0.369698 0.36969 
0.369683 0.369679 0.369677 0.369677 0.369678 0.369682 0.369688 0.369696 0.369705 
0.369716 0.369728 0.369741 0.369754 0.369766 0.369775 0.369781 0.36978 0.369758 
0.369769 0.369775 0.369775 0.369771 0.369764 0.369756 0.369746 0.369735 0.369725 
0.369716 0.369708 0.369701 0.369696 0.369693 0.369691 0.36969 0.369692 0.369695 
0.3697 0.369706 0.369714 0.369723 0.369732 0.369743 0.369752 0.369761 0.369768 
0.369772 0.369771 0.369765 0.369773 0.369775 0.369774 0.36977 0.369765 0.369759 
0.369751 0.369743 0.369735 0.369728 0.369721 0.369716 0.369712 0.369709 0.369707 
0.369707 0.369708 0.369711 0.369714 0.36972 0.369726 0.369733 0.36974 0.369748 
0.369756 0.369762 0.369767 0.36977 0.369771 0.369769 0.369775 0.369776 0.369775 
0.369772 0.369768 0.369763 0.369757 0.369751 0.369745 0.369739 0.369734 0.369729 
0.369726 0.369724 0.369722 0.369722 0.369723 0.369725 0.369728 0.369732 0.369737 
0.369743 0.369749 0.369754 0.36976 0.369765 0.369769 0.369772 0.369773 0.369772 
0.369778 0.369779 0.369777 0.369775 0.369772 0.369768 0.369764 0.369759 0.369754 
0.36975 0.369746 0.369742 0.369739 0.369738 0.369736 0.369736 0.369737 0.369739 
0.369741 0.369744 0.369748 0.369752 0.369757 0.369761 0.369766 0.369769 0.369772 
0.369775 0.369776 0.369775 0.369782 0.369783 0.369781 0.36978 0.369777 0.369774 
0.369771 0.369767 0.369764 0.36976 0.369757 0.369754 0.369752 0.369751 0.36975 
0.36975 0.36975 0.369752 0.369754 0.369756 0.369759 0.369762 0.369766 0.369769 
0.369772 0.369775 0.369777 0.369779 0.36978 0.36978 0.369787 0.369788 0.369787 
0.369785 0.369784 0.369781 0.369779 0.369776 0.369773 0.369771 0.369768 0.369766 
0.369765 0.369764 0.369763 0.369763 0.369763 0.369764 0.369766 0.369767 0.36977 
0.369772 0.369775 0.369777 0.36978 0.369782 0.369784 0.369785 0.369786 0.369785 
0.369794 0.369794 0.369794 0.369792 0.369791 0.369789 0.369787 0.369785 0.369783 
0.369781 0.36978 0.369778 0.369777 0.369776 0.369776 0.369775 0.369776 0.369776 
0.369778 0.369779 0.36978 0.369782 0.369784 0.369786 0.369788 0.369789 0.369791 
0.369792 0.369793 0.369792 0.369801 0.369802 0.369801 0.3698 0.369799 0.369798 
0.369797 0.369795 0.369794 0.369792 0.369791 0.36979 0.369789 0.369788 0.369788 
0.369788 0.369788 0.369788 0.369789 0.36979 0.369791 0.369793 0.369794 0.369795 
0.369797 0.369798 0.369799 0.3698 0.3698 0.3698 0.36981 0.36981 0.36981 
0.369809 0.369808 0.369808 0.369807 0.369805 0.369804 0.369803 0.369802 0.369802 
0.369801 0.3698 0.3698 0.3698 0.3698 0.369801 0.369801 0.369802 0.369803 
0.369804 0.369805 0.369806 0.369806 0.369807 0.369808 0.369809 0.369809 0.369809 
0.369819 0.36982 0.369819 0.369819 0.369818 0.369818 0.369817 0.369816 0.369815 
0.369815 0.369814 0.369813 0.369813 0.369813 0.369812 0.369812 0.369812 0.369813 
0.369813 0.369814 0.369814 0.369815 0.369815 0.369816 0.369817 0.369817 0.369818 
0.369818 0.369819 0.369818 0.36983 0.36983 0.36983 0.36983 0.369829 0.369829 
0.369828 0.369828 0.369827 0.369827 0.369826 0.369826 0.369825 0.369825 0.369825 
0.369825 0.369825 0.369825 0.369825 0.369826 0.369826 0.369826 0.369827 0.369827 
0.369828 0.369828 0.369829 0.369829 0.369829 0.369829 0.369841 0.369841 0.369841 
0.369841 0.369841 0.36984 0.36984 0.36984 0.369839 0.369839 0.369838 0.369838 
0.369838 0.369838 0.369838 0.369838 0.369838 0.369838 0.369838 0.369838 0.369838 
0.369839 0.369839 0.369839 0.36984 0.36984 0.36984 0.36984 0.369841 0.36984 
0.369853 0.369853 0.369853 0.369853 0.369853 0.369853 0.369852 0.369852 0.369852 
0.369851 0.369851 0.369851 0.369851 0.369851 0.369851 0.369851 0.369851 0.369851 
0.369851 0.369851 0.369851 0.369851 0.369852 0.369852 0.369852 0.369852 0.369852 
0.369852 0.369853 0.369852 0.369866 0.369866 0.369866 0.369866 0.369866 0.369866 
0.369865 0.369865 0.369865 0.369865 0.369865 0.369864 0.369864 0.369864 0.369864 
0.369864 0.369864 0.369864 0.369864 0.369864 0.369865 0.369865 0.369865 0.369865 
0.369865 0.369865 0.369865 0.369865 0.369865 0.369865 0.369879 0.369879 0.369879 
0.369879 0.369879 0.369879 0.369879 0.369879 0.369879 0.369879 0.369879 0.369879 
0.369878 0.369878 0.369878 0.369878 0.369878 0.369878 0.369878 0.369878 0.369879 
0.369879 0.369879 0.369879 0.369879 0.369879 0.369879 0.369879 0.369879 0.369879 
0.369894 0.369894 0.369894 0.369894 0.369894 0.369894 0.369893 0.369893 0.369893 
0.369893 0.369893 0.369893 0.369893 0.369893 0.369893 0.369893 0.369893 0.369893 
0.369893 0.369893 0.369893 0.369893 0.369893 0.369893 0.369893 0.369893 0.369893 
0.369893 0.369893 0.369893 0.369909 0.369909 0.369909 0.369909 0.369909 0.369909 
0.369909 0.369909 0.369909 0.369909 0.369908 0.369908 0.369908 0.369908 0.369908 
0.369908 0.369908 0.369908 0.369908 0.369908 0.369908 0.369908 0.369908 0.369908 
0.369908 0.369909 0.369909 0.369909 0.369909 0.369908 0.369924 0.369925 0.369925 
0.369925 0.369925 0.369925 0.369925 0.369925 0.369925 0.369924 0.369924 0.369924 
0.369924 0.369924 0.369924 0.369924 0.369924 0.369924 0.369924 0.369924 0.369924 
0.369924 0.369924 0.369924 0.369924 0.369924 0.369924 0.369924 0.369924 0.369924 
0.369941 0.369941 0.369941 0.369941 0.369941 0.369941 0.369941 0.369941 0.369941 
0.369941 0.369941 0.369941 0.369941 0.369941 0.369941 0.369941 0.369941 0.369941 
0.369941 0.369941 0.369941 0.369941 0.369941 0.369941 0.369941 0.369941 0.369941 
0.369941 0.369941 0.369941 0.369959 0.369959 0.369959 0.369959 0.369959 0.369959 
0.369959 0.369959 0.369959 0.369959 0.369959 0.369959 0.369959 0.369959 0.369959 
0.369959 0.369959 0.369959 0.369959 0.369959 0.369959 0.369959 0.369959 0.369959 
0.369959 0.369959 0.369959 0.369959 0.369959 0.369959 0.369977 0.369977 0.369977 
0.369977 0.369977 0.369977 0.369977 0.369977 0.369977 0.369977 0.369977 0.369977 
0.369977 0.369977 0.369977 0.369977 0.369977 0.369977 0.369977 0.369977 0.369977 
0.369977 0.369977 0.369977 0.369977 0.369977 0.369977 0.369977 0.369977 0.369977 
0.369996 0.369997 0.369997 0.369997 0.369997 0.369997 0.369997 0.369997 0.369997 
0.369997 0.369997 0.369997 0.369997 0.369997 0.369997 0.369997 0.369997 0.369997 
0.369997 0.369997 0.369997 0.369997 0.369997 0.369997 0.369997 0.369997 0.369997 
0.369997 0.369997 0.369996 0.370017 0.370017 0.370017 0.370017 0.370017 0.370017 
0.370017 0.370017 0.370017 0.370017 0.370017 0.370017 0.370017 0.370017 0.370017 
0.370017 0.370017 0.370017 0.370017 0.370017 0.370017 0.370017 0.370017 0.370017 
0.370017 0.370017 0.370017 0.370017 0.370017 0.370017 0.370038 0.370038 0.370038 
0.370038 0.370038 0.370038 0.370038 0.370038 0.370038 0.370038 0.370038 0.370038 
0.370038 0.370038 0.370038 0.370038 0.370038 0.370038 0.370038 0.370038 0.370038 
0.370038 0.370038 0.370038 0.370038 0.370038 0.370038 0.370038 0.370038 0.370038 
0.37006 0.37006 0.37006 0.37006 0.37006 0.37006 0.37006 0.37006 0.37006 
0.37006 0.370061 0.370061 0.370061 0.370061 0.370061 0.370061 0.370061 0.370061 
0.37006 0.37006 0.37006 0.37006 0.37006 0.37006 0.37006 0.37006 0.37006 
0.37006 0.37006 0.37006 0.370084 0.370084 0.370084 0.370084 0.370084 0.370084 
0.370084 0.370084 0.370084 0.370084 0.370084 0.370084 0.370084 0.370084 0.370084 
0.370084 0.370084 0.370084 0.370084 0.370084 0.370084 0.370084 0.370084 0.370084 
0.370084 0.370084 0.370084 0.370084 0.370084 0.370084 0.370108 0.370109 0.370109 
0.370108 0.370108 0.370108 0.370108 0.370108 0.370108 0.370109 0.370109 0.370109 
0.370109 0.370109 0.370109 0.370109 0.370109 0.370109 0.370109 0.370108 0.370108 
0.370108 0.370108 0.370108 0.370108 0.370108 0.370108 0.370108 0.370108 0.370108 
0.370134 0.370134 0.370134 0.370134 0.370134 0.370134 0.370134 0.370134 0.370134 
0.370134 0.370134 0.370134 0.370134 0.370134 0.370134 0.370134 0.370134 0.370134 
0.370134 0.370134 0.370134 0.370134 0.370134 0.370134 0.370134 0.370134 0.370134 
0.370134 0.370134 0.370134 0.370161 0.370161 0.370161 0.370161 0.370161 0.370161 
0.370161 0.370161 0.370161 0.370161 0.370161 0.370161 0.370161 0.370161 0.370161 
0.370161 0.370161 0.370161 0.370161 0.370161 0.370161 0.370161 0.370161 0.370161 
0.370161 0.370161 0.370161 0.370161 0.370161 0.370161 0.370189 0.37019 0.37019 
0.37019 0.37019 0.37019 0.37019 0.37019 0.37019 0.37019 0.37019 0.37019 
0.37019 0.37019 0.37019 0.37019 0.37019 0.37019 0.37019 0.37019 0.37019 
0.37019 0.37019 0.37019 0.37019 0.37019 0.37019 0.37019 0.37019 0.370189 
0.370219 0.37022 0.37022 0.37022 0.37022 0.37022 0.37022 0.37022 0.370219 
0.370219 0.370219 0.370219 0.370219 0.370219 0.370219 0.370219 0.370219 0.370219 
0.370219 0.370219 0.370219 0.370219 0.37022 0.37022 0.37022 0.37022 0.37022 
0.37022 0.37022 0.370219 0.370251 0.370252 0.370252 0.370251 0.370251 0.370251 
0.370251 0.370251 0.370251 0.370251 0.37025 0.37025 0.37025 0.37025 0.37025 
0.37025 0.37025 0.37025 0.37025 0.37025 0.370251 0.370251 0.370251 0.370251 
0.370251 0.370251 0.370251 0.370252 0.370252 0.370251 0.370284 0.370286 0.370286 
0.370285 0.370285 0.370285 0.370284 0.370284 0.370284 0.370283 0.370283 0.370283 
0.370282 0.370282 0.370282 0.370282 0.370282 0.370282 0.370283 0.370283 0.370283 
0.370284 0.370284 0.370284 0.370285 0.370285 0.370285 0.370286 0.370286 0.370284 
0.370329 0.37033 0.370326 0.370323 0.37032 0.370318 0.370317 0.370315 0.370314 
0.370313 0.370312 0.370312 0.370311 0.370311 0.370311 0.370311 0.370311 0.370311 
0.370312 0.370312 0.370313 0.370314 0.370315 0.370317 0.370318 0.37032 0.370323 
0.370326 0.37033 0.370329 0.646129 0.579074 0.589724 0.591673 0.59223 0.593556 
0.594802 0.595856 0.596667 0.597241 0.597697 0.597984 0.598175 0.598228 0.598229 
0.598151 0.598064 0.597945 0.597757 0.597453 0.597004 0.596379 0.595572 0.594523 
0.593329 0.592036 0.591508 0.589565 0.578938 0.646106 0.65953 0.603092 0.60387 
0.604091 0.604569 0.605709 0.606837 0.607797 0.608546 0.609091 0.609509 0.609778 
0.60995 0.61001 0.610011 0.609954 0.609881 0.609765 0.609582 0.6093 0.608892 
0.608319 0.607567 0.606611 0.605512 0.604396 0.603944 0.603732 0.602985 0.659568 
0.648242 0.620301 0.616505 0.616055 0.616358 0.616977 0.617612 0.618144 0.618551 
0.618847 0.619073 0.619219 0.619311 0.61934 0.619335 0.619298 0.619253 0.619186 
0.619084 0.618928 0.618704 0.618392 0.617981 0.617452 0.616834 0.616231 0.615943 
0.6164 0.62023 0.648252 0.634237 0.629089 0.626357 0.626683 0.627061 0.627289 
0.627505 0.627655 0.627754 0.627819 0.627871 0.627902 0.62792 0.627918 0.627906 
0.627885 0.627868 0.627848 0.627823 0.627785 0.627732 0.627657 0.627555 0.627405 
0.627198 0.626978 0.626606 0.626281 0.629037 0.634203 0.621746 0.635996 0.635507 
0.636778 0.637248 0.637119 0.636946 0.63675 0.63657 0.636427 0.636327 0.636257 
0.636211 0.63618 0.636161 0.636153 0.63616 0.636183 0.636225 0.636291 0.636389 
0.636526 0.636703 0.636897 0.637071 0.637201 0.636732 0.635456 0.635957 0.621671 
0.611377 0.645599 0.645197 0.646506 0.646823 0.646285 0.645732 0.645218 0.644793 
0.64447 0.644243 0.644088 0.643992 0.643936 0.643913 0.643915 0.643942 0.643999 
0.644096 0.644248 0.644474 0.644792 0.645215 0.645725 0.646274 0.646807 0.646484 
0.645168 0.645577 0.61127 0.608276 0.659687 0.654955 0.654969 0.654865 0.653946 
0.653111 0.652392 0.651821 0.651399 0.651104 0.650907 0.650787 0.650721 0.650698 
0.650706 0.650744 0.650817 0.65094 0.651135 0.651429 0.651848 0.652417 0.653131 
0.653958 0.654869 0.654965 0.654943 0.659686 0.608154 0.623326 0.671191 0.660838 
0.659418 0.659047 0.658144 0.657406 0.656805 0.656345 0.656015 0.655789 0.655641 
0.655553 0.655507 0.655493 0.655501 0.655529 0.655581 0.655671 0.655817 0.656042 
0.656371 0.65683 0.657426 0.658158 0.659054 0.65942 0.660835 0.671209 0.623224 
0.584007 0.584007 0.584006 0.584006 0.584006 0.584006 0.584006 0.584005 0.584005 
0.584005 0.584004 0.584004 0.584004 0.584003 0.584003 0.584003 0.584003 0.584003 
0.584003 0.584003 0.584003 0.584004 0.584004 0.584004 0.584004 0.584004 0.584004 
0.584004 0.584004 0.584005 0.584014 0.584013 0.584013 0.584013 0.584013 0.584013 
0.584013 0.584013 0.584013 0.584013 0.584013 0.584013 0.584013 0.584013 0.584013 
0.584013 0.584013 0.584013 0.584013 0.584013 0.584013 0.584013 0.584013 0.584013 
0.584013 0.584013 0.584013 0.584013 0.584013 0.584013 0.584022 0.584022 0.584022 
0.584022 0.584022 0.584022 0.584022 0.584022 0.584022 0.584022 0.584021 0.584021 
0.584021 0.584021 0.584021 0.584021 0.584021 0.584021 0.584021 0.584021 0.584021 
0.584021 0.584021 0.584021 0.584021 0.584021 0.584021 0.584021 0.584021 0.584021 
0.58403 0.58403 0.58403 0.58403 0.58403 0.58403 0.58403 0.58403 0.58403 
0.58403 0.58403 0.58403 0.58403 0.584029 0.584029 0.584029 0.584029 0.584029 
0.584029 0.584029 0.584029 0.584029 0.584029 0.584029 0.584029 0.584029 0.584029 
0.584029 0.584029 0.58403 0.584038 0.584038 0.584038 0.584038 0.584038 0.584038 
0.584038 0.584038 0.584038 0.584038 0.584038 0.584037 0.584037 0.584037 0.584037 
0.584037 0.584037 0.584037 0.584037 0.584037 0.584037 0.584037 0.584037 0.584037 
0.584037 0.584037 0.584037 0.584037 0.584037 0.584038 0.584046 0.584045 0.584045 
0.584045 0.584045 0.584045 0.584045 0.584045 0.584045 0.584045 0.584045 0.584045 
0.584045 0.584045 0.584045 0.584045 0.584045 0.584045 0.584045 0.584045 0.584045 
0.584045 0.584045 0.584045 0.584045 0.584045 0.584045 0.584045 0.584045 0.584045 
0.584054 0.584053 0.584053 0.584053 0.584053 0.584053 0.584053 0.584053 0.584053 
0.584053 0.584053 0.584053 0.584053 0.584053 0.584053 0.584053 0.584053 0.584053 
0.584053 0.584053 0.584053 0.584053 0.584053 0.584053 0.584053 0.584053 0.584053 
0.584053 0.584053 0.584053 0.584061 0.58406 0.58406 0.58406 0.58406 0.58406 
0.58406 0.58406 0.58406 0.58406 0.58406 0.58406 0.58406 0.58406 0.58406 
0.58406 0.58406 0.58406 0.58406 0.58406 0.58406 0.58406 0.58406 0.58406 
0.58406 0.58406 0.58406 0.58406 0.58406 0.58406 0.584068 0.584067 0.584067 
0.584067 0.584067 0.584067 0.584067 0.584067 0.584067 0.584067 0.584067 0.584067 
0.584067 0.584067 0.584067 0.584067 0.584067 0.584067 0.584067 0.584067 0.584067 
0.584067 0.584067 0.584067 0.584067 0.584067 0.584067 0.584067 0.584067 0.584067 
0.584075 0.584074 0.584074 0.584074 0.584074 0.584074 0.584074 0.584074 0.584074 
0.584074 0.584074 0.584074 0.584074 0.584074 0.584074 0.584074 0.584074 0.584074 
0.584074 0.584074 0.584074 0.584074 0.584074 0.584074 0.584074 0.584074 0.584074 
0.584074 0.584074 0.584074 0.584082 0.584081 0.584081 0.584081 0.584081 0.584081 
0.584081 0.584081 0.584081 0.584081 0.584081 0.58408 0.58408 0.58408 0.58408 
0.58408 0.58408 0.58408 0.58408 0.58408 0.58408 0.58408 0.58408 0.58408 
0.58408 0.58408 0.58408 0.58408 0.58408 0.584081 0.584088 0.584087 0.584087 
0.584087 0.584087 0.584087 0.584087 0.584087 0.584087 0.584087 0.584087 0.584087 
0.584087 0.584087 0.584087 0.584087 0.584087 0.584087 0.584087 0.584087 0.584087 
0.584087 0.584087 0.584087 0.584087 0.584087 0.584087 0.584087 0.584087 0.584087 
0.584094 0.584093 0.584093 0.584093 0.584093 0.584093 0.584093 0.584093 0.584093 
0.584093 0.584093 0.584093 0.584093 0.584093 0.584093 0.584093 0.584093 0.584093 
0.584093 0.584093 0.584093 0.584093 0.584093 0.584093 0.584093 0.584093 0.584093 
0.584093 0.584093 0.584094 0.5841 0.584099 0.584099 0.584099 0.584099 0.584099 
0.584099 0.584099 0.584099 0.584099 0.584099 0.584099 0.584099 0.584099 0.584099 
0.584099 0.584099 0.584099 0.584099 0.584099 0.584099 0.584099 0.584099 0.584099 
0.584099 0.584099 0.584099 0.584099 0.584099 0.5841 0.584106 0.584105 0.584105 
0.584105 0.584105 0.584105 0.584105 0.584105 0.584105 0.584105 0.584105 0.584104 
0.584104 0.584104 0.584104 0.584104 0.584104 0.584104 0.584104 0.584104 0.584104 
0.584104 0.584104 0.584104 0.584104 0.584104 0.584104 0.584104 0.584104 0.584105 
0.584112 0.58411 0.58411 0.58411 0.58411 0.58411 0.58411 0.58411 0.58411 
0.58411 0.58411 0.58411 0.58411 0.58411 0.58411 0.58411 0.58411 0.58411 
0.58411 0.58411 0.58411 0.58411 0.58411 0.58411 0.58411 0.58411 0.58411 
0.58411 0.58411 0.584111 0.584117 0.584115 0.584115 0.584115 0.584115 0.584115 
0.584115 0.584115 0.584115 0.584115 0.584115 0.584115 0.584115 0.584115 0.584115 
0.584115 0.584115 0.584115 0.584115 0.584115 0.584115 0.584115 0.584115 0.584115 
0.584115 0.584115 0.584115 0.584115 0.584115 0.584116 0.584122 0.58412 0.58412 
0.58412 0.58412 0.58412 0.58412 0.58412 0.58412 0.58412 0.58412 0.58412 
0.58412 0.58412 0.58412 0.58412 0.58412 0.58412 0.58412 0.58412 0.58412 
0.58412 0.58412 0.58412 0.58412 0.58412 0.58412 0.58412 0.58412 0.584121 
0.584127 0.584125 0.584125 0.584125 0.584125 0.584125 0.584125 0.584125 0.584124 
0.584124 0.584124 0.584124 0.584124 0.584124 0.584124 0.584124 0.584124 0.584124 
0.584124 0.584124 0.584124 0.584124 0.584124 0.584124 0.584124 0.584124 0.584124 
0.584124 0.584124 0.584126 0.584131 0.584129 0.584129 0.584129 0.584129 0.584129 
0.584129 0.584129 0.584129 0.584129 0.584129 0.584128 0.584128 0.584128 0.584128 
0.584128 0.584128 0.584128 0.584128 0.584128 0.584128 0.584128 0.584128 0.584128 
0.584129 0.584129 0.584129 0.584128 0.584128 0.58413 0.584135 0.584133 0.584133 
0.584133 0.584133 0.584133 0.584133 0.584133 0.584132 0.584132 0.584132 0.584132 
0.584132 0.584132 0.584132 0.584132 0.584132 0.584132 0.584132 0.584132 0.584132 
0.584132 0.584132 0.584132 0.584132 0.584133 0.584133 0.584132 0.584132 0.584134 
0.584139 0.584136 0.584136 0.584136 0.584136 0.584136 0.584136 0.584136 0.584136 
0.584136 0.584136 0.584136 0.584136 0.584136 0.584136 0.584136 0.584136 0.584136 
0.584136 0.584136 0.584136 0.584136 0.584136 0.584136 0.584136 0.584136 0.584136 
0.584136 0.584136 0.584138 0.584142 0.584139 0.584139 0.584139 0.584139 0.584139 
0.584139 0.584139 0.584139 0.584139 0.584139 0.584139 0.584139 0.584139 0.584139 
0.584139 0.584139 0.584139 0.584139 0.584139 0.584139 0.584139 0.584139 0.584139 
0.58414 0.58414 0.58414 0.58414 0.58414 0.584142 0.584145 0.584142 0.584142 
0.584142 0.584142 0.584142 0.584142 0.584142 0.584142 0.584142 0.584142 0.584142 
0.584142 0.584142 0.584142 0.584142 0.584142 0.584142 0.584142 0.584142 0.584142 
0.584142 0.584142 0.584142 0.584142 0.584143 0.584143 0.584143 0.584143 0.584145 
0.584147 0.584144 0.584144 0.584144 0.584144 0.584144 0.584144 0.584144 0.584144 
0.584144 0.584144 0.584144 0.584144 0.584144 0.584144 0.584144 0.584144 0.584144 
0.584144 0.584145 0.584145 0.584145 0.584145 0.584145 0.584145 0.584145 0.584145 
0.584145 0.584145 0.584148 0.584149 0.584146 0.584146 0.584146 0.584146 0.584146 
0.584146 0.584146 0.584146 0.584146 0.584146 0.584146 0.584146 0.584146 0.584146 
0.584146 0.584146 0.584146 0.584147 0.584147 0.584147 0.584147 0.584147 0.584147 
0.584147 0.584147 0.584147 0.584147 0.584147 0.58415 0.58415 0.584147 0.584147 
0.584147 0.584147 0.584147 0.584147 0.584147 0.584147 0.584147 0.584148 0.584148 
0.584148 0.584148 0.584148 0.584148 0.584148 0.584148 0.584148 0.584148 0.584149 
0.584149 0.584149 0.584149 0.584149 0.584149 0.584149 0.584149 0.584149 0.584152 
0.584151 0.584148 0.584148 0.584148 0.584148 0.584148 0.584148 0.584148 0.584148 
0.584148 0.584149 0.584149 0.584149 0.584149 0.584149 0.584149 0.584149 0.584149 
0.58415 0.58415 0.58415 0.58415 0.58415 0.58415 0.58415 0.58415 0.58415 
0.58415 0.58415 0.584154 0.584151 0.584148 0.584148 0.584148 0.584148 0.584148 
0.584148 0.584149 0.584149 0.584149 0.584149 0.584149 0.58415 0.58415 0.58415 
0.58415 0.58415 0.58415 0.584151 0.584151 0.584151 0.584151 0.584151 0.584151 
0.584151 0.584151 0.584151 0.584151 0.584151 0.584155 0.58415 0.584147 0.584147 
0.584147 0.584147 0.584148 0.584148 0.584148 0.584149 0.584149 0.58415 0.58415 
0.58415 0.584151 0.584151 0.584151 0.584151 0.584151 0.584151 0.584151 0.584151 
0.584151 0.584151 0.584151 0.584151 0.584151 0.584151 0.584151 0.58415 0.584155 
0.584148 0.584145 0.584145 0.584146 0.584146 0.584146 0.584147 0.584148 0.584148 
0.584149 0.58415 0.58415 0.584151 0.584151 0.584152 0.584152 0.584152 0.584152 
0.584152 0.584152 0.584151 0.584151 0.584151 0.584151 0.58415 0.58415 0.58415 
0.584149 0.584149 0.584154 0.584145 0.584142 0.584143 0.584143 0.584144 0.584145 
0.584145 0.584146 0.584147 0.584149 0.58415 0.58415 0.584151 0.584152 0.584152 
0.584153 0.584153 0.584153 0.584152 0.584152 0.584151 0.584151 0.58415 0.584149 
0.584149 0.584148 0.584148 0.584147 0.584147 0.584152 0.584141 0.584138 0.584139 
0.58414 0.584141 0.584142 0.584143 0.584145 0.584146 0.584148 0.58415 0.584151 
0.584152 0.584153 0.584154 0.584154 0.584154 0.584154 0.584154 0.584153 0.584152 
0.58415 0.584149 0.584148 0.584146 0.584145 0.584145 0.584144 0.584143 0.584148 
0.584135 0.584132 0.584133 0.584135 0.584136 0.584138 0.58414 0.584143 0.584146 
0.584148 0.584151 0.584153 0.584155 0.584156 0.584157 0.584158 0.584158 0.584157 
0.584156 0.584154 0.584152 0.58415 0.584148 0.584145 0.584143 0.584141 0.58414 
0.584138 0.584137 0.584142 0.584127 0.584124 0.584125 0.584127 0.58413 0.584133 
0.584137 0.584141 0.584145 0.584149 0.584153 0.584156 0.584159 0.584161 0.584162 
0.584163 0.584163 0.584161 0.584159 0.584157 0.584153 0.58415 0.584146 0.584142 
0.584138 0.584135 0.584132 0.58413 0.584128 0.584133 0.584113 0.584111 0.584113 
0.584117 0.584121 0.584125 0.584131 0.584137 0.584143 0.584149 0.584155 0.58416 
0.584164 0.584167 0.584169 0.58417 0.584169 0.584167 0.584164 0.58416 0.584155 
0.584149 0.584142 0.584136 0.58413 0.584125 0.58412 0.584116 0.584113 0.584118 
0.5841 0.584099 0.584102 0.584108 0.584114 0.584122 0.584131 0.58414 0.58415 
0.584159 0.584168 0.584176 0.584183 0.584188 0.584191 0.584192 0.584191 0.584188 
0.584183 0.584176 0.584168 0.584158 0.584148 0.584138 0.584128 0.584118 0.58411 
0.584104 0.584099 0.584103 0.58409 0.584094 0.584099 0.584109 0.58412 0.584133 
0.584147 0.584162 0.584177 0.584193 0.584207 0.58422 0.58423 0.584238 0.584243 
0.584244 0.584243 0.584238 0.584231 0.584221 0.584208 0.584193 0.584176 0.584159 
0.584141 0.584125 0.58411 0.584098 0.58409 0.584088 0.583832 0.583865 0.58388 
0.583895 0.583912 0.583931 0.583952 0.583975 0.583998 0.584022 0.584044 0.584064 
0.58408 0.584092 0.584099 0.584101 0.584098 0.584091 0.584078 0.584062 0.584041 
0.584018 0.583992 0.583965 0.583938 0.583912 0.583887 0.583864 0.583841 0.583743 
0.569291 0.570326 0.570804 0.571097 0.571332 0.571567 0.571833 0.572139 0.572483 
0.572853 0.57323 0.57359 0.573906 0.574153 0.574314 0.574376 0.574335 0.574197 
0.573973 0.573678 0.573332 0.572954 0.572566 0.572188 0.571831 0.571493 0.57114 
0.570682 0.569897 0.568323 0.525144 0.528198 0.529895 0.530985 0.531862 0.532732 
0.533707 0.534835 0.536118 0.537518 0.538969 0.540382 0.541655 0.542687 0.543395 
0.543728 0.543667 0.543227 0.542448 0.541386 0.54011 0.538696 0.537225 0.535777 
0.534422 0.533193 0.532068 0.530942 0.529581 0.5275 0.462222 0.464794 0.466586 
0.468069 0.469524 0.471157 0.473107 0.475436 0.478135 0.481129 0.484287 0.487412 
0.490268 0.492611 0.494242 0.495039 0.494972 0.494085 0.492474 0.490261 0.487582 
0.484589 0.48145 0.478353 0.475491 0.473027 0.471051 0.46956 0.468394 0.467089 
0.39155 0.392735 0.393613 0.394683 0.396179 0.398289 0.401137 0.404734 0.409015 
0.413885 0.419186 0.424603 0.429652 0.433806 0.436654 0.437996 0.437833 0.436313 
0.433654 0.430071 0.425754 0.420892 0.415718 0.41055 0.405795 0.40188 0.399137 
0.397741 0.397602 0.398106 0.321233 0.320934 0.320536 0.320596 0.321504 0.323681 
0.327326 0.332214 0.337952 0.344496 0.352112 0.360577 0.368781 0.375394 0.379655 
0.38143 0.380856 0.378332 0.374439 0.369495 0.363619 0.356927 0.349562 0.341855 
0.334547 0.328674 0.325015 0.323952 0.325395 0.328357 0.258868 0.257433 0.256395 
0.254813 0.254304 0.255906 0.260573 0.267473 0.274382 0.280943 0.2899 0.302674 
0.315803 0.325458 0.330653 0.332677 0.331384 0.326816 0.321849 0.316076 0.309081 
0.301265 0.292264 0.281895 0.270675 0.262179 0.257258 0.256422 0.259621 0.265568 
0.213112 0.210164 0.210477 0.207108 0.205548 0.20557 0.210589 0.219671 0.228297 
0.233833 0.241526 0.2575 0.275583 0.288641 0.293964 0.295963 0.295054 0.287529 
0.282172 0.276243 0.268731 0.260907 0.251249 0.240494 0.225043 0.214552 0.207965 
0.206944 0.210668 0.218846 0.1883 0.187134 0.18434 0.184992 0.181822 0.182473 
0.185437 0.192894 0.202489 0.210832 0.218426 0.230579 0.248692 0.263526 0.270942 
0.271776 0.270674 0.266863 0.25808 0.253274 0.246796 0.238409 0.229726 0.218769 
0.207369 0.193689 0.187636 0.185185 0.187845 0.194299 0.183547 0.181822 0.180735 
0.179966 0.179387 0.179839 0.182212 0.186919 0.193642 0.201954 0.21211 0.224466 
0.237897 0.249557 0.257024 0.259795 0.258749 0.25489 0.249693 0.244614 0.239246 
0.232737 0.224809 0.215543 0.205567 0.196284 0.189603 0.186258 0.186403 0.190089 
0.188578 0.188047 0.187914 0.187546 0.187365 0.187519 0.188434 0.190677 0.194199 
0.200714 0.211623 0.224544 0.236292 0.245952 0.252877 0.255961 0.25457 0.249808 
0.245519 0.243011 0.240479 0.236475 0.230278 0.22234 0.214041 0.206617 0.200942 
0.196906 0.19464 0.195364 0.196493 0.197482 0.198927 0.198274 0.197964 0.197422 
0.196457 0.197585 0.196879 0.198646 0.209688 0.225321 0.236661 0.244816 0.251589 
0.255182 0.254236 0.245466 0.241103 0.2427 0.243737 0.242884 0.238289 0.230702 
0.223163 0.216348 0.212317 0.209371 0.204844 0.203632 0.203241 0.20538 0.207439 
0.208199 0.20415 0.20388 0.202367 0.201736 0.200062 0.19878 0.201201 0.219271 
0.235821 0.240838 0.246551 0.250637 0.250595 0.242891 0.237038 0.239726 0.245294 
0.24551 0.242481 0.235645 0.227801 0.221521 0.217935 0.218345 0.215857 0.211467 
0.210289 0.213606 0.214535 0.213723 0.208567 0.206641 0.204882 0.205 0.201495 
0.199184 0.200883 0.208845 0.228832 0.236766 0.239533 0.243219 0.2437 0.237783 
0.23422 0.239481 0.245041 0.246498 0.242764 0.236939 0.230101 0.2248 0.224171 
0.22452 0.222243 0.222235 0.221969 0.221933 0.221198 0.219257 0.212055 0.209174 
0.208673 0.208061 0.20457 0.200625 0.200812 0.207987 0.221644 0.232323 0.233509 
0.235906 0.236774 0.233653 0.232309 0.239673 0.24569 0.246861 0.244357 0.239101 
0.232776 0.227088 0.228057 0.232132 0.231265 0.227154 0.234225 0.230577 0.228425 
0.221848 0.216394 0.212385 0.212094 0.211586 0.209033 0.203179 0.201998 0.206249 
0.218383 0.223322 0.227634 0.230441 0.231159 0.22946 0.230806 0.237532 0.246382 
0.248341 0.245628 0.241223 0.235435 0.230002 0.229274 0.236853 0.239668 0.237717 
0.239249 0.238449 0.231682 0.226022 0.2194 0.21525 0.214365 0.213345 0.211645 
0.206986 0.203314 0.206351 0.211179 0.217562 0.219905 0.225642 0.2279 0.226742 
0.228958 0.237047 0.245276 0.249551 0.248265 0.243929 0.238471 0.232529 0.229708 
0.241468 0.243809 0.246941 0.240454 0.236257 0.232751 0.227502 0.222534 0.217713 
0.21631 0.214313 0.211631 0.209171 0.205215 0.206233 0.211423 0.211439 0.21194 
0.22403 0.227037 0.224183 0.226663 0.236159 0.245445 0.25194 0.251238 0.247832 
0.241882 0.235424 0.231299 0.233247 0.249217 0.241973 0.235576 0.236836 0.228969 
0.226897 0.224473 0.22231 0.219417 0.215418 0.212708 0.208666 0.206787 0.206752 
0.211218 0.211252 0.209912 0.217695 0.224379 0.223353 0.224398 0.234918 0.246437 
0.252597 0.254558 0.251647 0.244807 0.23818 0.232233 0.230803 0.232507 0.237981 
0.233244 0.233147 0.22955 0.227449 0.22692 0.226109 0.224686 0.220733 0.213398 
0.208876 0.208198 0.207418 0.210545 0.210469 0.207991 0.213764 0.222496 0.220795 
0.22281 0.234153 0.247019 0.254969 0.256927 0.255421 0.250133 0.24014 0.233338 
0.230609 0.228912 0.228518 0.234529 0.234426 0.231319 0.229284 0.22918 0.229557 
0.230353 0.225231 0.218406 0.209998 0.208432 0.208966 0.210519 0.208447 0.205584 
0.210787 0.220242 0.220431 0.222447 0.233775 0.24799 0.257654 0.260563 0.25921 
0.253754 0.244939 0.235274 0.231531 0.228993 0.226762 0.23623 0.237413 0.236435 
0.232674 0.233837 0.234666 0.23593 0.231747 0.22392 0.213873 0.209836 0.209809 
0.210749 0.20804 0.203364 0.208369 0.218541 0.220281 0.22266 0.234021 0.249433 
0.260175 0.263822 0.262745 0.257012 0.248248 0.237633 0.232556 0.228965 0.226408 
0.239732 0.241113 0.241555 0.237671 0.239074 0.241458 0.242349 0.238637 0.230269 
0.21996 0.213044 0.211295 0.211052 0.208066 0.202526 0.206516 0.217044 0.219736 
0.222784 0.234426 0.250257 0.261774 0.266403 0.26548 0.260033 0.250722 0.240054 
0.233742 0.2289 0.225466 0.243611 0.244267 0.244878 0.241135 0.242358 0.245787 
0.246723 0.243702 0.235961 0.225559 0.216352 0.212711 0.211489 0.207908 0.201957 
0.205041 0.215411 0.218642 0.222606 0.235035 0.251081 0.262754 0.268878 0.268757 
0.263841 0.253134 0.241935 0.23501 0.229126 0.224969 0.247307 0.247429 0.247321 
0.243978 0.245159 0.248015 0.249179 0.246562 0.241904 0.228339 0.218856 0.213089 
0.212531 0.208034 0.20179 0.204022 0.213888 0.217448 0.221416 0.235183 0.251876 
0.263937 0.271272 0.272594 0.268199 0.256077 0.243368 0.236371 0.229397 0.224717 
0.251501 0.251932 0.249534 0.247595 0.248008 0.251776 0.250237 0.249267 0.2436 
0.232894 0.219071 0.214086 0.21292 0.209197 0.203353 0.203719 0.212525 0.216644 
0.221035 0.234847 0.251117 0.264845 0.272758 0.276624 0.270533 0.258644 0.245095 
0.237003 0.230292 0.2246 0.253218 0.255766 0.253567 0.250893 0.251403 0.255038 
0.254862 0.250441 0.24574 0.23457 0.220741 0.215113 0.214114 0.209957 0.20495 
0.205733 0.211982 0.215879 0.221243 0.235279 0.251867 0.26671 0.275924 0.27933 
0.273785 0.259589 0.246386 0.237976 0.230552 0.224549 0.256769 0.258822 0.257342 
0.254175 0.254792 0.258687 0.259328 0.254377 0.247501 0.236826 0.22338 0.216598 
0.215329 0.209896 0.204123 0.206838 0.212245 0.215787 0.222212 0.235887 0.253369 
0.26987 0.281238 0.284167 0.277214 0.261382 0.247602 0.238936 0.230965 0.22512 
0.260749 0.261792 0.260797 0.257041 0.257359 0.262775 0.262888 0.259361 0.249763 
0.239123 0.226239 0.218269 0.216929 0.210497 0.200429 0.205774 0.211838 0.215266 
0.224214 0.236439 0.256032 0.272681 0.285381 0.288535 0.280491 0.263129 0.249073 
0.239777 0.231478 0.226409 0.263291 0.265699 0.263291 0.260439 0.258735 0.26502 
0.268384 0.265214 0.255293 0.241607 0.22909 0.221994 0.217246 0.211808 0.204826 
0.202393 0.211947 0.215934 0.222966 0.240151 0.259558 0.276821 0.289165 0.290542 
0.282416 0.2659 0.249982 0.241019 0.231807 0.227463 0.26504 0.268868 0.266335 
0.26233 0.26094 0.266666 0.271335 0.270284 0.262124 0.246364 0.231907 0.225034 
0.219722 0.21275 0.206998 0.207328 0.212179 0.215602 0.221635 0.240516 0.262785 
0.282168 0.29267 0.295446 0.28539 0.267849 0.252764 0.242567 0.232679 0.228018 
0.266802 0.271489 0.269352 0.263643 0.262951 0.268816 0.273724 0.272676 0.265992 
0.249827 0.235013 0.228023 0.221647 0.213625 0.208535 0.209135 0.213298 0.216071 
0.220317 0.239824 0.264173 0.284326 0.295429 0.300344 0.29046 0.271122 0.255391 
0.244805 0.234354 0.229442 0.267478 0.274044 0.272079 0.266323 0.26474 0.271591 
0.276815 0.276194 0.267942 0.252676 0.237244 0.230839 0.22316 0.215678 0.209332 
0.210022 0.213385 0.217072 0.224382 0.24012 0.266243 0.285998 0.296632 0.302948 
0.293601 0.274218 0.25676 0.246424 0.236583 0.232332 0.268479 0.275188 0.274994 
0.269203 0.267198 0.274467 0.281178 0.280798 0.271576 0.254956 0.238646 0.228336 
0.225653 0.217822 0.211647 0.211131 0.214585 0.217934 0.225211 0.24515 0.268857 
0.287755 0.299879 0.30445 0.297492 0.276444 0.259089 0.248134 0.238175 0.235748 
0.27056 0.277249 0.278278 0.271831 0.269588 0.276857 0.285838 0.285865 0.274888 
0.255902 0.241866 0.22634 0.226107 0.221265 0.214005 0.212927 0.216986 0.218915 
0.224827 0.245745 0.270438 0.289898 0.303498 0.307873 0.302498 0.281657 0.2634 
0.252111 0.240604 0.23987 0.275337 0.282414 0.282073 0.276394 0.271206 0.28081 
0.289302 0.290503 0.276169 0.256203 0.243871 0.239964 0.228573 0.226201 0.216934 
0.213865 0.219132 0.221292 0.228164 0.244387 0.26855 0.293537 0.305603 0.312108 
0.305247 0.287149 0.268141 0.256217 0.246954 0.244862 0.280982 0.288301 0.289819 
0.279765 0.27473 0.287013 0.295813 0.297545 0.281009 0.257355 0.24621 0.247565 
0.245206 0.234161 0.219641 0.215888 0.221409 0.225483 0.231174 0.250158 0.271491 
0.294217 0.31012 0.313614 0.30072 0.288701 0.273228 0.26148 0.251781 0.250854 
0.285028 0.29349 0.29301 0.284336 0.278926 0.292012 0.304148 0.304273 0.289076 
0.262514 0.249959 0.251551 0.254454 0.244654 0.226189 0.219685 0.224503 0.230429 
0.235371 0.25479 0.278741 0.299126 0.314391 0.316717 0.301005 0.284306 0.276392 
0.26899 0.259085 0.25551 0.287025 0.29896 0.293802 0.285513 0.282636 0.296153 
0.310646 0.306406 0.294075 0.266441 0.255498 0.256948 0.258935 0.253359 0.235655 
0.224618 0.229391 0.233656 0.241978 0.257363 0.281384 0.304965 0.316949 0.320139 
0.31316 0.286007 0.280381 0.277286 0.268333 0.263783 0.289387 0.301114 0.302812 
0.284427 0.283014 0.305276 0.315348 0.312166 0.296452 0.272782 0.259591 0.263629 
0.26366 0.261249 0.246756 0.230437 0.234882 0.24015 0.247874 0.264952 0.283647 
0.30659 0.319218 0.323596 0.315134 0.299082 0.287983 0.286024 0.278369 0.273479 
0.297586 0.304177 0.30531 0.292557 0.284383 0.30661 0.325037 0.321339 0.296295 
0.276259 0.26768 0.269534 0.269774 0.268348 0.258113 0.242752 0.241241 0.250861 
0.255073 0.274936 0.292331 0.309413 0.32515 0.328829 0.317035 0.303445 0.296335 
0.297482 0.290927 0.281941 0.304566 0.311207 0.308677 0.297534 0.292097 0.307302 
0.327757 0.326667 0.311589 0.275443 0.269445 0.278889 0.279748 0.278675 0.270686 
0.255202 0.254043 0.263017 0.267499 0.283803 0.303216 0.314933 0.328826 0.333445 
0.326821 0.307495 0.308143 0.31022 0.303476 0.293885 0.313434 0.318645 0.31625 
0.301947 0.300542 0.315568 0.329295 0.327192 0.320044 0.289003 0.276271 0.287105 
0.293086 0.294944 0.28559 0.268582 0.267043 0.276623 0.281911 0.296133 0.314345 
0.322822 0.332091 0.337251 0.332478 0.318866 0.319174 0.325387 0.317122 0.306595 
0.323911 0.326393 0.325205 0.311937 0.308173 0.325584 0.338798 0.332328 0.320637 
0.300253 0.28697 0.29698 0.306963 0.313961 0.304745 0.285237 0.28198 0.293768 
0.297073 0.309117 0.328662 0.334547 0.339354 0.343573 0.338607 0.329894 0.331748 
0.340355 0.332696 0.319976 0.336163 0.33534 0.332066 0.326826 0.319118 0.33235 
0.350362 0.347809 0.325382 0.310281 0.29834 0.308685 0.320224 0.332983 0.327697 
0.306945 0.300206 0.316208 0.317157 0.322101 0.3441 0.350149 0.351008 0.353244 
0.348859 0.341669 0.347261 0.356698 0.351254 0.337128 0.348299 0.346646 0.342631 
0.33837 0.341789 0.337471 0.352969 0.354522 0.343455 0.327035 0.315343 0.328251 
0.333396 0.348846 0.352109 0.331832 0.3238 0.334919 0.343523 0.344584 0.356597 
0.369714 0.366461 0.369183 0.367026 0.364575 0.366706 0.377221 0.36848 0.358657 
0.363038 0.359929 0.359237 0.355767 0.360173 0.358236 0.353978 0.358965 0.353073 
0.34346 0.337941 0.343715 0.356726 0.366453 0.371346 0.354427 0.350015 0.356537 
0.365599 0.366787 0.378864 0.387543 0.387947 0.38872 0.390893 0.393144 0.396808 
0.399443 0.389371 0.37799 0.380117 0.376564 0.381863 0.379781 0.380178 0.378906 
0.368271 0.369082 0.367503 0.360915 0.356033 0.35728 0.378392 0.390344 0.391459 
0.375003 0.373609 0.3818 0.388598 0.389868 0.400322 0.40816 0.412007 0.413041 
0.415357 0.417894 0.424002 0.423517 0.41327 0.400152 0.399439 0.395003 0.405152 
0.406934 0.404665 0.395074 0.389768 0.385548 0.387402 0.388622 0.383197 0.380149 
0.401965 0.418885 0.414672 0.398147 0.394953 0.410534 0.414103 0.417911 0.421916 
0.430943 0.436787 0.439319 0.441526 0.439048 0.4455 0.444387 0.438232 0.424074 
0.420909 0.418827 0.424721 0.430089 0.430881 0.414886 0.407541 0.413028 0.409809 
0.416254 0.41875 0.4237 0.424401 0.446844 0.439645 0.419612 0.419741 0.433902 
0.443261 0.443112 0.447263 0.453192 0.457931 0.465221 0.465393 0.465842 0.464325 
0.463363 0.454195 0.447956 0.442992 0.445986 0.448876 0.449841 0.453488 0.438814 
0.426567 0.436995 0.436778 0.44015 0.449127 0.458642 0.454448 0.463816 0.458427 
0.440736 0.440847 0.454795 0.466476 0.46671 0.471548 0.474084 0.47782 0.484288 
0.487176 0.490129 0.488285 0.481763 0.468977 0.463651 0.461612 0.470087 0.475993 
0.474363 0.471758 0.464996 0.447733 0.452455 0.458775 0.457121 0.47209 0.474211 
0.47858 0.474653 0.470828 0.459962 0.458434 0.473064 0.485131 0.487156 0.495476 
0.495156 0.499049 0.499981 0.505351 0.508234 0.511248 0.50098 0.488189 0.478743 
0.479574 0.486092 0.499391 0.498917 0.493958 0.484476 0.469343 0.471822 0.473239 
0.476483 0.484716 0.489107 0.489653 0.488613 0.485617 0.476851 0.480164 0.490803 
0.501218 0.507592 0.512532 0.519062 0.518124 0.519975 0.521964 0.525216 0.528691 
0.520517 0.509246 0.500117 0.495741 0.50099 0.516937 0.519567 0.513971 0.502364 
0.487622 0.489976 0.49155 0.497124 0.499905 0.499605 0.501732 0.506411 0.503826 
0.497683 0.502658 0.510673 0.51675 0.522783 0.527357 0.533967 0.535257 0.536662 
0.538488 0.540547 0.543024 0.535685 0.527502 0.520701 0.510926 0.518595 0.530502 
0.538576 0.530047 0.51899 0.503509 0.502438 0.507879 0.512219 0.516114 0.508875 
0.510573 0.521984 0.521689 0.517117 0.522138 0.526715 0.529464 0.531368 0.5377 
0.541162 0.544158 0.546065 0.546693 0.550329 0.549979 0.54492 0.536379 0.533449 
0.522875 0.533242 0.543739 0.55076 0.543278 0.53127 0.515762 0.511317 0.518072 
0.521797 0.525772 0.518869 0.519984 0.530043 0.532614 0.530649 0.53389 0.538216 
0.537383 0.537964 0.543471 0.54579 0.548433 0.549445 0.549502 0.553142 0.553049 
0.548365 0.541212 0.538896 0.531677 0.542149 0.550748 0.557046 0.549475 0.538109 
0.524091 0.516035 0.524181 0.52871 0.532602 0.527336 0.530223 0.536694 0.536903 
0.53619 0.538989 0.545102 0.543897 0.543995 0.549163 0.550601 0.552436 0.552665 
0.551809 0.555693 0.555867 0.551847 0.545604 0.543911 0.538389 0.54815 0.553492 
0.558626 0.552347 0.540875 0.529165 0.52237 0.524662 0.535513 0.538283 0.535724 
0.536721 0.544838 0.539771 0.536821 0.545175 0.549083 0.55036 0.54599 0.554379 
0.555843 0.556762 0.556842 0.554934 0.558856 0.559453 0.556057 0.550227 0.549743 
0.545871 0.551381 0.554309 0.558668 0.552185 0.543179 0.533687 0.529056 0.527221 
0.538037 0.542866 0.541733 0.541193 0.549056 0.544743 0.539643 0.552306 0.556272 
0.556587 0.54698 0.55605 0.559951 0.561393 0.560225 0.557914 0.561761 0.562675 
0.559885 0.554247 0.555192 0.551488 0.552239 0.552489 0.554513 0.550638 0.541302 
0.540858 0.53294 0.535841 0.536471 0.543448 0.542145 0.542541 0.547833 0.551783 
0.549859 0.555665 0.564716 0.560875 0.556541 0.555618 0.564606 0.564309 0.563079 
0.559411 0.563826 0.565699 0.562756 0.557686 0.559223 0.556955 0.554333 0.552859 
0.553243 0.549907 0.543076 0.542193 0.542455 0.545351 0.542987 0.544701 0.542937 
0.54401 0.548411 0.557843 0.562865 0.564421 0.568187 0.56612 0.566452 0.565103 
0.568387 0.568697 0.566462 0.562302 0.566498 0.569445 0.567368 0.562103 0.562906 
0.566326 0.567428 0.561683 0.56459 0.561004 0.557634 0.556328 0.556604 0.559321 
0.561777 0.557992 0.557217 0.556553 0.560593 0.566222 0.574563 0.576492 0.574995 
0.573566 0.57522 0.576769 0.57676 0.574754 0.575261 0.570849 0.572659 0.576472 
0.575143 0.571422 0.570652 0.59487 0.578059 0.579021 0.581091 0.580075 0.579296 
0.579119 0.579051 0.579978 0.582279 0.580491 0.580224 0.579522 0.580772 0.581898 
0.585504 0.586944 0.585933 0.584958 0.5854 0.586416 0.586329 0.584751 0.585404 
0.583256 0.582864 0.584611 0.583913 0.57851 0.596548 
Water_Elev_m 1 4740 float
0.651043 0.663562 0.659434 0.658966 0.658905 0.658688 0.658535 0.658423 0.658343 
0.658291 0.658258 0.658239 0.658229 0.658225 0.658224 0.658225 0.658227 0.658231 
0.658241 0.658259 0.658291 0.658343 0.658423 0.658534 0.658686 0.658903 0.658963 
0.659431 0.663567 0.651025 0.659721 0.659851 0.658993 0.658801 0.658764 0.658746 
0.658753 0.658773 0.658795 0.658816 0.658834 0.658848 0.658858 0.658863 0.658866 
0.658865 0.658861 0.658853 0.658842 0.658828 0.658809 0.658788 0.658766 0.658747 
0.65874 0.658759 0.658796 0.65899 0.65985 0.659721 0.659082 0.65932 0.658977 
0.658814 0.658743 0.658702 0.658684 0.658681 0.658685 0.658692 0.6587 0.658707 
0.658712 0.658716 0.658717 0.658717 0.658714 0.658709 0.658703 0.658695 0.658687 
0.65868 0.658676 0.658679 0.658696 0.658739 0.65881 0.658974 0.659318 0.659078 
0.65845 0.659062 0.658861 0.658739 0.658668 0.658614 0.658581 0.658563 0.658554 
0.658551 0.658551 0.658553 0.658554 0.658556 0.658556 0.658556 0.658554 0.658552 
0.658549 0.658547 0.658547 0.658549 0.658558 0.658577 0.65861 0.658664 0.658735 
0.658858 0.65906 0.658447 0.658299 0.658713 0.658587 0.658504 0.65844 0.658386 
0.658349 0.658325 0.65831 0.658303 0.658299 0.658298 0.658297 0.658297 0.658297 
0.658297 0.658296 0.658295 0.658294 0.658295 0.658298 0.658306 0.65832 0.658344 
0.658381 0.658435 0.658499 0.658583 0.658709 0.658296 0.658162 0.658419 0.658321 
0.65826 0.658203 0.658151 0.658113 0.658085 0.658067 0.658056 0.658049 0.658045 
0.658043 0.658042 0.658041 0.65804 0.65804 0.65804 0.658042 0.658045 0.658051 
0.658062 0.65808 0.658108 0.658146 0.658198 0.658255 0.658317 0.658415 0.658155 
0.658167 0.658369 0.658293 0.658252 0.658209 0.658168 0.658136 0.658112 0.658094 
0.658082 0.658074 0.658069 0.658066 0.658064 0.658064 0.658063 0.658063 0.658064 
0.658067 0.658071 0.658078 0.65809 0.658107 0.658131 0.658164 0.658205 0.658247 
0.658288 0.658365 0.658162 0.658112 0.658294 0.658232 0.658204 0.658173 0.65814 
0.658113 0.658091 0.658075 0.658063 0.658054 0.658049 0.658045 0.658042 0.658041 
0.658041 0.658041 0.658043 0.658046 0.658051 0.658059 0.658071 0.658087 0.658109 
0.658136 0.658168 0.6582 0.658228 0.65829 0.658106 0.657778 0.65797 0.657901 
0.657874 0.657845 0.657813 0.657785 0.657762 0.657743 0.657728 0.657717 0.657709 
0.657704 0.6577 0.657698 0.657698 0.657699 0.657702 0.657707 0.657714 0.657725 
0.657739 0.657757 0.657781 0.657809 0.65784 0.657869 0.657897 0.657966 0.657779 
0.657375 0.657599 0.657518 0.657487 0.657458 0.657427 0.657398 0.657373 0.657351 
0.657334 0.657321 0.65731 0.657303 0.657299 0.657296 0.657296 0.657297 0.657301 
0.657308 0.657317 0.65733 0.657347 0.657368 0.657393 0.657422 0.657454 0.657482 
0.657513 0.657594 0.657366 0.656951 0.657196 0.657116 0.657081 0.657053 0.657022 
0.656992 0.656966 0.656943 0.656924 0.656909 0.656897 0.656888 0.656882 0.656879 
0.656879 0.656881 0.656886 0.656894 0.656905 0.65692 0.656939 0.656961 0.656987 
0.657017 0.657048 0.657076 0.657111 0.657191 0.656946 0.656619 0.656836 0.65677 
0.656736 0.65671 0.65668 0.656652 0.656626 0.656603 0.656584 0.656568 0.656555 
0.656546 0.656539 0.656536 0.656536 0.656538 0.656544 0.656552 0.656564 0.65658 
0.656599 0.656622 0.656647 0.656675 0.656704 0.656731 0.656765 0.656831 0.656614 
0.656617 0.656767 0.656731 0.656707 0.656687 0.656664 0.656641 0.656619 0.6566 
0.656583 0.656568 0.656557 0.656548 0.656542 0.656539 0.656539 0.656541 0.656547 
0.656554 0.656565 0.656579 0.656596 0.656615 0.656636 0.656659 0.656682 0.656702 
0.656726 0.656762 0.656612 0.656736 0.656807 0.656798 0.656786 0.656773 0.656757 
0.656739 0.656723 0.656707 0.656693 0.656682 0.656672 0.656665 0.65666 0.656657 
0.656657 0.656659 0.656663 0.65667 0.656679 0.65669 0.656704 0.656719 0.656736 
0.656752 0.656768 0.656782 0.656794 0.656802 0.656731 0.656762 0.656784 0.656785 
0.656779 0.65677 0.656758 0.656745 0.656731 0.656719 0.656708 0.656698 0.65669 
0.656683 0.656679 0.656677 0.656677 0.656678 0.656682 0.656688 0.656696 0.656705 
0.656716 0.656728 0.656741 0.656754 0.656766 0.656775 0.656781 0.65678 0.656758 
0.656769 0.656775 0.656775 0.656771 0.656764 0.656756 0.656746 0.656735 0.656725 
0.656716 0.656708 0.656701 0.656696 0.656693 0.656691 0.65669 0.656692 0.656695 
0.6567 0.656706 0.656714 0.656723 0.656732 0.656743 0.656752 0.656761 0.656768 
0.656772 0.656771 0.656765 0.656773 0.656775 0.656774 0.65677 0.656765 0.656758 
0.656751 0.656743 0.656735 0.656728 0.656721 0.656716 0.656712 0.656709 0.656707 
0.656707 0.656708 0.656711 0.656714 0.65672 0.656726 0.656733 0.65674 0.656748 
0.656756 0.656762 0.656767 0.65677 0.656771 0.656769 0.656775 0.656776 0.656775 
0.656772 0.656768 0.656763 0.656757 0.656751 0.656745 0.656739 0.656734 0.656729 
0.656726 0.656724 0.656722 0.656722 0.656723 0.656725 0.656728 0.656732 0.656737 
0.656743 0.656749 0.656754 0.65676 0.656765 0.656769 0.656772 0.656773 0.656772 
0.656778 0.656779 0.656777 0.656775 0.656772 0.656768 0.656764 0.656759 0.656754 
0.65675 0.656746 0.656742 0.656739 0.656738 0.656736 0.656736 0.656737 0.656739 
0.656741 0.656744 0.656748 0.656752 0.656757 0.656761 0.656766 0.656769 0.656772 
0.656775 0.656776 0.656775 0.656782 0.656783 0.656781 0.65678 0.656777 0.656774 
0.656771 0.656767 0.656764 0.65676 0.656757 0.656754 0.656752 0.656751 0.65675 
0.65675 0.65675 0.656752 0.656754 0.656756 0.656759 0.656762 0.656766 0.656769 
0.656772 0.656775 0.656777 0.656779 0.65678 0.65678 0.656787 0.656788 0.656787 
0.656785 0.656784 0.656781 0.656779 0.656776 0.656773 0.656771 0.656768 0.656766 
0.656765 0.656764 0.656763 0.656763 0.656763 0.656764 0.656766 0.656767 0.65677 
0.656772 0.656775 0.656777 0.65678 0.656782 0.656784 0.656785 0.656786 0.656785 
0.656794 0.656794 0.656794 0.656792 0.656791 0.656789 0.656787 0.656785 0.656783 
0.656781 0.65678 0.656778 0.656777 0.656776 0.656776 0.656775 0.656776 0.656776 
0.656778 0.656779 0.65678 0.656782 0.656784 0.656786 0.656788 0.656789 0.656791 
0.656792 0.656793 0.656792 0.656801 0.656802 0.656801 0.6568 0.656799 0.656798 
0.656797 0.656795 0.656794 0.656792 0.656791 0.65679 0.656789 0.656788 0.656788 
0.656788 0.656788 0.656788 0.656789 0.65679 0.656791 0.656793 0.656794 0.656796 
0.656797 0.656798 0.656799 0.6568 0.6568 0.6568 0.65681 0.65681 0.65681 
0.656809 0.656808 0.656808 0.656807 0.656805 0.656804 0.656803 0.656802 0.656802 
0.656801 0.6568 0.6568 0.6568 0.6568 0.656801 0.656801 0.656802 0.656803 
0.656804 0.656805 0.656806 0.656806 0.656807 0.656808 0.656809 0.656809 0.656809 
0.656819 0.65682 0.656819 0.656819 0.656818 0.656818 0.656817 0.656816 0.656815 
0.656815 0.656814 0.656813 0.656813 0.656813 0.656812 0.656812 0.656812 0.656813 
0.656813 0.656814 0.656814 0.656815 0.656815 0.656816 0.656817 0.656817 0.656818 
0.656818 0.656819 0.656818 0.65683 0.65683 0.65683 0.65683 0.656829 0.656829 
0.656828 0.656828 0.656827 0.656827 0.656826 0.656826 0.656825 0.656825 0.656825 
0.656825 0.656825 0.656825 0.656825 0.656826 0.656826 0.656826 0.656827 0.656827 
0.656828 0.656828 0.656829 0.656829 0.656829 0.656829 0.656841 0.656841 0.656841 
0.656841 0.656841 0.65684 0.65684 0.65684 0.656839 0.656839 0.656838 0.656838 
0.656838 0.656838 0.656838 0.656838 0.656838 0.656838 0.656838 0.656838 0.656838 
0.656839 0.656839 0.656839 0.65684 0.65684 0.65684 0.65684 0.656841 0.65684 
0.656853 0.656853 0.656853 0.656853 0.656853 0.656853 0.656852 0.656852 0.656852 
0.656852 0.656851 0.656851 0.656851 0.656851 0.656851 0.656851 0.656851 0.656851 
0.656851 0.656851 0.656851 0.656851 0.656852 0.656852 0.656852 0.656852 0.656852 
0.656852 0.656853 0.656852 0.656866 0.656866 0.656866 0.656866 0.656866 0.656866 
0.656865 0.656865 0.656865 0.656865 0.656865 0.656865 0.656864 0.656864 0.656864 
0.656864 0.656864 0.656864 0.656864 0.656864 0.656865 0.656865 0.656865 0.656865 
0.656865 0.656865 0.656865 0.656865 0.656865 0.656865 0.656879 0.656879 0.656879 
0.656879 0.656879 0.656879 0.656879 0.656879 0.656879 0.656879 0.656879 0.656879 
0.656878 0.656878 0.656878 0.656878 0.656878 0.656878 0.656878 0.656878 0.656878 
0.656879 0.656879 0.656879 0.656879 0.656879 0.656879 0.656879 0.656879 0.656879 
0.656894 0.656894 0.656894 0.656894 0.656894 0.656894 0.656893 0.656893 0.656893 
0.656893 0.656893 0.656893 0.656893 0.656893 0.656893 0.656893 0.656893 0.656893 
0.656893 0.656893 0.656893 0.656893 0.656893 0.656893 0.656893 0.656893 0.656893 
0.656893 0.656893 0.656893 0.656909 0.656909 0.656909 0.656909 0.656909 0.656909 
0.656909 0.656909 0.656909 0.656909 0.656908 0.656908 0.656908 0.656908 0.656908 
0.656908 0.656908 0.656908 0.656908 0.656908 0.656908 0.656908 0.656908 0.656908 
0.656908 0.656909 0.656909 0.656909 0.656909 0.656908 0.656924 0.656925 0.656925 
0.656925 0.656925 0.656925 0.656925 0.656925 0.656925 0.656924 0.656924 0.656924 
0.656924 0.656924 0.656924 0.656924 0.656924 0.656924 0.656924 0.656924 0.656924 
0.656924 0.656924 0.656924 0.656924 0.656924 0.656924 0.656924 0.656924 0.656924 
0.656941 0.656941 0.656941 0.656941 0.656941 0.656941 0.656941 0.656941 0.656941 
0.656941 0.656941 0.656941 0.656941 0.656941 0.656941 0.656941 0.656941 0.656941 
0.656941 0.656941 0.656941 0.656941 0.656941 0.656941 0.656941 0.656941 0.656941 
0.656941 0.656941 0.656941 0.656959 0.656959 0.656959 0.656959 0.656959 0.656959 
0.656959 0.656959 0.656959 0.656959 0.656959 0.656959 0.656959 0.656959 0.656959 
0.656959 0.656959 0.656959 0.656959 0.656959 0.656959 0.656959 0.656959 0.656959 
0.656959 0.656959 0.656959 0.656959 0.656959 0.656959 0.656977 0.656977 0.656977 
0.656977 0.656977 0.656977 0.656977 0.656977 0.656977 0.656977 0.656977 0.656977 
0.656977 0.656977 0.656977 0.656977 0.656977 0.656977 0.656977 0.656977 0.656977 
0.656977 0.656977 0.656977 0.656977 0.656977 0.656977 0.656977 0.656977 0.656977 
0.656996 0.656997 0.656997 0.656997 0.656997 0.656997 0.656997 0.656997 0.656997 
0.656997 0.656997 0.656997 0.656997 0.656997 0.656997 0.656997 0.656997 0.656997 
0.656997 0.656997 0.656997 0.656997 0.656997 0.656997 0.656997 0.656997 0.656996 
0.656997 0.656997 0.656996 0.657017 0.657017 0.657017 0.657017 0.657017 0.657017 
0.657017 0.657017 0.657017 0.657017 0.657017 0.657017 0.657017 0.657017 0.657017 
0.657017 0.657017 0.657017 0.657017 0.657017 0.657017 0.657017 0.657017 0.657017 
0.657017 0.657017 0.657017 0.657017 0.657017 0.657017 0.657038 0.657038 0.657038 
0.657038 0.657038 0.657038 0.657038 0.657038 0.657038 0.657038 0.657038 0.657038 
0.657038 0.657038 0.657038 0.657038 0.657038 0.657038 0.657038 0.657038 0.657038 
0.657038 0.657038 0.657038 0.657038 0.657038 0.657038 0.657038 0.657038 0.657038 
0.65706 0.657061 0.657061 0.65706 0.65706 0.65706 0.657061 0.657061 0.657061 
0.657061 0.657061 0.657061 0.657061 0.657061 0.657061 0.657061 0.657061 0.657061 
0.657061 0.657061 0.657061 0.65706 0.65706 0.65706 0.65706 0.65706 0.65706 
0.65706 0.65706 0.65706 0.657084 0.657084 0.657084 0.657084 0.657084 0.657084 
0.657084 0.657084 0.657084 0.657084 0.657084 0.657084 0.657084 0.657084 0.657084 
0.657084 0.657084 0.657084 0.657084 0.657084 0.657084 0.657084 0.657084 0.657084 
0.657084 0.657084 0.657084 0.657084 0.657084 0.657084 0.657108 0.657108 0.657108 
0.657108 0.657108 0.657108 0.657108 0.657108 0.657108 0.657108 0.657108 0.657108 
0.657108 0.657108 0.657108 0.657108 0.657108 0.657108 0.657108 0.657108 0.657108 
0.657108 0.657108 0.657108 0.657108 0.657108 0.657108 0.657108 0.657108 0.657108 
0.657134 0.657134 0.657134 0.657134 0.657134 0.657134 0.657134 0.657134 0.657134 
0.657134 0.657134 0.657134 0.657134 0.657134 0.657134 0.657134 0.657134 0.657134 
0.657134 0.657134 0.657134 0.657134 0.657134 0.657134 0.657134 0.657134 0.657134 
0.657134 0.657134 0.657134 0.657161 0.657161 0.657161 0.657161 0.657161 0.657161 
0.657161 0.657161 0.657161 0.657161 0.657161 0.657161 0.657161 0.657161 0.657161 
0.657161 0.657161 0.657161 0.657161 0.657161 0.657161 0.657161 0.657161 0.657161 
0.657161 0.657161 0.657161 0.657161 0.657161 0.657161 0.657189 0.65719 0.65719 
0.65719 0.65719 0.65719 0.65719 0.65719 0.65719 0.65719 0.65719 0.65719 
0.65719 0.65719 0.65719 0.65719 0.65719 0.65719 0.65719 0.65719 0.65719 
0.65719 0.65719 0.65719 0.65719 0.65719 0.65719 0.65719 0.65719 0.657189 
0.657219 0.65722 0.65722 0.65722 0.65722 0.65722 0.65722 0.65722 0.657219 
0.657219 0.657219 0.657219 0.657219 0.657219 0.657219 0.657219 0.657219 0.657219 
0.657219 0.657219 0.657219 0.657219 0.65722 0.65722 0.65722 0.65722 0.65722 
0.65722 0.65722 0.657219 0.657251 0.657252 0.657252 0.657251 0.657251 0.657251 
0.657251 0.657251 0.657251 0.657251 0.65725 0.65725 0.65725 0.65725 0.65725 
0.65725 0.65725 0.65725 0.65725 0.65725 0.657251 0.657251 0.657251 0.657251 
0.657251 0.657251 0.657251 0.657252 0.657252 0.657251 0.657284 0.657286 0.657286 
0.657285 0.657285 0.657285 0.657284 0.657284 0.657284 0.657283 0.657283 0.657283 
0.657282 0.657282 0.657282 0.657282 0.657282 0.657282 0.657283 0.657283 0.657283 
0.657284 0.657284 0.657284 0.657285 0.657285 0.657285 0.657286 0.657286 0.657284 
0.657329 0.65733 0.657326 0.657323 0.65732 0.657318 0.657317 0.657315 0.657314 
0.657313 0.657312 0.657312 0.657311 0.657311 0.657311 0.657311 0.657311 0.657311 
0.657312 0.657312 0.657313 0.657314 0.657315 0.657317 0.657318 0.65732 0.657323 
0.657326 0.65733 0.657329 0.646129 0.579074 0.589724 0.591673 0.59223 0.593556 
0.594802 0.595856 0.596667 0.597241 0.597697 0.597984 0.598175 0.598228 0.598229 
0.598151 0.598064 0.597945 0.597757 0.597453 0.597004 0.596379 0.595572 0.594523 
0.593329 0.592036 0.591508 0.589565 0.578938 0.646106 0.65953 0.603092 0.60387 
0.604091 0.604569 0.605709 0.606837 0.607797 0.608546 0.609091 0.609509 0.609778 
0.60995 0.61001 0.610011 0.609954 0.609881 0.609765 0.609582 0.6093 0.608892 
0.608319 0.607567 0.606611 0.605512 0.604396 0.603944 0.603732 0.602985 0.659568 
0.648242 0.620301 0.616505 0.616055 0.616358 0.616977 0.617612 0.618144 0.618551 
0.618847 0.619073 0.619219 0.619311 0.61934 0.619335 0.619298 0.619253 0.619186 
0.619084 0.618928 0.618704 0.618392 0.617981 0.617452 0.616834 0.616231 0.615943 
0.6164 0.62023 0.648252 0.634237 0.629089 0.626357 0.626683 0.627061 0.627289 
0.627505 0.627655 0.627754 0.627819 0.627871 0.627902 0.62792 0.627918 0.627906 
0.627885 0.627868 0.627848 0.627823 0.627785 0.627732 0.627657 0.627555 0.627405 
0.627198 0.626978 0.626606 0.626281 0.629037 0.634203 0.621746 0.635996 0.635507 
0.636778 0.637248 0.637119 0.636946 0.63675 0.63657 0.636427 0.636327 0.636257 
0.636211 0.63618 0.636161 0.636153 0.63616 0.636183 0.636225 0.636291 0.636389 
0.636526 0.636703 0.636897 0.637071 0.637201 0.636732 0.635456 0.635957 0.621671 
0.611377 0.645599 0.645197 0.646506 0.646823 0.646285 0.645732 0.645218 0.644793 
0.64447 0.644243 0.644088 0.643992 0.643936 0.643913 0.643915 0.643942 0.643999 
0.644096 0.644248 0.644474 0.644792 0.645215 0.645725 0.646274 0.646807 0.646484 
0.645168 0.645577 0.61127 0.608276 0.659687 0.654955 0.654969 0.654865 0.653946 
0.653111 0.652392 0.651821 0.651399 0.651104 0.650907 0.650787 0.650721 0.650698 
0.650706 0.650744 0.650817 0.65094 0.651135 0.651429 0.651848 0.652417 0.653131 
0.653958 0.654869 0.654965 0.654943 0.659686 0.608154 0.623326 0.671191 0.660838 
0.659418 0.659047 0.658144 0.657406 0.656805 0.656345 0.656015 0.655789 0.655641 
0.655553 0.655507 0.655493 0.655501 0.655529 0.655581 0.655671 0.655817 0.656042 
0.656371 0.65683 0.657426 0.658158 0.659054 0.65942 0.660835 0.671209 0.623224 
0.584007 0.584007 0.584006 0.584006 0.584006 0.584006 0.584006 0.584005 0.584005 
0.584005 0.584004 0.584004 0.584004 0.584003 0.584003 0.584003 0.584003 0.584003 
0.584003 0.584003 0.584003 0.584004 0.584004 0.584004 0.584004 0.584004 0.584004 
0.584004 0.584004 0.584005 0.584014 0.584013 0.584013 0.584013 0.584013 0.584013 
0.584013 0.584013 0.584013 0.584013 0.584013 0.584013 0.584013 0.584013 0.584013 
0.584013 0.584013 0.584013 0.584013 0.584013 0.584013 0.584013 0.584013 0.584013 
0.584013 0.584013 0.584013 0.584013 0.584013 0.584013 0.584022 0.584022 0.584022 
0.584022 0.584022 0.584022 0.584022 0.584022 0.584022 0.584022 0.584021 0.584021 
0.584021 0.584021 0.584021 0.584021 0.584021 0.584021 0.584021 0.584021 0.584021 
0.584021 0.584021 0.584021 0.584021 0.584021 0.584021 0.584021 0.584021 0.584021 
0.58403 0.58403 0.58403 0.58403 0.58403 0.58403 0.58403 0.58403 0.58403 
0.58403 0.58403 0.58403 0.58403 0.584029 0.584029 0.584029 0.584029 0.584029 
0.584029 0.584029 0.584029 0.584029 0.584029 0.584029 0.584029 0.584029 0.584029 
0.584029 0.584029 0.58403 0.584038 0.584038 0.584038 0.584038 0.584038 0.584038 
0.584038 0.584038 0.584038 0.584038 0.584038 0.584037 0.584037 0.584037 0.584037 
0.584037 0.584037 0.584037 0.584037 0.584037 0.584037 0.584037 0.584037 0.584037 
0.584037 0.584037 0.584037 0.584037 0.584037 0.584038 0.584046 0.584045 0.584045 
0.584045 0.584045 0.584045 0.584045 0.584045 0.584045 0.584045 0.584045 0.584045 
0.584045 0.584045 0.584045 0.584045 0.584045 0.584045 0.584045 0.584045 0.584045 
0.584045 0.584045 0.584045 0.584045 0.584045 0.584045 0.584045 0.584045 0.584045 
0.584054 0.584053 0.584053 0.584053 0.584053 0.584053 0.584053 0.584053 0.584053 
0.584053 0.584053 0.584053 0.584053 0.584053 0.584053 0.584053 0.584053 0.584053 
0.584053 0.584053 0.584053 0.584053 0.584053 0.584053 0.584053 0.584053 0.584053 
0.584053 0.584053 0.584053 0.584061 0.58406 0.58406 0.58406 0.58406 0.58406 
0.58406 0.58406 0.58406 0.58406 0.58406 0.58406 0.58406 0.58406 0.58406 
0.58406 0.58406 0.58406 0.58406 0.58406 0.58406 0.58406 0.58406 0.58406 
0.58406 0.58406 0.58406 0.58406 0.58406 0.58406 0.584068 0.584067 0.584067 
0.584067 0.584067 0.584067 0.584067 0.584067 0.584067 0.584067 0.584067 0.584067 
0.584067 0.584067 0.584067 0.584067 0.584067 0.584067 0.584067 0.584067 0.584067 
0.584067 0.584067 0.584067 0.584067 0.584067 0.584067 0.584067 0.584067 0.584067 
0.584075 0.584074 0.584074 0.584074 0.584074 0.584074 0.584074 0.584074 0.584074 
0.584074 0.584074 0.584074 0.584074 0.584074 0.584074 0.584074 0.584074 0.584074 
0.584074 0.584074 0.584074 0.584074 0.584074 0.584074 0.584074 0.584074 0.584074 
0.584074 0.584074 0.584074 0.584082 0.584081 0.584081 0.584081 0.584081 0.584081 
0.584081 0.584081 0.584081 0.584081 0.584081 0.58408 0.58408 0.58408 0.58408 
0.58408 0.58408 0.58408 0.58408 0.58408 0.58408 0.58408 0.58408 0.58408 
0.58408 0.58408 0.58408 0.58408 0.58408 0.584081 0.584088 0.584087 0.584087 
0.584087 0.584087 0.584087 0.584087 0.584087 0.584087 0.584087 0.584087 0.584087 
0.584087 0.584087 0.584087 0.584087 0.584087 0.584087 0.584087 0.584087 0.584087 
0.584087 0.584087 0.584087 0.584087 0.584087 0.584087 0.584087 0.584087 0.584087 
0.584094 0.584093 0.584093 0.584093 0.584093 0.584093 0.584093 0.584093 0.584093 
0.584093 0.584093 0.584093 0.584093 0.584093 0.584093 0.584093 0.584093 0.584093 
0.584093 0.584093 0.584093 0.584093 0.584093 0.584093 0.584093 0.584093 0.584093 
0.584093 0.584093 0.584094 0.5841 0.584099 0.584099 0.584099 0.584099 0.584099 
0.584099 0.584099 0.584099 0.584099 0.584099 0.584099 0.584099 0.584099 0.584099 
0.584099 0.584099 0.584099 0.584099 0.584099 0.584099 0.584099 0.584099 0.584099 
0.584099 0.584099 0.584099 0.584099 0.584099 0.5841 0.584106 0.584105 0.584105 
0.584105 0.584105 0.584105 0.584105 0.584105 0.584105 0.584105 0.584105 0.584104 
0.584104 0.584104 0.584104 0.584104 0.584104 0.584104 0.584104 0.584104 0.584104 
0.584104 0.584104 0.584104 0.584104 0.584104 0.584104 0.584104 0.584104 0.584105 
0.584112 0.58411 0.58411 0.58411 0.58411 0.58411 0.58411 0.58411 0.58411 
0.58411 0.58411 0.58411 0.58411 0.58411 0.58411 0.58411 0.58411 0.58411 
0.58411 0.58411 0.58411 0.58411 0.58411 0.58411 0.58411 0.58411 0.58411 
0.58411 0.58411 0.584111 0.584117 0.584115 0.584115 0.584115 0.584115 0.584115 
0.584115 0.584115 0.584115 0.584115 0.584115 0.584115 0.584115 0.584115 0.584115 
0.584115 0.584115 0.584115 0.584115 0.584115 0.584115 0.584115 0.584115 0.584115 
0.584115 0.584115 0.584115 0.584115 0.584115 0.584116 0.584122 0.58412 0.58412 
0.58412 0.58412 0.58412 0.58412 0.58412 0.58412 0.58412 0.58412 0.58412 
0.58412 0.58412 0.58412 0.58412 0.58412 0.58412 0.58412 0.58412 0.58412 
0.58412 0.58412 0.58412 0.58412 0.58412 0.58412 0.58412 0.58412 0.584121 
0.584127 0.584125 0.584125 0.584125 0.584125 0.584125 0.584125 0.584125 0.584124 
0.584124 0.584124 0.584124 0.584124 0.584124 0.584124 0.584124 0.584124 0.584124 
0.584124 0.584124 0.584124 0.584124 0.584124 0.584124 0.584124 0.584124 0.584124 
0.584124 0.584124 0.584126 0.584131 0.584129 0.584129 0.584129 0.584129 0.584129 
0.584129 0.584129 0.584129 0.584129 0.584129 0.584128 0.584128 0.584128 0.584128 
0.584128 0.584128 0.584128 0.584128 0.584128 0.584128 0.584128 0.584128 0.584128 
0.584129 0.584129 0.584129 0.584128 0.584128 0.58413 0.584135 0.584133 0.584133 
0.584133 0.584133 0.584133 0.584133 0.584133 0.584132 0.584132 0.584132 0.584132 
0.584132 0.584132 0.584132 0.584132 0.584132 0.584132 0.584132 0.584132 0.584132 
0.584132 0.584132 0.584132 0.584132 0.584133 0.584133 0.584132 0.584132 0.584134 
0.584139 0.584136 0.584136 0.584136 0.584136 0.584136 0.584136 0.584136 0.584136 
0.584136 0.584136 0.584136 0.584136 0.584136 0.584136 0.584136 0.584136 0.584136 
0.584136 0.584136 0.584136 0.584136 0.584136 0.584136 0.584136 0.584136 0.584136 
0.584136 0.584136 0.584138 0.584142 0.584139 0.584139 0.584139 0.584139 0.584139 
0.584139 0.584139 0.584139 0.584139 0.584139 0.584139 0.584139 0.584139 0.584139 
0.584139 0.584139 0.584139 0.584139 0.584139 0.584139 0.584139 0.584139 0.584139 
0.58414 0.58414 0.58414 0.58414 0.58414 0.584142 0.584145 0.584142 0.584142 
0.584142 0.584142 0.584142 0.584142 0.584142 0.584142 0.584142 0.584142 0.584142 
0.584142 0.584142 0.584142 0.584142 0.584142 0.584142 0.584142 0.584142 0.584142 
0.584142 0.584142 0.584142 0.584142 0.584143 0.584143 0.584143 0.584143 0.584145 
0.584147 0.584144 0.584144 0.584144 0.584144 0.584144 0.584144 0.584144 0.584144 
0.584144 0.584144 0.584144 0.584144 0.584144 0.584144 0.584144 0.584144 0.584144 
0.584144 0.584145 0.584145 0.584145 0.584145 0.584145 0.584145 0.584145 0.584145 
0.584145 0.584145 0.584148 0.584149 0.584146 0.584146 0.584146 0.584146 0.584146 
0.584146 0.584146 0.584146 0.584146 0.584146 0.584146 0.584146 0.584146 0.584146 
0.584146 0.584146 0.584146 0.584147 0.584147 0.584147 0.584147 0.584147 0.584147 
0.584147 0.584147 0.584147 0.584147 0.584147 0.58415 0.58415 0.584147 0.584147 
0.584147 0.584147 0.584147 0.584147 0.584147 0.584147 0.584147 0.584148 0.584148 
0.584148 0.584148 0.584148 0.584148 0.584148 0.584148 0.584148 0.584148 0.584149 
0.584149 0.584149 0.584149 0.584149 0.584149 0.584149 0.584149 0.584149 0.584152 
0.584151 0.584148 0.584148 0.584148 0.584148 0.584148 0.584148 0.584148 0.584148 
0.584148 0.584149 0.584149 0.584149 0.584149 0.584149 0.584149 0.584149 0.584149 
0.58415 0.58415 0.58415 0.58415 0.58415 0.58415 0.58415 0.58415 0.58415 
0.58415 0.58415 0.584154 0.584151 0.584148 0.584148 0.584148 0.584148 0.584148 
0.584148 0.584149 0.584149 0.584149 0.584149 0.584149 0.58415 0.58415 0.58415 
0.58415 0.58415 0.58415 0.584151 0.584151 0.584151 0.584151 0.584151 0.584151 
0.584151 0.584151 0.584151 0.584151 0.584151 0.584155 0.58415 0.584147 0.584147 
0.584147 0.584147 0.584148 0.584148 0.584148 0.584149 0.584149 0.58415 0.58415 
0.58415 0.584151 0.584151 0.584151 0.584151 0.584151 0.584151 0.584151 0.584151 
0.584151 0.584151 0.584151 0.584151 0.584151 0.584151 0.584151 0.58415 0.584155 
0.584148 0.584145 0.584145 0.584146 0.584146 0.584146 0.584147 0.584148 0.584148 
0.584149 0.58415 0.58415 0.584151 0.584151 0.584152 0.584152 0.584152 0.584152 
0.584152 0.584152 0.584151 0.584151 0.584151 0.584151 0.58415 0.58415 0.58415 
0.584149 0.584149 0.584154 0.584145 0.584142 0.584143 0.584143 0.584144 0.584145 
0.584145 0.584146 0.584147 0.584149 0.58415 0.58415 0.584151 0.584152 0.584152 
0.584153 0.584153 0.584153 0.584152 0.584152 0.584151 0.584151 0.58415 0.584149 
0.584149 0.584148 0.584148 0.584147 0.584147 0.584152 0.584141 0.584138 0.584139 
0.58414 0.584141 0.584142 0.584143 0.584145 0.584146 0.584148 0.58415 0.584151 
0.584152 0.584153 0.584154 0.584154 0.584154 0.584154 0.584154 0.584153 0.584152 
0.58415 0.584149 0.584148 0.584146 0.584145 0.584145 0.584144 0.584143 0.584148 
0.584135 0.584132 0.584133 0.584135 0.584136 0.584138 0.58414 0.584143 0.584146 
0.584148 0.584151 0.584153 0.584155 0.584156 0.584157 0.584158 0.584158 0.584157 
0.584156 0.584154 0.584152 0.58415 0.584148 0.584145 0.584143 0.584141 0.58414 
0.584138 0.584137 0.584142 0.584127 0.584124 0.584125 0.584127 0.58413 0.584133 
0.584137 0.584141 0.584145 0.584149 0.584153 0.584156 0.584159 0.584161 0.584162 
0.584163 0.584163 0.584161 0.584159 0.584157 0.584153 0.58415 0.584146 0.584142 
0.584138 0.584135 0.584132 0.58413 0.584128 0.584133 0.584113 0.584111 0.584113 
0.584117 0.584121 0.584125 0.584131 0.584137 0.584143 0.584149 0.584155 0.58416 
0.584164 0.584167 0.584169 0.58417 0.584169 0.584167 0.584164 0.58416 0.584155 
0.584149 0.584142 0.584136 0.58413 0.584125 0.58412 0.584116 0.584113 0.584118 
0.5841 0.584099 0.584102 0.584108 0.584114 0.584122 0.584131 0.58414 0.58415 
0.584159 0.584168 0.584176 0.584183 0.584188 0.584191 0.584192 0.584191 0.584188 
0.584183 0.584176 0.584168 0.584158 0.584148 0.584138 0.584128 0.584118 0.58411 
0.584104 0.584099 0.584103 0.58409 0.584094 0.584099 0.584109 0.58412 0.584133 
0.584147 0.584162 0.584177 0.584193 0.584207 0.58422 0.58423 0.584238 0.584243 
0.584244 0.584243 0.584238 0.584231 0.584221 0.584208 0.584193 0.584176 0.584159 
0.584141 0.584125 0.58411 0.584098 0.58409 0.584088 0.584007 0.584027 0.584036 
0.584047 0.584063 0.584079 0.584097 0.584116 0.584136 0.584155 0.584172 0.584188 
0.5842 0.584209 0.584214 0.584215 0.584213 0.584207 0.584197 0.584184 0.584168 
0.58415 0.584128 0.584106 0.584083 0.584061 0.58404 0.584023 0.584011 0.583989 
0.583764 0.583822 0.58383 0.58384 0.583855 0.583871 0.583888 0.583905 0.583922 
0.583938 0.583952 0.583964 0.583973 0.583979 0.583981 0.58398 0.583977 0.58397 
0.583961 0.583949 0.583935 0.583918 0.583899 0.583878 0.583857 0.583836 0.583816 
0.583802 0.583794 0.583736 0.583358 0.583471 0.58347 0.583472 0.583483 0.583495 
0.583506 0.583517 0.583527 0.583535 0.583539 0.583541 0.583541 0.583538 0.583534 
0.583529 0.583524 0.583518 0.583512 0.583505 0.583498 0.583488 0.583478 0.583466 
0.583453 0.583439 0.583424 0.583421 0.583424 0.58331 0.582719 0.582912 0.582897 
0.582888 0.582895 0.582901 0.582904 0.582905 0.582905 0.5829 0.58289 0.582874 
0.582856 0.582839 0.582825 0.582815 0.582809 0.582805 0.582803 0.582802 0.582802 
0.582804 0.582807 0.582812 0.582816 0.582817 0.582815 0.58283 0.58285 0.582656 
0.581601 0.581914 0.581881 0.581859 0.581866 0.58187 0.581868 0.581862 0.581854 
0.581844 0.58183 0.581807 0.581779 0.581754 0.581734 0.581721 0.581712 0.581705 
0.581698 0.581691 0.581685 0.581683 0.581687 0.581698 0.581716 0.581735 0.58175 
0.581789 0.581835 0.58152 0.579608 0.580071 0.580016 0.579965 0.579963 0.579978 
0.580007 0.580042 0.580064 0.580077 0.580108 0.580163 0.580213 0.580234 0.580232 
0.580221 0.580196 0.580151 0.580111 0.580067 0.580014 0.579961 0.579906 0.57985 
0.579797 0.579774 0.579777 0.57984 0.579925 0.579475 0.576906 0.577452 0.577392 
0.577308 0.577285 0.577314 0.57743 0.577607 0.57776 0.57785 0.577956 0.57816 
0.578391 0.578546 0.5786 0.578602 0.578565 0.578457 0.578353 0.578244 0.578112 
0.577969 0.577805 0.577615 0.577375 0.577194 0.577104 0.577151 0.577271 0.576784 
0.574947 0.575441 0.575341 0.575377 0.575384 0.575477 0.575611 0.575839 0.576152 
0.576449 0.576634 0.576767 0.576999 0.57723 0.577373 0.57739 0.577374 0.577357 
0.577186 0.577033 0.57686 0.576638 0.576424 0.576192 0.576009 0.57572 0.575566 
0.575526 0.575573 0.575152 0.574959 0.575167 0.575196 0.575196 0.575346 0.575483 
0.575639 0.57579 0.575997 0.57629 0.576579 0.576731 0.576753 0.576805 0.576901 
0.576987 0.577011 0.577005 0.576998 0.576855 0.576689 0.576538 0.576379 0.576256 
0.576161 0.576144 0.576022 0.575913 0.575806 0.575559 0.57604 0.576066 0.576154 
0.576235 0.576349 0.576439 0.57649 0.576533 0.576621 0.576813 0.577053 0.577186 
0.577193 0.577199 0.577241 0.577277 0.577275 0.577248 0.577235 0.577211 0.577176 
0.577151 0.577132 0.577128 0.577149 0.577171 0.577121 0.576981 0.576786 0.576703 
0.577006 0.576971 0.577108 0.577199 0.577272 0.5773 0.577255 0.577205 0.577113 
0.577108 0.577312 0.577555 0.577617 0.577611 0.577652 0.577689 0.577662 0.577522 
0.57747 0.577541 0.577634 0.577729 0.577798 0.577834 0.577869 0.577887 0.577886 
0.577811 0.577627 0.577624 0.577454 0.577426 0.577558 0.577671 0.577622 0.57762 
0.577566 0.577451 0.577365 0.577241 0.577099 0.577348 0.577645 0.577652 0.577666 
0.57772 0.577733 0.577696 0.577609 0.577626 0.577771 0.577875 0.577972 0.57804 
0.578066 0.578091 0.578109 0.578166 0.578162 0.578175 0.577841 0.577832 0.57788 
0.577875 0.577826 0.577726 0.577654 0.577581 0.57746 0.577382 0.577316 0.577134 
0.577395 0.577617 0.57761 0.577625 0.57764 0.577665 0.57772 0.577806 0.577854 
0.577928 0.577971 0.578056 0.578155 0.578263 0.578384 0.578389 0.57839 0.578596 
0.578528 0.578343 0.578296 0.578223 0.578106 0.577989 0.577938 0.577827 0.577728 
0.577602 0.577531 0.577507 0.577464 0.577656 0.577673 0.57763 0.577635 0.577725 
0.577842 0.577945 0.577997 0.578033 0.578118 0.578218 0.578333 0.578452 0.578606 
0.578743 0.578764 0.578749 0.579115 0.578862 0.578714 0.578492 0.578403 0.578272 
0.578189 0.578114 0.578039 0.577871 0.577725 0.577614 0.577578 0.577551 0.577672 
0.577685 0.577678 0.577765 0.577911 0.577973 0.578085 0.578156 0.578215 0.578329 
0.578478 0.578647 0.578793 0.579025 0.579197 0.57935 0.579186 0.579094 0.578887 
0.57873 0.57854 0.578382 0.578264 0.57819 0.578159 0.578098 0.577897 0.577718 
0.577483 0.577564 0.577621 0.577751 0.577828 0.577907 0.578019 0.578108 0.578139 
0.578243 0.578349 0.578451 0.578592 0.578754 0.578941 0.579247 0.579447 0.579676 
0.578943 0.57881 0.578768 0.578672 0.578556 0.578387 0.578247 0.578156 0.57812 
0.578152 0.578065 0.577907 0.57782 0.577644 0.577682 0.577967 0.57807 0.578063 
0.578122 0.578212 0.578286 0.578391 0.578476 0.57857 0.578656 0.578769 0.578865 
0.578895 0.579324 0.579236 0.578528 0.57863 0.578488 0.578488 0.5785 0.578469 
0.578312 0.578178 0.578147 0.578126 0.57817 0.578098 0.578054 0.57806 0.57803 
0.57798 0.578133 0.578221 0.578233 0.578306 0.578401 0.578447 0.578561 0.578633 
0.578669 0.578721 0.578738 0.578667 0.578493 0.578738 0.578409 0.57842 0.578493 
0.5785 0.578537 0.578538 0.578507 0.578413 0.57823 0.578211 0.578276 0.578257 
0.57821 0.578239 0.578234 0.578194 0.578282 0.578299 0.578358 0.578437 0.578523 
0.578606 0.578662 0.57875 0.578817 0.578758 0.578738 0.578697 0.578577 0.578405 
0.578659 0.578633 0.578647 0.578642 0.578651 0.578671 0.578693 0.57861 0.57854 
0.578395 0.578381 0.578447 0.578399 0.578358 0.578373 0.578385 0.578451 0.578533 
0.578574 0.578619 0.578701 0.578792 0.578856 0.578899 0.578931 0.578959 0.578888 
0.578847 0.578807 0.578698 0.578942 0.578946 0.579027 0.578997 0.579024 0.57903 
0.579017 0.578988 0.578886 0.578762 0.578652 0.578645 0.578627 0.578606 0.578569 
0.578587 0.578661 0.57875 0.578793 0.578827 0.578896 0.57896 0.579003 0.579025 
0.579036 0.579052 0.579025 0.578979 0.578944 0.578935 0.579293 0.579274 0.579363 
0.579386 0.57941 0.579455 0.579425 0.579383 0.579291 0.579206 0.579047 0.578943 
0.578874 0.578847 0.578816 0.578798 0.578854 0.578929 0.578977 0.579004 0.579038 
0.579076 0.579108 0.579114 0.579133 0.579144 0.579156 0.579119 0.579074 0.579066 
0.579567 0.579499 0.579543 0.579568 0.579577 0.579619 0.57962 0.579607 0.579573 
0.579499 0.579352 0.579202 0.579098 0.579029 0.578992 0.578965 0.579 0.579064 
0.579123 0.579168 0.579187 0.579198 0.579238 0.579265 0.579294 0.579281 0.579282 
0.579265 0.579226 0.57922 0.57981 0.579714 0.579703 0.579721 0.579711 0.579695 
0.579695 0.57972 0.579766 0.579632 0.579519 0.579375 0.579309 0.579224 0.57917 
0.579121 0.579133 0.579181 0.579209 0.579271 0.579303 0.579317 0.579357 0.579422 
0.579464 0.579451 0.57942 0.57941 0.579374 0.579372 0.580063 0.579975 0.579909 
0.579931 0.579897 0.579872 0.579779 0.579801 0.57979 0.579803 0.579608 0.579542 
0.579486 0.579484 0.579463 0.579352 0.5793 0.579334 0.579352 0.579356 0.579345 
0.579382 0.57942 0.579519 0.579532 0.579566 0.57956 0.579531 0.579525 0.579511 
0.580186 0.580174 0.580178 0.580149 0.580115 0.580063 0.580022 0.579892 0.579883 
0.57985 0.579776 0.579702 0.579683 0.579687 0.579722 0.579685 0.579544 0.579511 
0.579529 0.579525 0.579521 0.579551 0.579598 0.579627 0.579672 0.579652 0.579675 
0.579669 0.57964 0.579633 0.580446 0.580377 0.580398 0.580372 0.580342 0.580289 
0.580224 0.580118 0.580007 0.579992 0.57996 0.579865 0.579821 0.57977 0.57975 
0.57982 0.57976 0.579723 0.579745 0.579705 0.579717 0.579779 0.57987 0.579887 
0.579866 0.579825 0.579817 0.57981 0.579784 0.579794 0.580696 0.580586 0.580594 
0.580572 0.580537 0.580518 0.580425 0.580348 0.580193 0.580151 0.580136 0.580043 
0.579976 0.579877 0.579702 0.579774 0.579852 0.579895 0.579982 0.57993 0.579947 
0.579964 0.58003 0.580051 0.580022 0.579976 0.579956 0.57994 0.579925 0.579973 
0.580862 0.580802 0.580766 0.580767 0.580691 0.580679 0.580711 0.580653 0.580545 
0.580394 0.580354 0.580309 0.580142 0.580124 0.580133 0.57986 0.579988 0.580083 
0.580094 0.580244 0.580236 0.580232 0.580208 0.580145 0.580125 0.580139 0.580088 
0.58008 0.580047 0.580101 0.581012 0.580968 0.580945 0.580895 0.580865 0.580817 
0.580828 0.580855 0.580856 0.580724 0.580597 0.580528 0.580416 0.580318 0.580344 
0.580361 0.580204 0.580185 0.580174 0.580299 0.580422 0.580491 0.580438 0.580431 
0.580353 0.580314 0.58032 0.580266 0.580203 0.580209 0.581169 0.581122 0.581103 
0.581028 0.581011 0.580973 0.580935 0.580916 0.580938 0.580892 0.580824 0.580748 
0.580595 0.580467 0.580457 0.580461 0.580393 0.580349 0.580293 0.58035 0.580493 
0.580568 0.580594 0.58065 0.580625 0.580554 0.580514 0.580468 0.580397 0.580387 
0.581265 0.581256 0.581255 0.581223 0.581179 0.581158 0.581112 0.58108 0.581029 
0.581021 0.580952 0.580871 0.580723 0.580615 0.580537 0.580526 0.580499 0.580559 
0.580671 0.5806 0.580683 0.580703 0.580703 0.580739 0.580742 0.580698 0.580622 
0.580598 0.580573 0.580612 0.581376 0.581339 0.581401 0.581403 0.581377 0.581346 
0.581334 0.581304 0.581247 0.581151 0.580975 0.580681 0.580734 0.5807 0.580691 
0.580664 0.580665 0.580683 0.580769 0.580954 0.580931 0.580903 0.580936 0.580907 
0.580958 0.580876 0.580815 0.580759 0.580707 0.580816 0.58159 0.581526 0.581585 
0.581589 0.581556 0.581511 0.581514 0.581492 0.581403 0.58127 0.581132 0.580734 
0.580653 0.580788 0.580825 0.580836 0.580855 0.580797 0.580801 0.58092 0.581018 
0.581093 0.581163 0.581214 0.581297 0.581265 0.581149 0.581049 0.580944 0.581068 
0.581972 0.581876 0.581883 0.581885 0.581777 0.581764 0.581692 0.581665 0.581516 
0.581411 0.581398 0.581546 0.581047 0.581024 0.580993 0.580964 0.581014 0.581023 
0.581049 0.580953 0.581017 0.581261 0.581329 0.581446 0.581478 0.581556 0.581441 
0.58131 0.581295 0.581375 0.582326 0.58222 0.582283 0.582177 0.582117 0.582123 
0.582078 0.582037 0.581895 0.581699 0.581683 0.58184 0.581945 0.58152 0.581223 
0.581182 0.581225 0.58131 0.581308 0.581414 0.58139 0.581419 0.58158 0.581531 
0.581389 0.581565 0.581646 0.581566 0.581493 0.58165 0.582527 0.582444 0.58242 
0.582452 0.582425 0.582385 0.582423 0.58235 0.582326 0.582139 0.582021 0.582006 
0.582116 0.581957 0.58165 0.58149 0.581485 0.581566 0.581589 0.581671 0.581826 
0.581836 0.581862 0.581807 0.581679 0.581533 0.58176 0.58188 0.581822 0.581895 
0.58263 0.582632 0.582555 0.582546 0.58263 0.58263 0.582612 0.58247 0.582501 
0.582422 0.582363 0.582291 0.582206 0.582202 0.582055 0.581795 0.581766 0.581744 
0.581872 0.581818 0.581929 0.582119 0.582097 0.58215 0.582322 0.58203 0.582066 
0.582208 0.582209 0.582353 0.582807 0.582772 0.582932 0.582698 0.58275 0.582982 
0.582873 0.582791 0.582642 0.582733 0.582638 0.582578 0.582419 0.582423 0.582416 
0.582139 0.58206 0.582108 0.582138 0.582219 0.582147 0.582247 0.582361 0.582432 
0.582459 0.582686 0.582546 0.58257 0.582589 0.582787 0.5832 0.582994 0.583042 
0.58312 0.582984 0.58304 0.583247 0.583175 0.582848 0.582863 0.582975 0.582843 
0.582703 0.582658 0.58277 0.582721 0.582499 0.582608 0.582546 0.582657 0.582657 
0.582583 0.582769 0.582809 0.582744 0.582828 0.582924 0.583014 0.583029 0.583158 
0.583485 0.583333 0.583285 0.583318 0.583365 0.583224 0.583308 0.583379 0.583512 
0.583049 0.583063 0.583222 0.583167 0.583102 0.583173 0.583184 0.583139 0.583117 
0.583118 0.583043 0.583103 0.582987 0.583041 0.58315 0.583265 0.583178 0.583378 
0.583457 0.583435 0.583647 0.583835 0.58366 0.583664 0.583572 0.583679 0.58367 
0.583519 0.583493 0.583678 0.583738 0.583539 0.583573 0.583694 0.583726 0.583679 
0.583645 0.583621 0.583611 0.583632 0.583553 0.583525 0.583414 0.583341 0.583436 
0.583546 0.583695 0.583771 0.583904 0.583857 0.584081 0.584217 0.583983 0.584018 
0.584002 0.583967 0.584063 0.584055 0.583916 0.583747 0.584017 0.583996 0.583993 
0.584161 0.584308 0.584298 0.584225 0.584164 0.584194 0.58412 0.584015 0.584034 
0.583935 0.583802 0.58382 0.583871 0.584046 0.584165 0.5843 0.584305 0.584515 
0.584605 0.584319 0.5843 0.584427 0.584371 0.584317 0.584486 0.584527 0.584209 
0.58433 0.584402 0.584458 0.584571 0.584778 0.58492 0.584893 0.584791 0.584833 
0.584747 0.584505 0.584499 0.584494 0.584343 0.584302 0.584343 0.584458 0.584612 
0.584742 0.584785 0.585042 0.584968 0.584698 0.584694 0.584739 0.584938 0.584624 
0.58459 0.58471 0.584865 0.584888 0.584985 0.58506 0.585014 0.585136 0.585411 
0.585481 0.585419 0.585275 0.585373 0.585189 0.584935 0.58503 0.584918 0.584901 
0.584994 0.585151 0.585179 0.585249 0.585203 0.585556 0.58539 0.585114 0.585208 
0.585227 0.585298 0.585263 0.584874 0.584923 0.585071 0.585249 0.585465 0.585396 
0.585592 0.585571 0.585715 0.585867 0.585919 0.585754 0.585734 0.585667 0.585553 
0.585479 0.585504 0.585471 0.585601 0.58577 0.585836 0.585746 0.585673 0.585933 
0.58582 0.585561 0.585741 0.585776 0.585721 0.5857 0.585491 0.585382 0.585497 
0.585643 0.585736 0.585691 0.585963 0.586078 0.586098 0.586199 0.586262 0.586221 
0.586128 0.586087 0.585983 0.585946 0.586005 0.586003 0.586056 0.586134 0.586218 
0.586177 0.586127 0.586337 0.586232 0.585975 0.586142 0.586227 0.586169 0.586021 
0.586027 0.585936 0.586025 0.586241 0.586303 0.586282 0.586382 0.586561 0.586531 
0.586569 0.586574 0.586627 0.586544 0.586518 0.586368 0.586355 0.586401 0.586432 
0.586443 0.586425 0.586454 0.58647 0.586477 0.586694 0.586623 0.586407 0.58644 
0.586508 0.586532 0.586406 0.586375 0.586509 0.586511 0.586677 0.58688 0.587021 
0.586792 0.586899 0.586881 0.586855 0.586889 0.586868 0.586894 0.586809 0.586731 
0.586663 0.586666 0.586734 0.586732 0.58676 0.586691 0.586696 0.586649 0.586928 
0.586942 0.586791 0.586796 0.586755 0.586773 0.586771 0.586711 0.586813 0.586911 
0.586954 0.587152 0.587265 0.587177 0.587028 0.587037 0.587065 0.587063 0.587047 
0.587068 0.587034 0.586989 0.586904 0.586888 0.586897 0.586941 0.586979 0.586966 
0.586912 0.586841 0.587018 0.587154 0.587045 0.587102 0.587048 0.586979 0.587051 
0.587005 0.586975 0.587089 0.587105 0.58725 0.587253 0.587308 0.587122 0.587123 
0.587201 0.587189 0.587183 0.587193 0.587205 0.587193 0.587133 0.587104 0.587055 
0.587089 0.587113 0.587156 0.587123 0.587084 0.587166 0.587332 0.587194 0.587284 
0.587266 0.587213 0.587201 0.587228 0.587207 0.587206 0.587292 0.587295 0.587339 
0.587323 0.58729 0.587286 0.587331 0.587377 0.587332 0.587318 0.587358 0.587309 
0.587334 0.587273 0.587255 0.587236 0.587251 0.587277 0.587301 0.587301 0.587394 
0.58748 0.587362 0.587401 0.587403 0.587367 0.587343 0.587369 0.587371 0.587399 
0.587463 0.587435 0.58741 0.587425 0.587476 0.587478 0.587516 0.587541 0.58749 
0.587437 0.587431 0.587402 0.587388 0.58738 0.587364 0.587354 0.587358 0.587367 
0.587406 0.587437 0.587544 0.587616 0.58754 0.587509 0.587511 0.587468 0.587457 
0.58747 0.587447 0.58751 0.587532 0.587545 0.587485 0.587491 0.58757 0.587605 
0.587637 0.58763 0.587569 0.587503 0.587451 0.587437 0.587388 0.587387 0.587378 
0.587367 0.587387 0.587389 0.587447 0.58748 0.58758 0.587713 0.58764 0.587604 
0.587553 0.587529 0.587509 0.587519 0.587488 0.587536 0.587552 0.587563 0.58756 
0.587566 0.58758 0.587624 0.587661 0.58763 0.587591 0.587525 0.587483 0.587448 
0.587403 0.587382 0.587364 0.587356 0.587371 0.587395 0.587461 0.587512 0.587587 
0.587793 0.587666 0.587631 0.587555 0.587527 0.58751 0.587525 0.587497 0.587532 
0.587576 0.587584 0.587612 0.587635 0.587616 0.587602 0.587617 0.587601 0.587581 
0.587548 0.58751 0.58748 0.587435 0.587401 0.587379 0.587367 0.587379 0.587409 
0.587491 0.58754 0.587655 0.587903 0.587648 0.587632 0.587535 0.58751 0.587494 
0.587516 0.587527 0.587502 0.587598 0.587616 0.58766 0.587659 0.587667 0.587607 
0.587578 0.587618 0.587581 0.587569 0.587496 0.587494 0.587463 0.587424 0.5874 
0.587383 0.587387 0.587417 0.587512 0.58753 0.58778 0.58815 0.587562 0.587604 
0.587499 0.587473 0.587482 0.587526 0.58755 0.587536 0.587576 0.587632 0.587675 
0.587675 0.587671 0.58766 0.587624 0.587655 0.587648 0.587603 0.587517 0.587478 
0.58748 0.587448 0.587409 0.587388 0.58738 0.587407 0.5875 0.587458 0.588018 
0.58858 0.587403 0.587524 0.587428 0.587427 0.587448 0.587555 0.587577 0.587635 
0.587578 0.587628 0.587661 0.587684 0.587669 0.587747 0.587768 0.587705 0.587727 
0.587664 0.587654 0.587523 0.587527 0.587479 0.587431 0.58739 0.58737 0.587388 
0.587449 0.587319 0.58845 0.588798 0.587198 0.587427 0.58739 0.587401 0.587462 
0.587523 0.587638 0.587684 0.587669 0.587642 0.587663 0.587686 0.587685 0.587762 
0.587836 0.587774 0.587712 0.587689 0.587699 0.587627 0.587541 0.587495 0.58744 
0.587394 0.587352 0.587353 0.587365 0.587121 0.588669 0.587596 0.586939 0.587308 
0.587342 0.587364 0.587431 0.587456 0.587498 0.587509 0.587549 0.587498 0.587516 
0.58751 0.5875 0.587484 0.587528 0.587505 0.587428 0.587409 0.587403 0.587385 
0.587315 0.587274 0.587274 0.587267 0.587226 0.587222 0.587203 0.586838 0.587468 
0.586978 0.586046 0.587116 0.587229 0.587249 0.587307 0.587326 0.587333 0.587299 
0.587282 0.587289 0.587303 0.587304 0.587257 0.587201 0.587149 0.587118 0.58709 
0.587082 0.587055 0.587021 0.586991 0.586996 0.587007 0.587062 0.587039 0.587039 
0.586933 0.585938 0.586833 0.601909 0.582583 0.587374 0.587941 0.588032 0.588413 
0.588737 0.589013 0.589176 0.58924 0.589391 0.589475 0.589547 0.58951 0.589482 
0.589371 0.589294 0.589265 0.589237 0.589141 0.588978 0.588799 0.588642 0.588367 
0.58816 0.587836 0.587746 0.587152 0.582487 0.601781 
Velocity_m_p_s 3 4740 double
-0.095379285514 -0.079183019698 0 -0.13665819168 -0.024192575365 0 -0.14164920151 -0.017750052735 0 
-0.15054112673 -0.013785907999 0 -0.15593865514 -0.0093813445419 0 -0.15900158882 -0.0062730172649 0 
-0.16071455181 -0.0039991997182 0 -0.16153635085 -0.0024151285179 0 -0.1618411541 -0.0013763105962 0 
-0.16187134385 -0.0007316308911 0 -0.16177584231 -0.00036300354986 0 -0.16164758801 -0.00018008050392 0 
-0.16153970361 -0.00011388512939 0 -0.16147953272 -0.00011242395703 0 -0.16147536039 -0.00013746874174 0 
-0.16152539849 -0.00016204439453 0 -0.16162256896 -0.00016606532154 0 -0.16175933182 -0.00012949030497 0 
-0.16192394495 -2.261571899e-05 0 -0.16209176183 0.00020070868777 0 -0.16221298277 0.00060778832994 0 
-0.16219723225 0.0012904281029 0 -0.16189348698 0.0023672233801 0 -0.16105860472 0.0039862790145 0 
-0.15931999683 0.0062883677892 0 -0.15622340143 0.0094166584313 0 -0.15078741312 0.013833424076 0 
-0.1418557018 0.017803233117 0 -0.13682866096 0.024245968089 0 -0.09549215436 0.079282529652 0 
-0.20842477679 -0.036565352231 0 -0.093504436314 -0.022978078574 0 -0.13175290823 -0.025290494785 0 
-0.14816474915 -0.018774883822 0 -0.15532678366 -0.014129675925 0 -0.16108962893 -0.010896116495 0 
-0.1649723649 -0.0082164630294 0 -0.16751508415 -0.0061248079874 0 -0.16912777722 -0.0045401779935 0 
-0.17009785771 -0.0033506690525 0 -0.17065265775 -0.0024597607553 0 -0.17095324397 -0.0017838375643 0 
-0.17110617459 -0.0012531017419 0 -0.17118138075 -0.00081042514648 0 -0.17122079432 -0.00041000312194 0 
-0.17124554515 -1.4493606614e-05 0 -0.17125602067 0.00040752333007 0 -0.17123229802 0.00088794803014 0 
-0.17112861574 0.001465684385 0 -0.17086990178 0.0021921191365 0 -0.17034424841 0.0031342955772 0 
-0.16939072311 0.0043752556667 0 -0.16778451204 0.0060106250457 0 -0.16524223983 0.0081495158374 0 
-0.16135397553 0.010869679973 0 -0.15557922423 0.014135132544 0 -0.14839820564 0.018804321066 0 
-0.1319604516 0.025336515158 0 -0.093686968088 0.023027427495 0 -0.20865279436 0.036627925932 0 
-0.1605745554 -0.011506637558 0 -0.12036765367 -0.010516433045 0 -0.13878212869 -0.020936891437 0 
-0.15123046935 -0.01905679889 0 -0.15788294375 -0.015971625224 0 -0.1624482125 -0.013228373602 0 
-0.16539061069 -0.010644943453 0 -0.16720660031 -0.0084122298285 0 -0.16828007996 -0.006563663017 0 
-0.16887444258 -0.0050581772812 0 -0.16917803884 -0.0038377591409 0 -0.16931889951 -0.0028378691059 0 
-0.16937923431 -0.0019963707309 0 -0.16940946877 -0.0012572499691 0 -0.16943691671 -0.00057189434301 0 
-0.16947227716 0.00010347538046 0 -0.16951295733 0.00080784905003 0 -0.1695445925 0.0015814700164 0 
-0.16953645647 0.0024684115779 0 -0.16943609715 0.0035199092235 0 -0.16916011274 0.0047948355787 0 
-0.16858108342 0.0063556660898 0 -0.16751159728 0.0082584908232 0 -0.16568991542 0.010541837662 0 
-0.16273312271 0.013169736601 0 -0.15814612806 0.015949411318 0 -0.15146611631 0.019062833861 0 
-0.13898436725 0.020959757268 0 -0.1205393821 0.010536093265 0 -0.16078110039 0.011549863033 0 
-0.15043483675 0.0037259338424 0 -0.13674043119 -0.0017103510909 0 -0.14599515498 -0.015705293044 0 
-0.15518911183 -0.017091838643 0 -0.16128566861 -0.015780109912 0 -0.16554692388 -0.013866778463 0 
-0.16841477156 -0.011672974564 0 -0.17026855052 -0.0095651391894 0 -0.17142401636 -0.007683400996 0 
-0.17211320996 -0.0060577811673 0 -0.17250564694 -0.004673065152 0 -0.17272023857 -0.0034897630103 0 
-0.17283599079 -0.0024595935829 0 -0.17290246487 -0.0015333418269 0 -0.17294712365 -0.00066459627124 0 
-0.17298068106 0.00019181419339 0 -0.17300070822 0.001076755696 0 -0.17299261689 0.0020330699626 0 
-0.1729259342 0.0031045193318 0 -0.17274956405 0.0043366421014 0 -0.17238385975 0.0057744025253 0 
-0.17171031237 0.0074544348754 0 -0.17055994272 0.0093894833699 0 -0.16870175302 0.011547237635 0 
-0.16582107544 0.013785520568 0 -0.16154007614 0.015736086294 0 -0.15541863441 0.017076589167 0 
-0.14619530737 0.015708819032 0 -0.13691912591 0.0017217678251 0 -0.15064492822 -0.003703431692 0 
-0.15854932368 0.0033232015558 0 -0.15128524601 -0.00034980120836 0 -0.15637610853 -0.012024885975 0 
-0.16301655769 -0.014591416344 0 -0.16828367114 -0.01450696215 0 -0.17233026028 -0.013361002319 0 
-0.17527151108 -0.011657275259 0 -0.17731876671 -0.0098296878859 0 -0.17869669199 -0.0080795362592 0 
-0.17959445715 -0.0064874230884 0 -0.18016256392 -0.0050736870617 0 -0.18051356077 -0.0038236242253 0 
-0.18072655797 -0.0027054997627 0 -0.18085378408 -0.00168066693 0 -0.18092575669 -0.00070925703039 0 
-0.18095521629 0.00025034754071 0 -0.18094024062 0.0012358783279 0 -0.18086521327 0.0022872129921 0 
-0.18069714308 0.0034424825571 0 -0.18038213253 0.0047373422422 0 -0.1798401475 0.0062005077489 0 
-0.1789586693 0.007843808271 0 -0.17758773267 0.0096443844959 0 -0.17553909123 0.011519464664 0 
-0.17258912325 0.013265857473 0 -0.16852772236 0.014447817579 0 -0.16324141622 0.014559946954 0 
-0.15657910705 0.012011529878 0 -0.15146976709 0.0003436820989 0 -0.15870843828 -0.0033333373722 0 
-0.1697422266 -0.0010810917011 0 -0.1670729816 -0.0012840626296 0 -0.17037425935 -0.0097239650786 0 
-0.17517028749 -0.012256213464 0 -0.1795693785 -0.012791050598 0 -0.18326376379 -0.012226576917 0 
-0.18614207208 -0.011001580395 0 -0.18827305734 -0.0095183886588 0 -0.18979366124 -0.0079916222021 0 
-0.1908454895 -0.006528550759 0 -0.19155408442 -0.0051747863181 0 -0.19202016294 -0.0039370735176 0 
-0.19231852889 -0.0028003868647 0 -0.19250068069 -0.0017385188257 0 -0.19259801507 -0.00072090618778 0 
-0.19262462854 0.00028714738437 0 -0.19257901609 0.0013170477469 0 -0.19244480133 0.0024021440186 0 
-0.19218833745 0.0035717491992 0 -0.1917565316 0.0048495596275 0 -0.19107364118 0.0062480005436 0 
-0.19003878534 0.0077577475458 0 -0.18852685392 0.0093308500946 0 -0.18639700115 0.010858012363 0 
-0.18351326883 0.012122825719 0 -0.17980825901 0.012721249834 0 -0.17539519072 0.012212830596 0 
-0.17058461905 0.0096985930577 0 -0.16727201641 0.0012481025187 0 -0.16992005706 0.0010492304573 0 
-0.17926137149 -0.0029545233119 0 -0.17937724292 -0.0017777764006 0 -0.1819255352 -0.0080444412306 0 
-0.18550223112 -0.010156316683 0 -0.18913727999 -0.010924217291 0 -0.19240744412 -0.010767569765 0 
-0.19510349631 -0.0099651254714 0 -0.19720247388 -0.0088372156024 0 -0.19877132773 -0.0075776651502 0 
-0.19990669191 -0.0062995911576 0 -0.20070625842 -0.0050632506609 0 -0.20125457644 -0.0038919826038 0 
-0.20161782205 -0.0027859748807 0 -0.20184336603 -0.0017318041064 0 -0.2019610405 -0.0007092471933 0 
-0.20198503137 0.0003074601118 0 -0.20191417634 0.001340724295 0 -0.20173238218 0.002415007446 0 
-0.20140780509 0.0035495872144 0 -0.20089164376 0.004755881615 0 -0.20011687279 0.0060315574519 0 
-0.19899873435 0.0073510776274 0 -0.19743978977 0.0086521338671 0 -0.19534403086 0.0098197953776 0 
-0.19264541566 0.010658650659 0 -0.18936821818 0.010846950114 0 -0.18572364748 0.010104921646 0 
-0.18213790655 0.0080122249201 0 -0.17958505452 0.0017528255703 0 -0.17949135602 0.0029583210126 0 
-0.18507438898 -0.0032508757431 0 -0.18660239875 -0.0018052945379 0 -0.18858169019 -0.0068248813041 0 
-0.19127508998 -0.0084927668795 0 -0.19424779713 -0.0092804720625 0 -0.19706742465 -0.0093675451353 0 
-0.19949880242 -0.0088788159192 0 -0.20147186518 -0.0080478442833 0 -0.20300514996 -0.0070338994265 0 
-0.20415736735 -0.0059423320927 0 -0.20499877632 -0.0048383427784 0 -0.20559535921 -0.003755467711 0 
-0.20600162446 -0.0027052499354 0 -0.20625811815 -0.0016849995591 0 -0.2063909322 -0.00068398303119 0 
-0.20641224086 0.00031477859011 0 -0.20632100105 0.0013250568882 0 -0.20610338449 0.00236261799 0 
-0.20573176444 0.0034374687821 0 -0.20516444743 0.0045506986789 0 -0.20434619486 0.0056890132837 0 
-0.20321075618 0.006817040965 0 -0.20168802142 0.0078678252175 0 -0.19971980155 0.008734437637 0 
-0.19728830457 0.0092562567443 0 -0.19446472824 0.0091986330226 0 -0.19148574769 0.0084361145273 0 
-0.18878567219 0.0067891222425 0 -0.18680463731 0.0017843364039 0 -0.18531943858 0.0032474454492 0 
-0.19386890531 -0.0048606116325 0 -0.19581738114 -0.0017489109887 0 -0.19735114276 -0.0060209264047 0 
-0.19949546456 -0.0072899116203 0 -0.20200516284 -0.0079926345497 0 -0.20447261631 -0.0082014454529 0 
-0.20667031407 -0.0079166535288 0 -0.20851285756 -0.0073010143824 0 -0.20999203622 -0.0064806886949 0 
-0.21113976836 -0.0055478028953 0 -0.21200399101 -0.0045659611933 0 -0.2126339972 -0.0035731419921 0 
-0.2130728215 -0.0025878222659 0 -0.21335367858 -0.0016149648 0 -0.21349847317 -0.00065147975693 0 
-0.21351747215 0.00031229262822 0 -0.21340969205 0.0012836789247 0 -0.21316359937 0.0022714305669 0 
-0.21275603771 0.0032780889887 0 -0.21215285361 0.0042973398231 0 -0.21131035686 0.005309253931 0 
-0.2101790309 0.0062743178569 0 -0.2087109983 0.0071274321526 0 -0.2068746984 0.00777510833 0 
-0.2046789974 0.0080900210887 0 -0.20221014321 0.0079084588215 0 -0.19969661534 0.0072295628488 0 
-0.19754682481 0.0059820297174 0 -0.19600556791 0.0017498809611 0 -0.19405187666 0.0048820697702 0 
-0.20948845148 -0.006608536467 0 -0.21062143147 -0.0014263676712 0 -0.21196770668 -0.0052506830543 0 
-0.21390429139 -0.0062359790318 0 -0.216161713 -0.0068360865116 0 -0.21840915084 -0.0071085146628 0 
-0.22044886649 -0.0069676721469 0 -0.2221994251 -0.0065212771297 0 -0.2236417383 -0.00586679345 0 
-0.22479100525 -0.0050812358968 0 -0.22567877173 -0.0042226370424 0 -0.22634094954 -0.0033294695895 0 
-0.22681070864 -0.0024239718914 0 -0.22711466253 -0.0015164422803 0 -0.2272708565 -0.00060965796001 0 
-0.22728811204 0.00029976235237 0 -0.2271656692 0.0012133263517 0 -0.2268936187 0.0021336621139 0 
-0.22645285726 0.0030575650744 0 -0.22581593692 0.0039736349136 0 -0.22494912148 0.0048584416509 0 
-0.2238162607 0.0056722429581 0 -0.22238582373 0.0063557503745 0 -0.22064289451 0.0068307952024 0 
-0.21860708296 0.0069989091717 0 -0.2163605094 0.0067515154369 0 -0.21410191059 0.0061733447947 0 
-0.21216323972 0.0052052922547 0 -0.21081519127 0.0013818155276 0 -0.20964492857 0.0065620248206 0 
-0.22873522341 -0.0066372496076 0 -0.22834120691 -0.00077782018343 0 -0.22967033088 -0.0042615104467 0 
-0.23159614205 -0.0051353429444 0 -0.23371613026 -0.0056774378754 0 -0.23581141233 -0.0059926109388 0 
-0.23772893846 -0.0059647597373 0 -0.23940122128 -0.005662640091 0 -0.24080729485 -0.005160363391 0 
-0.24195230007 -0.0045200949535 0 -0.24285569787 -0.0037920915056 0 -0.24354249239 -0.0030126173515 0 
-0.24403727055 -0.0022053162102 0 -0.24436061084 -0.0013840394095 0 -0.24452677369 -0.00055618758779 0 
-0.24454273283 0.00027621682966 0 -0.24440780282 0.0011097883107 0 -0.24411414564 0.0019419165328 0 
-0.2436465621 0.0027648764662 0 -0.24298380315 0.003563930979 0 -0.24210077524 0.0043144766241 0 
-0.2409722507 0.004979220219 0 -0.23957870901 0.0055068796501 0 -0.23791526258 0.0058343433775 0 
-0.23600323498 0.0058866855688 0 -0.23391070962 0.0055945585482 0 -0.23179158568 0.0050738565624 0 
-0.22986601293 0.0042217718437 0 -0.22853976488 0.00075563928112 0 -0.22894734144 0.0066518238746 0 
-0.24744863808 -0.0052734375931 0 -0.24589559436 -0.00016074084851 0 -0.24729146063 -0.0031064697541 0 
-0.24925139546 -0.0039763422683 0 -0.25126719475 -0.0045155687258 0 -0.25322809815 -0.0048651630059 0 
-0.25502800941 -0.0049283490516 0 -0.25661477447 -0.00475005107 0 -0.25796923041 -0.0043864413165 0 
-0.259090662 -0.0038866277318 0 -0.25999003649 -0.0032924213447 0 -0.26068380475 -0.0026362019125 0 
-0.26118949056 -0.0019411974354 0 -0.26152232289 -0.0012232088484 0 -0.26169329882 -0.00049301015679 0 
-0.26170796156 0.00024307350395 0 -0.26156583428 0.00097798136994 0 -0.2612605691 0.0017050047172 0 
-0.26078039408 0.0024131366517 0 -0.2601094842 0.0030858633108 0 -0.25922983885 0.0036991944071 0 
-0.25812479854 0.0042199376039 0 -0.2567833364 0.0046054646373 0 -0.25520631671 0.0048059066758 0 
-0.25341317058 0.0047644414008 0 -0.2514564395 0.0044356058352 0 -0.24944275618 0.0039159599692 0 
-0.24748325348 0.0030640726909 0 -0.24608494341 0.00013518956257 0 -0.24764317274 0.0052601578645 0 
-0.2592292428 -0.0025877989829 0 -0.25759890676 0.00028407492209 0 -0.25904744864 -0.0019593599718 0 
-0.26094654202 -0.0028506501112 0 -0.2628158927 -0.0034134371672 0 -0.26461187005 -0.0037855841219 0 
-0.26626443863 -0.0039173956029 0 -0.26773324609 -0.0038411126006 0 -0.26900091767 -0.0035987354349 0 
-0.27006343007 -0.0032282311004 0 -0.27092579007 -0.0027632075362 0 -0.27159821987 -0.0022313396912 0 
-0.27209255099 -0.0016541685909 0 -0.27241966128 -0.0010480002966 0 -0.27258768678 -0.00042539520655 0 
-0.27260094881 0.00020425637194 0 -0.27245905995 0.00083080661716 0 -0.27215710282 0.0014444935368 0 
-0.27168622613 0.0020325675141 0 -0.27103507519 0.0025782017037 0 -0.27019134164 0.0030592761468 0 
-0.26914468408 0.003447489813 0 -0.2678899765 0.0037086002994 0 -0.26643130183 0.003804043401 0 
-0.26478624344 0.0036913009826 0 -0.26299545169 0.0033377099317 0 -0.26112934947 0.0027926811017 0 
-0.25923189521 0.001918076654 0 -0.25778436661 -0.00030891271308 0 -0.25941601396 0.0025795113761 0 
-0.26183018088 -0.00015706666454 0 -0.26116579771 0.0003275439376 0 -0.2625618577 -0.0011520357803 0 
-0.26426872611 -0.0019821515307 0 -0.26593536139 -0.0025348674972 0 -0.26753008366 -0.0028993249871 0 
-0.26900279522 -0.0030657036696 0 -0.27032065392 -0.0030578316655 0 -0.27146750689 -0.0029057876673 0 
-0.27243739367 -0.0026380720083 0 -0.27323162556 -0.0022809419315 0 -0.27385598421 -0.0018572831759 0 
-0.27431812882 -0.0013862160267 0 -0.27462542057 -0.00088345399126 0 -0.27478352189 -0.00036214382271 0 
-0.27479529381 0.0001666789467 0 -0.2746604085 0.00069128535688 0 -0.27437543869 0.0012003090233 0 
-0.27393427491 0.0016804485349 0 -0.27332907915 0.0021156100556 0 -0.27255189419 0.0024862370919 0 
-0.27159672976 0.0027689652052 0 -0.27046221495 0.0029370484408 0 -0.26915428042 0.0029615222011 0 
-0.26768928766 0.0028119010385 0 -0.26610022783 0.0024640255142 0 -0.26443746686 0.0019274329534 0 
-0.26273298264 0.0011129173217 0 -0.26133850217 -0.00035064714029 0 -0.26200464368 0.00014643942995 0 
-0.26099473238 0.00040308543248 0 -0.26157414913 5.0839058531e-05 0 -0.26292037964 -0.00080447306391 0 
-0.26442676783 -0.0014588803751 0 -0.26590433717 -0.0019346646732 0 -0.26731437445 -0.0022557817865 0 
-0.26861813664 -0.002422358375 0 -0.2697892487 -0.0024485327303 0 -0.27081349492 -0.0023537580855 0 
-0.271684587 -0.0021583246998 0 -0.27240210772 -0.0018821060658 0 -0.27296927571 -0.0015435017413 0 
-0.27339100838 -0.0011589042842 0 -0.2736723721 -0.00074272055645 0 -0.27381724119 -0.00030781028909 0 
-0.2738275826 0.00013438661699 0 -0.27370303869 0.00057201756863 0 -0.2734413147 0.00099342712201 0 
-0.27303808928 0.0013856427977 0 -0.27248796821 0.0017339570913 0 -0.27178579569 0.0020216398407 0 
-0.27092814445 0.0022299229167 0 -0.26991540194 0.0023385537788 0 -0.26875376701 0.0023268791847 0 
-0.26745757461 0.0021751262248 0 -0.26605334878 0.0018688895507 0 -0.26457995176 0.0014077816159 0 
-0.26307627559 0.0007678802358 0 -0.2617316246 -7.2044764238e-05 0 -0.2611528635 -0.00041343548219 0 
-0.26074755192 9.5456911367e-05 0 -0.26205900311 -0.00019315707323 0 -0.2634331584 -0.00069307035301 0 
-0.26482647657 -0.0011545502348 0 -0.26617395878 -0.0015219339402 0 -0.26744535565 -0.0017822462833 0 
-0.26861467957 -0.0019291992066 0 -0.26966360211 -0.001967418706 0 -0.27058163285 -0.001907581347 0 
-0.27136397362 -0.0017630449729 0 -0.27201014757 -0.0015482148156 0 -0.27252236009 -0.001277421019 0 
-0.27290418744 -0.00096426770324 0 -0.27315929532 -0.00062142312527 0 -0.27329060435 -0.00026074892958 0 
-0.27329963446 0.00010673471843 0 -0.27318608761 0.00046969245886 0 -0.27294820547 0.00081694388064 0 
-0.27258273959 0.0011365405517 0 -0.27208569646 0.001415584702 0 -0.27145329118 0.00164021214 0 
-0.27068319917 0.0017958080862 0 -0.26977577806 0.0018676732434 0 -0.26873576641 0.0018421650166 0 
-0.26757374406 0.0017083549174 0 -0.26630803943 0.0014614008833 0 -0.26496481895 0.0011073626811 0 
-0.2635743916 0.00065929681296 0 -0.26220181584 0.00017380938516 0 -0.26089036465 -0.00010481955542 0 
-0.26090720296 -8.2585735072e-05 0 -0.2624541223 -0.00029090946191 0 -0.26387491822 -0.00062297197292 0 
-0.26522237062 -0.00094484578585 0 -0.26648837328 -0.0012168036774 0 -0.26766034961 -0.0014187223278 0 
-0.26872578263 -0.0015397149837 0 -0.26967525482 -0.0015785181895 0 -0.27050331235 -0.0015398598043 0 
-0.27120789886 -0.0014318773756 0 -0.27178969979 -0.0012645910028 0 -0.27225106955 -0.0010488360422 0 
-0.27259519696 -0.00079558393918 0 -0.27282524109 -0.00051560439169 0 -0.27294358611 -0.00021939459839 0 
-0.27295145392 8.2955986727e-05 0 -0.27284863591 0.00038109251182 0 -0.27263370156 0.00066480232636 0 
-0.27230396867 0.00092352036154 0 -0.27185603976 0.0011463031406 0 -0.27128657699 0.0013219801476 0 
-0.27059301734 0.0014394967584 0 -0.26977467537 0.0014886048157 0 -0.26883348823 0.0014609436039 0 
-0.26777493954 0.0013515856117 0 -0.26660847664 0.0011616169941 0 -0.26534664631 0.00090172642376 0 
-0.26400202513 0.00059213367058 0 -0.26258274913 0.00027333319304 0 -0.26103562117 7.4131778092e-05 0 
-0.26113495231 -0.00012953576515 0 -0.26273873448 -0.00029376274324 0 -0.26418468356 -0.00054205284687 0 
-0.26550915837 -0.00077626941493 0 -0.26672104001 -0.00097821990494 0 -0.26782074571 -0.0011326610111 0 
-0.2688061893 -0.0012288471917 0 -0.26967558265 -0.0012632630533 0 -0.27042853832 -0.0012373556383 0 
-0.27106624842 -0.0011558090337 0 -0.27159121633 -0.0010254133958 0 -0.27200675011 -0.00085419759853 0 
-0.27231630683 -0.00065081950743 0 -0.27252304554 -0.00042419522651 0 -0.27262926102 -0.00018332195759 0 
-0.27263614535 6.2917584728e-05 0 -0.27254346013 0.00030541745946 0 -0.27234992385 0.00053520285292 0 
-0.27205300331 0.00074322323781 0 -0.27164933085 0.00092043122277 0 -0.2711353302 0.0010580169037 0 
-0.27050751448 0.0011477826629 0 -0.26976335049 0.0011827610433 0 -0.26890155673 0.0011580932187 0 
-0.26792249084 0.0010721725412 0 -0.26682794094 0.00092836597469 0 -0.26562002301 0.00073724548565 0 
-0.26429826021 0.00051415106282 0 -0.26285374165 0.00027788354782 0 -0.26124972105 0.00012189211702 0 
-0.26136097312 -0.00012366141891 0 -0.26297459006 -0.00025849902886 0 -0.26442477107 -0.00045519261039 0 
-0.26572975516 -0.00063339242479 0 -0.26690125465 -0.00078627688345 0 -0.26794630289 -0.00090464705136 0 
-0.26886948943 -0.00097999139689 0 -0.26967462897 -0.0010086054681 0 -0.27036568522 -0.00099046342075 0 
-0.27094689012 -0.00092819618294 0 -0.2714228332 -0.00082637905143 0 -0.27179807425 -0.00069091288606 0 
-0.27207681537 -0.0005285362131 0 -0.27226257324 -0.00034648511792 0 -0.27235779166 -0.00015227800759 0 
-0.27236375213 4.6502056648e-05 0 -0.27228030562 0.00024208356626 0 -0.27210608125 0.00042681518244 0 
-0.27183836699 0.0005931367632 0 -0.27147358656 0.00073371309554 0 -0.27100729942 0.00084168935427 0 
-0.27043491602 0.0009110350511 0 -0.26975172758 0.0009370369371 0 -0.26895347238 0.00091692636488 0 
-0.26803612709 0.00085060071433 0 -0.26699581742 0.00074163789395 0 -0.26582801342 0.00059839681489 0 
-0.26452556252 0.00043016910786 0 -0.26307672262 0.00024425555603 0 -0.26146289706 0.00011677687871 0 
-0.26156419516 -0.00010464301886 0 -0.26317736506 -0.00021545193158 0 -0.26462134719 -0.00037362682633 0 
-0.26590690017 -0.00051293242723 0 -0.2670455575 -0.00063088681782 0 -0.26804748178 -0.00072235707194 0 
-0.26892128587 -0.00078116811346 0 -0.26967471838 -0.00080420129234 0 -0.27031496167 -0.00079093460226 0 
-0.27084898949 -0.00074287282769 0 -0.27128329873 -0.00066314596916 0 -0.27162382007 -0.0005561056314 0 
-0.2718757093 -0.00042696585297 0 -0.27204298973 -0.00028152071172 0 -0.2721285522 -0.00012593372958 0 
-0.272133708 3.3473799704e-05 0 -0.27205839753 0.00019022262131 0 -0.27190107107 0.0003379410482 0 
-0.27165880799 0.00047043262748 0 -0.27132740617 0.00058182852808 0 -0.27090159059 0.00066682585748 0 
-0.27037537098 0.00072097295197 0 -0.26974210143 0.00074103218503 0 -0.2689948678 0.00072538945824 0 
-0.26812630892 0.00067446235335 0 -0.26712867618 0.00059126113774 0 -0.26599338651 0.00048182721366 0 
-0.26471015811 0.00035138108069 0 -0.26326739788 0.00020278063312 0 -0.26165404916 9.8487405921e-05 0 
-0.26173841953 -8.5505125753e-05 0 -0.26334956288 -0.00017592850782 0 -0.26478394866 -0.00030318435165 0 
-0.26605084538 -0.00041356415022 0 -0.26716178656 -0.00050588382874 0 -0.2681286931 -0.0005772470613 0 
-0.26896262169 -0.00062326423358 0 -0.26967400312 -0.00064152438426 0 -0.27027258277 -0.00063144468004 0 
-0.27076742053 -0.00059394544223 0 -0.27116671205 -0.00053123768885 0 -0.27147775888 -0.00044657263788 0 
-0.27170661092 -0.00034398934804 0 -0.27185800672 -0.00022809368966 0 -0.27193513513 -0.00010387298244 0 
-0.27193957567 2.3493483241e-05 0 -0.27187126875 0.00014869611186 0 -0.27172851562 0.00026651847293 0 
-0.27150800824 0.00037194727338 0 -0.27120488882 0.00046031997772 0 -0.27081298828 0.00052752945339 0 
-0.27032500505 0.00057024694979 0 -0.26973259449 0.0005861769896 0 -0.26902666688 0.00057431188179 0 
-0.26819741726 0.00053514924366 0 -0.26723438501 0.00047100646771 0 -0.26612648368 0.00038615739322 0 
-0.26486167312 0.00028358091367 0 -0.26342839003 0.00016475310258 0 -0.26181709766 8.0048652308e-05 0 
-0.26188540459 -6.923435285e-05 0 -0.26349440217 -0.00014287341037 0 -0.26491892338 -0.00024528618087 0 
-0.26616877317 -0.00033347686986 0 -0.2672560811 -0.00040655993507 0 -0.26819393039 -0.00046279263915 0 
-0.26899516582 -0.0004990127054 0 -0.26967206597 -0.00051340874052 0 -0.27023628354 -0.00050549005391 0 
-0.27069854736 -0.00047588275629 0 -0.271068573 -0.00042621608009 0 -0.2713547647 -0.00035896810004 0 
-0.27156409621 -0.00027729041176 0 -0.27170193195 -0.00018483969325 0 -0.2717718482 -8.5623963969e-05 0 
-0.2717756629 1.6158277504e-05 0 -0.27171331644 0.00011620300211 0 -0.27158293128 0.00021028431365 0 
-0.27138078213 0.00029437363264 0 -0.27110144496 0.0003647710837 0 -0.27073782682 0.00041827268433 0 
-0.27028152347 0.00045233991113 0 -0.26972270012 0.0004652767966 0 -0.26905059814 0.00045638714801 0 
-0.26825347543 0.00042609122465 0 -0.26731905341 0.0003761202679 0 -0.26623439789 0.00030953719397 0 
-0.26498642564 0.00022816183628 0 -0.26356288791 0.00013310335635 0 -0.26195377111 6.4440784627e-05 0 
-0.26200908422 -5.6128519645e-05 0 -0.26361596584 -0.00011641727178 0 -0.26503127813 -0.00019923999207 0 
-0.26626601815 -0.0002703279315 0 -0.2673330605 -0.00032884674147 0 -0.26824653149 -0.00037365648313 0 
-0.2690205574 -0.00040241729585 0 -0.26966881752 -0.00041376959416 0 -0.27020448446 -0.00040734646609 0 
-0.27063962817 -0.0003836262913 0 -0.2709851265 -0.00034386609332 0 -0.27125045657 -0.00029000165523 0 
-0.2714433074 -0.00022452334815 0 -0.27156960964 -0.00015034827811 0 -0.27163341641 -7.0696150942e-05 0 
-0.27163669467 1.1042563528e-05 0 -0.2715793848 9.1393230832e-05 0 -0.27145940065 0.00016694507212 0 
-0.2712726891 0.00023446198611 0 -0.27101328969 0.00029099380481 0 -0.2706733048 0.00033400949906 0 
-0.27024328709 0.00036152580287 0 -0.26971229911 0.00037223272375 0 -0.26906818151 0.00036559515866 0 
-0.26829776168 0.00034192201565 0 -0.26738730073 0.00030250402051 0 -0.26632258296 0.00024959683651 0 
-0.26508951187 0.00018441145949 0 -0.26367503405 0.00010795051639 0 -0.26206806302 5.1955059462e-05 0 
-0.26211369038 -4.5891087211e-05 0 -0.26371842623 -9.5862109447e-05 0 -0.26512548327 -0.00016357025015 0 
-0.26634690166 -0.00022158971115 0 -0.26739645004 -0.0002691069094 0 -0.26828914881 -0.00030531475204 0 
-0.26904013753 -0.00032842904329 0 -0.26966434717 -0.0003374175576 0 -0.27017599344 -0.00033202552004 0 
-0.27058830857 -0.00031265657162 0 -0.27091315389 -0.00028032530099 0 -0.27116084099 -0.00023658690043 0 
-0.27133974433 -0.00018344474665 0 -0.27145633101 -0.00012325166608 0 -0.27151492238 -5.8610781707e-05 0 
-0.271517694 7.7304275692e-06 0 -0.27146461606 7.2958187957e-05 0 -0.2713534236 0.00013430988474 0 
-0.27117976546 0.00018916926638 0 -0.27093711495 0.00023515794601 0 -0.27061697841 0.00027024076553 0 
-0.27020904422 0.00029282510513 0 -0.26970142126 0.00030185389915 0 -0.2690808177 0.0002968776389 0 
-0.26833292842 0.0002781029616 0 -0.26744279265 0.00024650336127 0 -0.26639527082 0.00020379247144 0 
-0.26517528296 0.00015084187908 0 -0.26376897097 8.8589185907e-05 0 -0.26216414571 4.2290153942e-05 0 
-0.26220321655 -3.8105652493e-05 0 -0.26380580664 -8.0307938333e-05 0 -0.2652054131 -0.00013661872072 0 
-0.26641499996 -0.00018481098232 0 -0.26744925976 -0.00022410450038 0 -0.26832392812 -0.00025388936047 0 
-0.2690550983 -0.00027276354376 0 -0.26965865493 -0.00027992980904 0 -0.2701497674 -0.00027522470918 0 
-0.27054259181 -0.00025901442859 0 -0.27084982395 -0.00023215418332 0 -0.27108246088 -0.00019593269099 0 
-0.27124947309 -0.00015199909103 0 -0.27135774493 -0.00010228437895 0 -0.27141189575 -4.8921774578e-05 0 
-0.27141422033 5.8378332142e-06 0 -0.27136471868 5.9691563365e-05 0 -0.2712610364 0.00011037711374 0 
-0.27109843493 0.00015575073485 0 -0.27087005973 0.00019386153144 0 -0.2705668211 0.00022303535661 0 
-0.27017775178 0.00024195371952 0 -0.26969003677 0.00024972727988 0 -0.26908954978 0.00024595254217 0 
-0.26836103201 0.00023075316858 0 -0.26748856902 0.00020487653092 0 -0.26645606756 0.00016966604744 0 
-0.2652476728 0.00012578936003 0 -0.26384872198 7.4115792813e-05 0 -0.26224604249 3.5026805563e-05 0 
-0.26228138804 -3.2351981645e-05 0 -0.26388174295 -6.8863373599e-05 0 -0.26527449489 -0.00011679807358 0 
-0.26647344232 -0.00015775972861 0 -0.26749402285 -0.00019101097132 0 -0.26835268736 -0.00021606698283 0 
-0.26906639338 -0.00023179211712 0 -0.26965180039 -0.00023755877919 0 -0.27012494206 -0.00023327580129 0 
-0.27050080895 -0.00021929312788 0 -0.2707927227 -0.00019636223442 0 -0.27101230621 -0.00016558762582 0 
-0.27116900682 -0.00012836519454 0 -0.2712700665 -8.6317275418e-05 0 -0.27132037282 -4.1227751353e-05 0 
-0.27132233977 5.0255548558e-06 0 -0.27127593756 5.0524042308e-05 0 -0.27117869258 9.3381189799e-05 0 
-0.27102571726 0.00013180465612 0 -0.27080971003 0.00016415648861 0 -0.27052116394 0.00018902098236 0 
-0.2701484561 0.00020526988374 0 -0.26967814565 0.00021212419961 0 -0.26909533143 0.00020920364477 0 
-0.26838389039 0.000196566456 0 -0.26752707362 0.00017479824601 0 -0.26650798321 0.00014498646487 0 
-0.26531007886 0.00010766680498 0 -0.26391786337 6.3638719439e-05 0 -0.26231741905 2.9743630876e-05 0 
-0.2623513937 -2.8244881833e-05 0 -0.26394945383 -6.0723712522e-05 0 -0.26533573866 -0.00010269464838 0 
-0.26652485132 -0.0001384873176 0 -0.26753282547 -0.00016740566934 0 -0.26837691665 -0.00018904919853 0 
-0.26907473803 -0.00020246917848 0 -0.26964378357 -0.00020716135623 0 -0.27010083199 -0.00020309287356 0 
-0.27046149969 -0.00019061139028 0 -0.27073979378 -0.00017040400417 0 -0.27094778419 -0.00014345152886 0 
-0.27109533548 -0.00011097338574 0 -0.27119004726 -7.4371688243e-05 0 -0.27123692632 -3.5177276004e-05 0 
-0.27123856544 5.0049434321e-06 0 -0.27119490504 4.4537879148e-05 0 -0.27110341191 8.1809928815e-05 0 
-0.27095893025 0.00011528345931 0 -0.27075392008 0.00014354403538 0 -0.27047845721 0.00016535648319 0 
-0.27012041211 0.0001797209552 0 -0.26966574788 0.00018592817651 0 -0.26909887791 0.0001836057927 0 
-0.26840290427 0.00017275953724 0 -0.26756039262 0.00015385852021 0 -0.26655364037 0.00012781227997 0 
-0.26536542177 9.5065501228e-05 0 -0.26397958398 5.6355740526e-05 0 -0.26238146424 2.6055746275e-05 0 
-0.26241612434 -2.5449551686e-05 0 -0.26401171088 -5.5198495829e-05 0 -0.26539176702 -9.3103568361e-05 0 
-0.26657143235 -0.00012534660345 0 -0.26756748557 -0.00015126237122 0 -0.26839783788 -0.00017051049508 0 
-0.2690808177 -0.00018227344844 0 -0.26963463426 -0.00018613769498 0 -0.27007678151 -0.00018211943097 0 
-0.27042347193 -0.00017057471268 0 -0.27068924904 -0.00015215555322 0 -0.27088662982 -0.00012776438962 0 
-0.27102589607 -9.8502503533e-05 0 -0.2711148262 -6.5619897214e-05 0 -0.27115863562 -3.0469307603e-05 0 
-0.27116000652 5.5385885389e-06 0 -0.27111884952 4.0967479435e-05 0 -0.27103254199 7.4401483289e-05 0 
-0.27089583874 0.00010448242392 0 -0.27070090175 0.00012995052384 0 -0.27043744922 0.00014969197218 0 
-0.27009293437 0.00016278907424 0 -0.26965278387 0.00016857191804 0 -0.26910075545 0.00016666442389 0 
-0.26841932535 0.00015702818928 0 -0.26759028435 0.00014004753029 0 -0.26659527421 0.00011650844681 0 
-0.26541629434 8.6789128545e-05 0 -0.26403662562 5.1581017033e-05 0 -0.26244100928 2.3629807401e-05 0 
-0.26247802377 -2.3686068744e-05 0 -0.2640709579 -5.1716509915e-05 0 -0.26544478536 -8.7031468865e-05 0 
-0.26661515236 -0.00011698376329 0 -0.26759955287 -0.00014092316269 0 -0.26841652393 -0.00015855493257 0 
-0.26908513904 -0.00016915331071 0 -0.26962432265 -0.0001723729074 0 -0.2700521946 -0.00016827357467 0 
-0.27038559318 -0.00015722903481 0 -0.27063956857 -0.00013987884449 0 -0.27082699537 -0.00011708149395 0 
-0.27095848322 -8.9864253823e-05 0 -0.27104201913 -5.9376743593e-05 0 -0.27108299732 -2.6850611903e-05 0 
-0.27108410001 6.4376099544e-06 0 -0.27104532719 3.9190770622e-05 0 -0.27096393704 7.0128269726e-05 0 
-0.27083453536 9.8014104879e-05 0 -0.27064910531 0.00012169091497 0 -0.27039703727 0.00014012145402 0 
-0.27006542683 0.00015243499365 0 -0.26963916421 0.00015797762899 0 -0.26910147071 0.00015635944146 0 
-0.2684341073 0.00014750247647 0 -0.26761820912 0.00013172808394 0 -0.26663467288 0.00010973690223 0 
-0.26546487212 8.1855600001e-05 0 -0.26409137249 4.8749541747e-05 0 -0.26249840856 2.2188251023e-05 0 
-0.26253926754 -2.2728059776e-05 0 -0.26412931085 -4.9819762353e-05 0 -0.265496701 -8.3683196863e-05 0 
-0.26665765047 -0.00011231560347 0 -0.26763027906 -0.00013506361574 0 -0.26843380928 -0.00015166960657 0 
-0.26908811927 -0.00016147227143 0 -0.26961278915 -0.00016417914594 0 -0.2700265944 -0.00015989171516 0 
-0.27034699917 -0.00014900999668 0 -0.27058944106 -0.00013217920787 0 -0.27076724172 -0.00011024037667 0 
-0.27089124918 -8.4180042904e-05 0 -0.27096962929 -5.5086045904e-05 0 -0.27100789547 -2.4111388484e-05 0 
-0.27100878954 7.5569264482e-06 0 -0.2709723115 3.8715210394e-05 0 -0.27089565992 6.8173263571e-05 0 
-0.27077335119 9.4774615718e-05 0 -0.27059715986 0.00011742531933 0 -0.27035626769 0.0001351309038 0 
-0.27003732324 0.00014704055502 0 -0.26962482929 0.00015249759599 0 -0.2691013515 0.0001510890288 0 
-0.26844808459 0.00014269867097 0 -0.26764538884 0.00012759942911 0 -0.2666734755 0.00010643278074 0 
-0.26551300287 7.9482939327e-05 0 -0.26414585114 4.7410649131e-05 0 -0.26255577803 2.150772707e-05 0 
-0.2626016736 -2.2398373403e-05 0 -0.26418855786 -4.9152331485e-05 0 -0.26554918289 -8.2441074483e-05 0 
-0.26670029759 -0.00011049954628 0 -0.26766070724 -0.00013265279995 0 -0.26845043898 -0.00014867598657 0 
-0.26909005642 -0.00015795395302 0 -0.26959991455 -0.00016023784701 0 -0.26999953389 -0.00015567167429 0 
-0.27030682564 -0.00014469028974 0 -0.27053779364 -0.00012795969087 0 -0.27070602775 -0.00010632404155 0 
-0.27082264423 -8.0754165538e-05 0 -0.27089595795 -5.2304458222e-05 0 -0.27093157172 -2.2080053895e-05 0 
-0.27093228698 8.7894541139e-06 0 -0.27089807391 3.9161004679e-05 0 -0.27082616091 6.7902481533e-05 0 
-0.27071091533 9.3906033726e-05 0 -0.27054399252 0.00011611243826 0 -0.27031427622 0.00013354458497 0 
-0.27000811696 0.0001453505829 0 -0.2696095705 0.00015085529594 0 -0.26910066605 0.00014961352281 0 
-0.26846188307 0.00014146947069 0 -0.26767286658 0.00012665620307 0 -0.26671299338 0.00010577343346 0 
-0.26556226611 7.9067795014e-05 0 -0.2642018497 4.721645746e-05 0 -0.26261490583 2.1414572984e-05 0 
-0.26266691089 -2.2563461243e-05 0 -0.26425033808 -4.9447291531e-05 0 -0.26560369134 -8.2841324911e-05 0 
-0.26674434543 -0.00011090103362 0 -0.26769179106 -0.00013291205687 0 -0.26846691966 -0.00014868125436 0 
-0.26909115911 -0.00015762825205 0 -0.26958563924 -0.00015954350238 0 -0.26997053623 -0.00015461705334 0 
-0.27026438713 -0.00014332763385 0 -0.27048361301 -0.00012637517648 0 -0.27064213157 -0.00010462335922 0 
-0.27075126767 -7.9046018072e-05 0 -0.27081951499 -5.0684531743e-05 0 -0.27085250616 -2.0617751943e-05 0 
-0.2708530724 1.0059918168e-05 0 -0.27082121372 4.0243434341e-05 0 -0.27075406909 6.8836401624e-05 0 
-0.27064603567 9.475787374e-05 0 -0.2704885304 0.00011696265574 0 -0.27027028799 0.00013447199308 0 
-0.26997736096 0.00014641611779 0 -0.26959329844 0.00015208787227 0 -0.26909959316 0.00015100036399 0 
-0.26847603917 0.0001429541735 0 -0.26770144701 0.00012814626098 0 -0.26675441861 0.00010714504606 0 
-0.26561409235 8.0161364167e-05 0 -0.2642608881 4.7908459237e-05 0 -0.26267743111 2.1779007511e-05 0 
-0.26273655891 -2.3127444365e-05 0 -0.26431614161 -5.0513594033e-05 0 -0.26566153765 -8.4550825704e-05 0 
-0.26679080725 -0.00011306144734 0 -0.26772430539 -0.00013527506962 0 -0.26848381758 -0.00015103172336 0 
-0.26909160614 -0.00015978020383 0 -0.2695697844 -0.00016135037004 0 -0.26993918419 -0.00015598446771 0 
-0.27021896839 -0.0001442150824 0 -0.27042600513 -0.0001267882617 0 -0.2705745399 -0.0001046006073 0 
-0.27067601681 -7.864300278e-05 0 -0.27073907852 -4.9958147429e-05 0 -0.27076938748 -1.9613013137e-05 0 
-0.27076983452 1.1318733414e-05 0 -0.27074041963 4.1755487473e-05 0 -0.27067822218 7.0622038038e-05 0 
-0.27057757974 9.6849777037e-05 0 -0.27042987943 0.00011939305114 0 -0.27022361755 0.00013725712779 0 
-0.26994454861 0.00014954066137 0 -0.26957580447 0.00015549194359 0 -0.26909822226 0.00015457202971 0 
-0.26849094033 0.00014653125254 0 -0.26773187518 0.00013152987231 0 -0.26679873466 0.00011010992603 0 
-0.26566970348 8.2445541921e-05 0 -0.26432439685 4.9304093409e-05 0 -0.26274484396 2.2509049813e-05 0 
-0.2628121078 -2.4026579922e-05 0 -0.26438733935 -5.2224044339e-05 0 -0.26572394371 -8.7345753855e-05 0 
-0.26684075594 -0.00011666885257 0 -0.26775896549 -0.00013935130846 0 -0.26850143075 -0.00015527034702 0 
-0.26909148693 -0.00016390331439 0 -0.26955214143 -0.0001651236671 0 -0.26990503073 -0.00015923508909 0 
-0.27016994357 -0.00014683535846 0 -0.27036419511 -0.00012872858497 0 -0.27050226927 -0.0001058557682 0 
-0.27059581876 -7.9235389421e-05 0 -0.27065354586 -4.9921090977e-05 0 -0.27068114281 -1.8976794308e-05 0 
-0.27068147063 1.25362576e-05 0 -0.27065455914 4.355164856e-05 0 -0.27059754729 7.3006944149e-05 0 
-0.27050462365 9.9836965092e-05 0 -0.27036717534 0.00012298580259 0 -0.27017354965 0.00014143197041 0 
-0.26990920305 0.00015423083096 0 -0.26955679059 0.00016057392349 0 -0.26909661293 0.00015985847858 0 
-0.26850697398 0.0001517750643 0 -0.26776483655 0.00013644252613 0 -0.26684689522 0.00011437662761 0 
-0.2657302916 8.571123908e-05 0 -0.26439374685 5.128452176e-05 0 -0.2628184855 2.3544864234e-05 0 
-0.26289498806 -2.5224533601e-05 0 -0.26446536183 -5.450520257e-05 0 -0.26579216123 -9.1093519586e-05 0 
-0.26689505577 -0.00012153280841 0 -0.26779636741 -0.00014489440946 0 -0.26852011681 -0.00016109962598 0 
-0.26909080148 -0.00016965846589 0 -0.26953241229 -0.00017049653979 0 -0.26986756921 -0.00016399157175 0 
-0.27011662722 -0.0001508200221 0 -0.2702973187 -0.00013185637363 0 -0.2704244256 -0.00010809622472 0 
-0.27050971985 -8.0593679741e-05 0 -0.27056190372 -5.0419188483e-05 0 -0.27058669925 -1.8638020265e-05 0 
-0.27058696747 1.3697610484e-05 0 -0.27056267858 4.5533288358e-05 0 -0.27051103115 7.5815878517e-05 0 
-0.27042624354 0.00010347917123 0 -0.27029961348 0.00012745097047 0 -0.27011936903 0.00014667490905 0 
-0.26987075806 0.00016015257279 0 -0.26953598857 0.00016700616106 0 -0.26909470558 0.00016655538639 0 
-0.26852434874 0.00015841813001 0 -0.26780086756 0.0001426628296 0 -0.26689976454 0.00011977434042 0 
-0.265797019 8.983999578e-05 0 -0.26447024941 5.3784311604e-05 0 -0.26289990544 2.4853921786e-05 0 
-0.26298683882 -2.6708836231e-05 0 -0.26455166936 -5.7329689298e-05 0 -0.26586741209 -9.5738818345e-05 0 
-0.26695466042 -0.00012756432989 0 -0.26783710718 -0.00015177635942 0 -0.26854005456 -0.00016835065617 0 
-0.26908940077 -0.0001768390066 0 -0.26951029897 -0.00017723292694 0 -0.26982623339 -0.00017000081425 0 
-0.27005827427 -0.00015591400734 0 -0.27022457123 -0.0001359305752 0 -0.27034014463 -0.00011111031927 0 
-0.27041676641 -8.2548802311e-05 0 -0.27046319842 -5.1336177421e-05 0 -0.27048510313 -1.8539685698e-05 0 
-0.27048531175 1.4798138182e-05 0 -0.27046379447 4.7635898227e-05 0 -0.27041777968 7.893035945e-05 0 
-0.27034151554 0.00010761357407 0 -0.27022629976 0.00013259408297 0 -0.27006036043 0.00015277460625 0 
-0.26982864738 0.00016709321062 0 -0.26951301098 0.00017458932416 0 -0.269092381 0.00017448874132 0 
-0.26854327321 0.00016631968901 0 -0.26784050465 0.00015008613991 0 -0.26695823669 0.00012623253861 0 
-0.26587107778 9.4789720606e-05 0 -0.26455536485 5.6783606851e-05 0 -0.26299056411 2.6427376724e-05 0 
-0.26308941841 -2.8488802855e-05 0 -0.26464790106 -6.0711419792e-05 0 -0.2659510076 -0.00010129423754 0 
-0.26702058315 -0.00013476169261 0 -0.26788175106 -0.00015996793809 0 -0.26856148243 -0.00017695847782 0 
-0.26908716559 -0.0001853422873 0 -0.26948529482 -0.00018519653531 0 -0.26978036761 -0.00017710227985 0 
-0.26999410987 -0.00016194520867 0 -0.27014511824 -0.00014078163076 0 -0.27024847269 -0.00011474458734 0 
-0.27031609416 -8.4975166828e-05 0 -0.27035653591 -5.2583283832e-05 0 -0.27037546039 -1.8635497327e-05 0 
-0.2703756094 1.5839555999e-05 0 -0.27035698295 4.9818172556e-05 0 -0.27031683922 8.2271188148e-05 0 
-0.27024951577 0.00011213152175 0 -0.27014639974 0.00013828829105 0 -0.26999565959 0.00015959913435 0 
-0.26978215575 0.00017492940242 0 -0.26948729157 0.0001832209382 0 -0.26908937097 0.00018358590023 0 
-0.26856386662 0.00017544069851 0 -0.26788428426 0.00015870478819 0 -0.26702323556 0.00013376647257 0 
-0.26595374942 0.00010058520274 0 -0.26465067267 6.0303271312e-05 0 -0.26309219003 2.8277927413e-05 0 
-0.2632047832 -3.0595321732e-05 0 -0.26475593448 -6.4704254328e-05 0 -0.26604449749 -0.00010783637117 0 
-0.26709380746 -0.00014320235641 0 -0.26793080568 -0.00016952559236 0 -0.26858437061 -0.00018694376922 0 
-0.26908370852 -0.00019514661108 0 -0.269456774 -0.00019432495174 0 -0.26972913742 -0.00018520100275 0 
-0.26992323995 -0.0001687984186 0 -0.27005794644 -0.00014628791541 0 -0.2701485157 -0.00011888424342 0 
-0.27020671964 -8.7776075816e-05 0 -0.27024102211 -5.4090302001e-05 0 -0.27025687695 -1.8886979888e-05 0 
-0.27025699615 1.682670154e-05 0 -0.27024134994 5.2052735555e-05 0 -0.27020725608 8.5783540271e-05 0 
-0.27014926076 0.00011695869762 0 -0.27005890012 0.00014445057604 0 -0.26992437243 0.00016706957831 0 
-0.26973044872 0.00018359978276 0 -0.26945826411 0.00019286910538 0 -0.26908534765 0.00019385230553 0 
-0.26858612895 0.00018582527991 0 -0.26793265343 0.00016859476455 0 -0.26709574461 0.00014246901264 0 
-0.26604652405 0.00010731404473 0 -0.26475796103 6.4403444412e-05 0 -0.26320680976 3.0439548937e-05 0 
-0.26333537698 -3.3083000744e-05 0 -0.26487791538 -6.9404835813e-05 0 -0.26614961028 -0.00011550800264 0 
-0.26717546582 -0.00015304189583 0 -0.26798477769 -0.00018058466958 0 -0.26860871911 -0.00019839961897 0 
-0.26907855272 -0.00020629275241 0 -0.26942393184 -0.00020460742235 0 -0.26967155933 -0.00019424389757 0 
-0.26984453201 -0.0001763922628 0 -0.26996201277 -0.00015235501633 0 -0.27003923059 -0.00012343606795 0 
-0.27008771896 -9.0871035354e-05 0 -0.27011570334 -5.579786739e-05 0 -0.27012845874 -1.9260931367e-05 0 
-0.27012854815 1.7764803488e-05 0 -0.27011594176 5.4318228649e-05 0 -0.27008810639 8.9424087491e-05 0 
-0.27003976703 0.00012203775259 0 -0.26996269822 0.00015102075122 0 -0.26984536648 0.00017513676721 0 
-0.26967251301 0.00019308108313 0 -0.26942500472 0.0002035501675 0 -0.26907974482 0.0002053528151 0 
-0.26861000061 0.00019758737471 0 -0.26798611879 0.00017990868946 0 -0.26717689633 0.00015250936849 0 
-0.26615104079 0.00011512880883 0 -0.2648794055 6.9186367909e-05 0 -0.26333683729 3.2969619497e-05 0 
-0.26348420978 -3.6035773519e-05 0 -0.26501658559 -7.4961113569e-05 0 -0.26626831293 -0.00012452813098 0 
-0.26726680994 -0.00016452031559 0 -0.26804411411 -0.00019335836987 0 -0.2686342597 -0.00021148221276 0 
-0.26907092333 -0.00021886726608 0 -0.26938566566 -0.00021606347582 0 -0.26960638165 -0.00020419665088 0 
-0.26975679398 -0.00018465668836 0 -0.26985615492 -0.0001588959276 0 -0.26991951466 -0.00012831226923 0 
-0.26995804906 -9.418404079e-05 0 -0.26997968554 -5.765034075e-05 0 -0.2699893117 -1.9727052859e-05 0 
-0.2699893713 1.8657088731e-05 0 -0.26997983456 5.659216913e-05 0 -0.26995834708 9.3149246823e-05 0 
-0.26991990209 0.00012731224706 0 -0.26985663176 0.00015794168576 0 -0.26975739002 0.00018375879154 0 
-0.26960706711 0.00020336503803 0 -0.26938641071 0.00021530734375 0 -0.26907175779 0.00021819504036 0 
-0.26863515377 0.00021090131486 0 -0.26804506779 0.00019287492614 0 -0.26726782322 0.00016413947742 0 
-0.26626932621 0.00012425701425 0 -0.26501762867 7.4804855103e-05 0 -0.26348525286 3.5954511986e-05 0 
-0.26365506649 -3.9577735151e-05 0 -0.26517516375 -8.1588819739e-05 0 -0.26640307903 -0.00013521213259 0 
-0.26736918092 -0.00017797695182 0 -0.26810911298 -0.00020814113668 0 -0.26866039634 -0.0002264015493 0 
-0.26905968785 -0.00023298319138 0 -0.26934051514 -0.00022871771944 0 -0.26953208447 -0.00021501662559 0 
-0.26965850592 -0.00019350751245 0 -0.26973897219 -0.00016580896045 0 -0.26978814602 -0.00013341312297 0 
-0.26981672645 -9.7631171229e-05 0 -0.26983198524 -5.9588426666e-05 0 -0.26983857155 -2.0255467462e-05 0 
-0.26983860135 1.9502409486e-05 0 -0.26983210444 5.884366692e-05 0 -0.26981690526 9.6902862424e-05 0 
-0.26978841424 0.00013270927593 0 -0.26973930001 0.0001651373459 0 -0.26965889335 0.00019287555187 0 
-0.2695325315 0.00021443128935 0 -0.26934105158 0.00022818552679 0 -0.2690602541 0.00023251005041 0 
-0.26866102219 0.00022599268414 0 -0.26810976863 0.00020780086925 0 -0.26736986637 0.00017770892009 0 
-0.26640379429 0.00013502137153 0 -0.2651759088 8.1478821812e-05 0 -0.26365578175 3.9520422433e-05 0 
-0.2638528645 -4.3891323003e-05 0 -0.26535791159 -8.9598761406e-05 0 -0.26655676961 -0.00014800403733 0 
-0.26748391986 -0.0001938718633 0 -0.26817974448 -0.00022530985007 0 -0.26868614554 -0.00024340239179 0 
-0.26904311776 -0.00024874648079 0 -0.26928654313 -0.0002425590792 0 -0.26944667101 -0.00022661157709 0 
-0.2695478797 -0.00020280898025 0 -0.26960897446 -0.00017294676218 0 -0.26964393258 -0.00013860301988 0 
-0.26966264844 -0.00010110378207 0 -0.26967179775 -6.1539212766e-05 0 -0.26967540383 -2.0813353331e-05 0 
-0.26967543364 2.0292127374e-05 0 -0.26967185736 6.1023729359e-05 0 -0.26966276765 0.0001005996819 0 
-0.26964411139 0.00013811586541 0 -0.26960921288 0.00017248190125 0 -0.26954814792 0.00020237156423 0 
-0.26944699883 0.00022620643722 0 -0.26928690076 0.00024219071202 0 -0.26904350519 0.00024841897539 0 
-0.26868656278 0.00024311938614 0 -0.26818022132 0.00022507432732 0 -0.2674843967 0.00019368635549 0 
-0.26655724645 0.00014787203691 0 -0.26535838842 8.9522618509e-05 0 -0.26385337114 4.3851578084e-05 0 
-0.26408413053 -4.9249869335e-05 0 -0.26557016373 -9.9441982456e-05 0 -0.26673290133 -0.00016352458624 0 
-0.26761245728 -0.0002128083288 0 -0.26825559139 -0.00024530797964 0 -0.26870965958 -0.00026271521347 0 
-0.26901879907 -0.00026618680567 0 -0.26922112703 -0.0002574652317 0 -0.2693477571 -0.00023876788327 0 
-0.26942285895 -0.00021231154096 0 -0.2694644928 -0.00018006590835 0 -0.26948553324 -0.00014367239783 0 
-0.26949486136 -0.00010444205691 0 -0.26949825883 -6.3400613726e-05 0 -0.2694991529 -2.1359699531e-05 0 
-0.2694991827 2.1005223971e-05 0 -0.26949831843 6.3050043536e-05 0 -0.26949495077 0.00010409922834 0 
-0.26948565245 0.00014334109437 0 -0.26946464181 0.00017974975344 0 -0.26942303777 0.00021201405616 0 
-0.26934796572 0.00023849234276 0 -0.26922136545 0.00025721470593 0 -0.26901906729 0.00026596407406 0 
-0.2687099576 0.00026252274984 0 -0.26825588942 0.00024514779216 0 -0.2676127851 0.00021268217824 0 
-0.26673319936 0.00016343484458 0 -0.26557049155 9.939019219e-05 0 -0.26408445835 4.9222788221e-05 0 
-0.26435777545 -5.6111162849e-05 0 -0.26581910253 -0.00011181851733 0 -0.26693555713 -0.00018267511041 0 
-0.26775568724 -0.00023557757959 0 -0.26833498478 -0.00026861447259 0 -0.2687279284 -0.00028446735814 0 
-0.26898309588 -0.00028513910365 0 -0.26914075017 -0.000273078389 0 -0.2692323029 -0.00025103564258 0 
-0.26928111911 -0.00022155359329 0 -0.26930379868 -0.0001867476094 0 -0.2693117559 -0.00014827706036 0 
-0.26931253076 -0.00010739226855 0 -0.26931083202 -6.5015854489e-05 0 -0.26930934191 -2.1836698579e-05 0 
-0.26930937171 2.160009717e-05 0 -0.26931086183 6.4781859692e-05 0 -0.26931259036 0.00010716343968 0 
-0.2693118453 0.00014805591491 0 -0.26930388808 0.00018653659208 0 -0.26928123832 0.00022135504696 0 
-0.26923242211 0.00025085173547 0 -0.26914089918 0.00027291118749 0 -0.2689832747 0.00028499044129 0 
-0.26872810721 0.00028433889383 0 -0.2683351934 0.00026850754512 0 -0.26775589585 0.00023549338221 0 
-0.26693576574 0.00018261522928 0 -0.26581931114 0.00011178394925 0 -0.26435798407 5.609305299e-05 0 
-0.26468613744 -6.5354419348e-05 0 -0.2661138773 -0.00012790497567 0 -0.26716896892 -0.00020682334434 0 
-0.26791316271 -0.00026319531025 0 -0.26841431856 -0.00029561380506 0 -0.26873573661 -0.00030843834975 0 
-0.2689307034 -0.00030494568637 0 -0.26904088259 -0.00028849940281 0 -0.26909691095 -0.00026244152104 0 
-0.26912030578 -0.00022960685601 0 -0.26912552118 -0.00019218213856 0 -0.26912197471 -0.00015176576562 0 
-0.2691155076 -0.00010948071576 0 -0.26910963655 -6.6096494265e-05 0 -0.26910626888 -2.2143689421e-05 0 
-0.26910626888 2.1989000743e-05 0 -0.26910963655 6.5943509981e-05 0 -0.26911553741 0.0001093311148 0 
-0.26912203431 0.00015162119234 0 -0.26912558079 0.00019204418641 0 -0.26912036538 0.00022947703837 0 
-0.26909700036 0.00026232129312 0 -0.26904097199 0.00028839008883 0 -0.26893082261 0.00030484850868 0 
-0.26873585582 0.00030835435609 0 -0.26841443777 0.00029554389766 0 -0.26791328192 0.00026314027491 0 
-0.26716911793 0.00020678419969 0 -0.26611399651 0.00012788237655 0 -0.26468625665 6.5342559537e-05 0 
-0.26508715749 -7.8313358244e-05 0 -0.26646655798 -0.00014912693587 0 -0.26743677258 -0.00023727418738 0 
-0.26808142662 -0.00029596089735 0 -0.26848632097 -0.00032535078935 0 -0.26872506738 -0.00033270716085 0 
-0.26885473728 -0.00032314690179 0 -0.2689165473 -0.00030110447551 0 -0.26893860102 -0.00027046597097 0 
-0.26893916726 -0.00023422157392 0 -0.26892969012 -0.00019447908562 0 -0.26891708374 -0.00015264986723 0 
-0.26890528202 -0.00010963781097 0 -0.26889649034 -6.5997803176e-05 0 -0.26889187098 -2.2062282369e-05 0 
-0.26889187098 2.1963658583e-05 0 -0.26889652014 6.5900261689e-05 0 -0.26890528202 0.00010954243044 0 
-0.26891711354 0.00015255768085 0 -0.26892971992 0.00019439113385 0 -0.26893919706 0.00023413881718 0 
-0.26893863082 0.00027038931148 0 -0.2689166069 0.00030103480094 0 -0.26885479689 0.00032308496884 0 
-0.26872512698 0.00033265363891 0 -0.26848638058 0.00032530623139 0 -0.26808148623 0.00029592579813 0 
-0.26743683219 0.00023724925995 0 -0.26646664739 0.00014911254402 0 -0.26508721709 7.8305783973e-05 0 
-0.26559585333 -9.7301657661e-05 0 -0.26689785719 -0.00017642632884 0 -0.26774165034 -0.00027353203041 0 
-0.26825100183 -0.00033089661156 0 -0.26853662729 -0.00035272972309 0 -0.2686817646 -0.00035112377373 0 
-0.26874369383 -0.00033343743416 0 -0.26875951886 -0.00030498919659 0 -0.26875200868 -0.00026989393518 0 
-0.26873457432 -0.00023099099053 0 -0.26871475577 -0.000190067105 0 -0.26869651675 -0.00014818167256 0 
-0.26868191361 -0.00010591818136 0 -0.26867187023 -6.3558451075e-05 0 -0.26866680384 -2.1203937649e-05 0 
-0.26866680384 2.1143341655e-05 0 -0.26867190003 6.3498526288e-05 0 -0.26868194342 0.0001058595808 0 
-0.26869654655 0.00014812505106 0 -0.26871475577 0.00019001305918 0 -0.26873460412 0.00023094016069 0 
-0.26875203848 0.00026984684519 0 -0.26875954866 0.00030494638486 0 -0.26874372363 0.00033339936635 0 
-0.2686817944 0.0003510908864 0 -0.2685366869 0.00035270236549 0 -0.26825106144 0.00033087507472 0 
-0.26774168015 0.00027351672179 0 -0.26689788699 0.00017641748127 0 -0.26559588313 9.7296993772e-05 0 
-0.26627540588 -0.00014701580221 0 -0.26742723584 -0.00022634392371 0 -0.26806530356 -0.00032707198989 0 
-0.26838666201 -0.00037237969809 0 -0.2685289681 -0.00037607626291 0 -0.26857623458 -0.00035837048199 0 
-0.26857665181 -0.00032873198506 0 -0.26855674386 -0.00029245018959 0 -0.2685303688 -0.00025310483761 0 
-0.26850441098 -0.00021284038667 0 -0.26848182082 -0.0001727493509 0 -0.26846376061 -0.00013329180365 0 
-0.26845043898 -9.4567360065e-05 0 -0.2684417069 -5.6471599237e-05 0 -0.26843741536 -1.8788839952e-05 0 
-0.26843741536 1.8754128178e-05 0 -0.2684417069 5.6437271269e-05 0 -0.26845043898 9.4533788797e-05 0 
-0.26846376061 0.00013325935288 0 -0.26848182082 0.00017271839897 0 -0.26850441098 0.00021281126828 0 
-0.26853039861 0.00025307785836 0 -0.26855674386 0.00029242568417 0 -0.26857665181 0.0003287101863 0 
-0.26857626438 0.00035835165181 0 -0.2685289979 0.00037606060505 0 -0.26838666201 0.00037236735807 0 
-0.26806533337 0.00032706322963 0 -0.26742723584 0.00022633883054 0 -0.26627540588 0.00014701303735 0 
-0.26711472869 -0.00032531569013 0 -0.26793521643 -0.00034264367423 0 -0.26827824116 -0.00041670474457 0 
-0.2684006393 -0.00041526343557 0 -0.26842737198 -0.00037239765516 0 -0.26841580868 -0.00032113495399 0 
-0.26839160919 -0.00027153550764 0 -0.26836591959 -0.0002260057372 0 -0.26834309101 -0.00018523614563 0 
-0.26832443476 -0.00014906805882 0 -0.26830995083 -0.00011685766367 0 -0.26829922199 -8.7802909547e-05 0 
-0.26829171181 -6.1108803493e-05 0 -0.26828694344 -3.6038552935e-05 0 -0.26828467846 -1.1915079085e-05 0 
-0.26828467846 1.1898845514e-05 0 -0.26828694344 3.6022498534e-05 0 -0.26829171181 6.1093109252e-05 0 
-0.26829922199 8.7787746452e-05 0 -0.26830995083 0.00011684319907 0 -0.26832443476 0.00014905445278 0 
-0.26834309101 0.00018522355822 0 -0.26836591959 0.0002259942994 0 -0.26839160919 0.0002715253504 0 
-0.26841580868 0.00032112619374 0 -0.26842737198 0.0003723903792 0 -0.2684006393 0.00041525776032 0 
-0.26827824116 0.00041670075734 0 -0.26793521643 0.00034264143324 0 -0.26711472869 0.00032531435136 0 
-0.096835203469 0.04026414454 0 -0.14059640467 0.018800279126 0 -0.15356189013 0.016720099375 0 
-0.16243843734 0.01321019046 0 -0.16798336804 0.0096954358742 0 -0.17108669877 0.0068357805721 0 
-0.17270673811 0.0045889136381 0 -0.17341913283 0.00292213168 0 -0.17363524437 0.0017537926324 0 
-0.17360042036 0.00099392875563 0 -0.17341661453 0.00052405393217 0 -0.17322774231 0.00024218608451 0 
-0.17307828367 8.3261496911e-05 0 -0.17302764952 4.5193037295e-06 0 -0.17305096984 -3.0128996514e-05 0 
-0.17315295339 -4.9291324103e-05 0 -0.1732865423 -6.9799709308e-05 0 -0.17345242202 -0.00013412043336 0 
-0.17365300655 -0.00029040858499 0 -0.17388257384 -0.00058459676802 0 -0.17408844829 -0.001069447957 0 
-0.17417038977 -0.0018270530272 0 -0.17396096885 -0.0029795421287 0 -0.17322358489 -0.0046310378239 0 
-0.17153634131 -0.0068727596663 0 -0.168365255 -0.0097475303337 0 -0.1627625823 -0.01327585429 0 
-0.15384021401 -0.016782561317 0 -0.14079095423 -0.018868761137 0 -0.096962489188 -0.040408540517 0 
-0.095739163458 0.010304887779 0 -0.13702189922 0.0086653809994 0 -0.15187713504 0.011174123734 0 
-0.16085584462 0.0095944413915 0 -0.16637845337 0.0073567908257 0 -0.16940741241 0.0053374338895 0 
-0.17092394829 0.0036717560142 0 -0.1715426147 0.0023982326966 0 -0.17167524993 0.0014838442439 0 
-0.17157043517 0.00087179831462 0 -0.17135263979 0.00047999361414 0 -0.17113783956 0.00023480693926 0 
-0.17097444832 8.6895983259e-05 0 -0.17090368271 3.3529797747e-06 0 -0.17091335356 -4.1137580411e-05 0 
-0.17100027204 -6.8544053647e-05 0 -0.17113398015 -9.8279160738e-05 0 -0.17131106555 -0.00016456007143 0 
-0.17153219879 -0.00030308481655 0 -0.17178808153 -0.000549515069 0 -0.17203180492 -0.00094615720445 0 
-0.17216970026 -0.0015533936676 0 -0.1720405221 -0.0024522112217 0 -0.17139822245 -0.00371013931 0 
-0.16982680559 -0.0053683980368 0 -0.16673865914 -0.007393958047 0 -0.16116125882 -0.0096393423155 0 
-0.15213257074 -0.011217794381 0 -0.13720741868 -0.0087095033377 0 -0.09585364908 -0.01037387643 0 
-0.094982624054 0.00034562396468 0 -0.13288842142 0.0039656735025 0 -0.149288252 0.0067085372284 0 
-0.15876843035 0.0062840944156 0 -0.16436158121 0.004975957796 0 -0.16735190153 0.0036601137836 0 
-0.16879454255 0.0025470943656 0 -0.16933980584 0.0016819274751 0 -0.169405967 0.0010533699533 0 
-0.16924606264 0.00062659650575 0 -0.1689966321 0.00034802345908 0 -0.16875949502 0.00016873580171 0 
-0.16858236492 5.562723527e-05 0 -0.16849623621 -1.2872295883e-05 0 -0.16849491 -5.2378854889e-05 0 
-0.16857148707 -7.7377742855e-05 0 -0.16870491207 -0.00010323517199 0 -0.1688914746 -0.00015406218881 0 
-0.16912998259 -0.00025396692217 0 -0.16940873861 -0.00042719667545 0 -0.16968436539 -0.0007028770633 0 
-0.16986852884 -0.0011212790851 0 -0.16980388761 -0.0017340147169 0 -0.16923679411 -0.0025834154803 0 
-0.16774848104 -0.0036871379707 0 -0.16470558941 -0.0050034588203 0 -0.159060359 -0.0063147768378 0 
-0.14952988923 -0.0067373942584 0 -0.13306744397 -0.0039922725409 0 -0.095086179674 -0.00037336553214 0 
-0.096014969051 0.00052658020286 0 -0.12971962988 0.0028937275056 0 -0.14669795334 0.0034981986973 0 
-0.15647014976 0.0033115514088 0 -0.16211648285 0.0026112094056 0 -0.16511616111 0.0018985386705 0 
-0.16655430198 0.0013146889396 0 -0.16709305346 0.00086340040434 0 -0.16715121269 0.00053660816047 0 
-0.16698354483 0.00031484954525 0 -0.16673356295 0.00016832693655 0 -0.16649605334 7.0598631282e-05 0 
-0.1663184911 4.972176157e-06 0 -0.16622677445 -3.8072510506e-05 0 -0.16621869802 -6.457130803e-05 0 
-0.16628701985 -8.0873920524e-05 0 -0.16641654074 -9.5266266726e-05 0 -0.16660283506 -0.00012116505241 0 
-0.16684260964 -0.0001712617086 0 -0.1671218425 -0.00025766753242 0 -0.16739809513 -0.00039507076144 0 
-0.16758491099 -0.00060463533737 0 -0.16752707958 -0.00091468309984 0 -0.16696840525 -0.0013497337932 0 
-0.16549105942 -0.0019225589931 0 -0.1624442935 -0.0026315858122 0 -0.15674935281 -0.0033314917237 0 
-0.1469284445 -0.0035156300291 0 -0.12989278138 -0.0029100421816 0 -0.096116952598 -0.00053890643176 0 
-0.096628926694 0.0038989079185 0 -0.12833024561 0.0029340514448 0 -0.14467065036 0.00068912224378 0 
-0.15421679616 0.00041651859647 0 -0.15979848802 0.00023492827313 0 -0.16281276941 0.00010817508155 0 
-0.1642909646 5.3029201808e-05 0 -0.16487419605 1.9657007215e-05 0 -0.16497112811 -7.27484462e-07 0 
-0.16483426094 -1.2236542716e-05 0 -0.16461053491 -2.1980444217e-05 0 -0.16439168155 -3.4647182474e-05 0 
-0.16422575712 -5.0214839575e-05 0 -0.1641369313 -6.574519648e-05 0 -0.16412630677 -7.7630538726e-05 0 
-0.16418780386 -8.3900085883e-05 0 -0.16430996358 -8.4827828687e-05 0 -0.16448751092 -8.3495004219e-05 0 
-0.16471478343 -8.1463062088e-05 0 -0.16497503221 -7.8333352576e-05 0 -0.16522486508 -7.3502902524e-05 0 
-0.16537798941 -6.8836903665e-05 0 -0.16528081894 -7.0727292041e-05 0 -0.16467957199 -8.6698724772e-05 0 
-0.16316711903 -0.00012888856872 0 -0.16011042893 -0.00024864601437 0 -0.15448361635 -0.00042687400128 0 
-0.14489114285 -0.00069656927371 0 -0.12849847972 -0.0029436484911 0 -0.096732951701 -0.003908555489 0 
-0.09588303417 0.004809172824 0 -0.1280311197 0.0014617322013 0 -0.14299425483 -0.0027691407595 0 
-0.15199287236 -0.0027180633042 0 -0.15744581819 -0.0021964868065 0 -0.16049407423 -0.0016641839175 0 
-0.16205562651 -0.0011670591775 0 -0.16272749007 -0.00077953061555 0 -0.16290152073 -0.00049932679394 0 
-0.16282583773 -0.0003086279321 0 -0.16264945269 -0.00018960778834 0 -0.16246388853 -0.00012462290761 0 
-0.16231895983 -9.6519477665e-05 0 -0.16223949194 -8.9719556854e-05 0 -0.16222979128 -9.1117202828e-05 0 
-0.16228561103 -9.0804212959e-05 0 -0.16239798069 -8.141672879e-05 0 -0.16256062686 -5.6857938034e-05 0 
-0.16276519001 -8.3496051957e-06 0 -0.16299150884 7.7009113738e-05 0 -0.1631937623 0.00021590782853 0 
-0.16328416765 0.0004271492362 0 -0.16310992837 0.00072862836532 0 -0.16242198646 0.0011357301846 0 
-0.16083016992 0.0016482542269 0 -0.15774349868 0.0021906155162 0 -0.15224863589 0.0027180598117 0 
-0.14320623875 0.0027725168038 0 -0.1281953752 -0.0014636107953 0 -0.09598761797 -0.0048177521676 0 
-0.093961946666 -0.0037570307031 0 -0.12760519981 -0.0039477772079 0 -0.14127510786 -0.0074869743548 0 
-0.14988875389 -0.0062301531434 0 -0.15528185666 -0.0046654436737 0 -0.15840947628 -0.003352265805 0 
-0.16008983552 -0.002271750709 0 -0.16087600589 -0.0014676534338 0 -0.16114576161 -0.00090519018704 0 
-0.1611443907 -0.00053359300364 0 -0.16102340817 -0.00030568611692 0 -0.1608761996 -0.00018024678866 0 
-0.16075544059 -0.0001226773893 0 -0.16068789363 -0.00010487065447 0 -0.16068093479 -0.00010470271809 0 
-0.16073232889 -0.00010529105202 0 -0.16083471477 -9.300786769e-05 0 -0.16098080575 -5.4521820857e-05 0 
-0.16115944088 2.7856282031e-05 0 -0.16134679317 0.0001790477836 0 -0.16149352491 0.00043245989946 0 
-0.16150897741 0.0008296094602 0 -0.16123944521 0.0014173871605 0 -0.16043901443 0.0022445342038 0 
-0.15873152018 0.0033436717931 0 -0.15556871891 0.004669978749 0 -0.15013632178 0.0062428140081 0 
-0.14148108661 0.0075038783252 0 -0.12776678801 0.0039587360807 0 -0.094064511359 0.0037593208253 0 
-0.090947836637 -0.032018125057 0 -0.12763038278 -0.014255313203 0 -0.1400680393 -0.013044581749 0 
-0.14877152443 -0.009956356138 0 -0.15419000387 -0.0070686456747 0 -0.15736912191 -0.0048735607415 0 
-0.15912170708 -0.0031947970856 0 -0.15997135639 -0.0019926142413 0 -0.16029246151 -0.0011793825543 0 
-0.16033035517 -0.00065939192427 0 -0.16023820639 -0.00035139065585 0 -0.16011080146 -0.0001895823516 0 
-0.16000245512 -0.00012200950732 0 -0.15994113684 -0.00010846205987 0 -0.15993574262 -0.00011854939657 0 
-0.15998505056 -0.0001298100542 0 -0.16008242965 -0.00012444741151 0 -0.16022004187 -8.4528895968e-05 0 
-0.16038535535 1.4535406081e-05 0 -0.16055260599 0.00020872396999 0 -0.16067053378 0.00054840621306 0 
-0.16064661741 0.0010997344507 0 -0.16032609344 0.0019437785959 0 -0.15946315229 0.0031740581617 0 
-0.15768502653 0.0048756543547 0 -0.15447232127 0.0070870872587 0 -0.14901575446 0.0099849738181 0 
-0.14027185738 0.013078589924 0 -0.12779167295 0.014286192134 0 -0.091049894691 0.032055847347 0 
-0.16229568422 3.1108851545e-05 0 -0.16318769753 5.9338868596e-05 0 -0.1641151756 9.9501769e-05 0 
-0.1650711894 0.00013503275113 0 -0.16604524851 0.00016496606986 0 -0.16702483594 0.00018975621788 0 
-0.16799560189 0.00020883140678 0 -0.16894185543 0.0002216736757 0 -0.1698474288 0.00022810821247 0 
-0.17069630325 0.00022822624305 0 -0.17147319019 0.00022234141943 0 -0.17216414213 0.00021097176068 0 
-0.17275699973 0.00019481417257 0 -0.1732416749 0.00017471119645 0 -0.17361056805 0.00015161449846 0 
-0.17385858297 0.00012654635066 0 -0.1739833802 0.000100559977 0 -0.17398519814 7.4699717516e-05 0 
-0.17386692762 4.9962156481e-05 0 -0.17363379896 2.7258205591e-05 0 -0.17329317331 7.3740279731e-06 0 
-0.1728541702 -9.0646235549e-06 0 -0.17232728004 -2.160920485e-05 0 -0.17172370851 -3.0006865927e-05 0 
-0.17105492949 -3.4221557144e-05 0 -0.17033208907 -3.4463835618e-05 0 -0.16956533492 -3.1103558285e-05 0 
-0.16876339912 -2.4315228075e-05 0 -0.16793315113 -1.4712974917e-05 0 -0.16707877815 -7.4498525464e-06 0 
-0.16193984449 4.2658823077e-05 0 -0.16284525394 8.4401042841e-05 0 -0.16379661858 0.00014490401372 0 
-0.16478617489 0.00019858691667 0 -0.16580234468 0.00024333698093 0 -0.16683073342 0.00027972712996 0 
-0.16785487533 0.00030692270957 0 -0.16885693371 0.00032415817259 0 -0.16981853545 0.00033120132866 0 
-0.17072156072 0.00032825465314 0 -0.17154882848 0.00031588386628 0 -0.17228466272 0.00029498338699 0 
-0.17291547358 0.00026673238608 0 -0.17343011498 0.00023254010011 0 -0.17382013798 0.00019398627046 0 
-0.17408007383 0.00015275899204 0 -0.17420743406 0.00011059098324 0 -0.17420276999 6.9195884862e-05 0 
-0.17406953871 3.0205181247e-05 0 -0.17381390929 -4.8959873311e-06 0 -0.17344453931 -3.4826967749e-05 0 
-0.17297206819 -5.8574438299e-05 0 -0.17240864038 -7.5421150541e-05 0 -0.17176727951 -8.4975828941e-05 0 
-0.1710613817 -8.7217485998e-05 0 -0.17030397058 -8.2538033894e-05 0 -0.16950699687 -7.1546732215e-05 0 
-0.16868081689 -5.4463431297e-05 0 -0.16783350706 -3.2754735003e-05 0 -0.16697020829 -1.7355643649e-05 0 
-0.16164277494 5.0407572417e-05 0 -0.16255898774 9.749927267e-05 0 -0.16353136301 0.00016567160492 0 
-0.16455104947 0.00022611749591 0 -0.16560508311 0.00027640940971 0 -0.16667735577 0.00031712497002 0 
-0.16774944961 0.00034727915772 0 -0.16880144179 0.00036598995212 0 -0.16981297731 0.00037299469113 0 
-0.17076398432 0.00036853563506 0 -0.17163549364 0.00035327716614 0 -0.17241033912 0.00032826414099 0 
-0.1730736196 0.00029487040592 0 -0.17361317575 0.00025473503047 0 -0.17401990294 0.00020969362231 0 
-0.17428791523 0.00016170664458 0 -0.17441467941 0.00011278640886 0 -0.17440102994 6.4923740865e-05 0 
-0.17425097525 2.0014014808e-05 0 -0.17397157848 -2.0220366423e-05 0 -0.17357268929 -5.4287771491e-05 0 
-0.17306637764 -8.1008518464e-05 0 -0.17246633768 -9.9543358374e-05 0 -0.17178739607 -0.00010943905363 0 
-0.1710447371 -0.00011067859305 0 -0.17025320232 -0.00010373434634 0 -0.1694265008 -8.9330605988e-05 0 
-0.16857646406 -6.769970787e-05 0 -0.16771242023 -4.0588929551e-05 0 -0.16684034467 -2.1366889996e-05 0 
-0.16128367186 5.644085104e-05 0 -0.16221192479 0.00010986234702 0 -0.1632090807 0.00018714927137 0 
-0.16426493227 0.00025560005452 0 -0.16536468267 0.00031242001569 0 -0.16649001837 0.00035822438076 0 
-0.16762010753 0.00039188453229 0 -0.16873255372 0.00041240808787 0 -0.16980454326 0.00041951454477 0 
-0.17081363499 0.00041350271204 0 -0.17173877358 0.00039515507524 0 -0.17256090045 0.00036568887299 0 
-0.17326357961 0.00032669559005 0 -0.17383347452 0.00028006822686 0 -0.1742606014 0.00022792270465 0 
-0.17453864217 0.00017251682584 0 -0.17466500401 0.00011616773554 0 -0.17464077473 6.1168721004e-05 0 
-0.17447067797 9.7028796517e-06 0 -0.17416283488 -3.6239878682e-05 0 -0.17372854054 -7.4939933256e-05 0 
-0.17318148911 -0.00010502790974 0 -0.17253734171 -0.00012552873523 0 -0.17181302607 -0.00013591411698 0 
-0.17102596164 -0.00013616292563 0 -0.17019318044 -0.0001268273918 0 -0.16933053732 -0.00010875384032 0 
-0.16845178604 -8.2195518189e-05 0 -0.16756783426 -4.9219175708e-05 0 -0.16668583453 -2.586071605e-05 0 
-0.16089959443 6.2820086896e-05 0 -0.16184101999 0.0001222116698 0 -0.16286528111 0.00020800626953 0 
-0.16396063566 0.00028384831967 0 -0.16511026025 0.00034664353007 0 -0.16629339755 0.0003970520047 0 
-0.16748657823 0.00043380967691 0 -0.16866466403 0.00045582451276 0 -0.16980212927 0.00046280561946 0 
-0.1708740294 0.00045511123608 0 -0.1718569845 0.00043364035082 0 -0.17272995412 0.00039977626875 0 
-0.17347480357 0.00035531804315 0 -0.17407692969 0.00030239889747 0 -0.17452545464 0.00024339921947 0 
-0.17481356859 0.00018085709598 0 -0.17493855953 0.00011737756722 0 -0.17490188777 5.5540545873e-05 0 
-0.17470897734 -2.1971875412e-06 0 -0.17436914146 -5.3585772548e-05 0 -0.17389516532 -9.6686344477e-05 0 
-0.17330260575 -0.00012994365534 0 -0.17260923982 -0.00015224642993 0 -0.17183430493 -0.00016298757691 0 
-0.17099766433 -0.00016213579511 0 -0.17011885345 -0.00015031661314 0 -0.1692160666 -0.00012849166524 0 
-0.16830524802 -9.6917174233e-05 0 -0.16739906371 -5.7947599998e-05 0 -0.16650603712 -3.0334458643e-05 0 
-0.16048178077 6.9413661549e-05 0 -0.16143766046 0.00013519304048 0 -0.1624917686 0.00023007065465 0 
-0.16363066435 0.00031377593405 0 -0.16483516991 0.00038290367229 0 -0.16608189046 0.00043816442485 0 
-0.16734434664 0.00047815288417 0 -0.16859441996 0.0005016765208 0 -0.16980360448 0.0005084395525 0 
-0.17094418406 0.00049886881607 0 -0.17199027538 0.00047399132745 0 -0.17291863263 0.00043536981684 0 
-0.17370934784 0.00038502528332 0 -0.17434641719 0.00032534630736 0 -0.17481797934 0.00025899353204 0 
-0.17511668801 0.00018880175776 0 -0.1752397567 0.00011768127297 0 -0.17518892884 4.8516722018e-05 0 
-0.17497046292 -1.594373316e-05 0 -0.17459495366 -7.3169496318e-05 0 -0.17407679558 -0.00012098574371 0 
-0.17343355715 -0.00015763333067 0 -0.17268535495 -0.00018184955115 0 -0.17185397446 -0.00019293665537 0 
-0.17096202075 -0.00019084644737 0 -0.17003178596 -0.00017627878697 0 -0.16908414662 -0.00015031716612 0 
-0.16813743114 -0.00011321586499 0 -0.16720640659 -6.7635817686e-05 0 -0.16630107164 -3.5324203054e-05 0 
-0.16003164649 7.6503383752e-05 0 -0.16100335121 0.00014911223843 0 -0.1620901376 0.00025367471972 0 
-0.16327662766 0.00034573316225 0 -0.1645410955 0.00042156197014 0 -0.16585712135 0.00048192721442 0 
-0.16719500721 0.00052527483786 0 -0.16852332652 0.00055031018564 0 -0.16981032491 0.00055673770839 0 
-0.17102529109 0.00054506212473 0 -0.17213961482 0.0005164508475 0 -0.17312772572 0.00047265997273 0 
-0.17396780849 0.00041594792856 0 -0.17464232445 0.00034897524165 0 -0.175138399 0.00027470025816 0 
-0.17544808984 0.00019627313304 0 -0.17556847632 0.00011692926637 0 -0.17550168931 3.9878636017e-05 0 
-0.17525477707 -3.1819239666e-05 0 -0.17483974993 -9.532981494e-05 0 -0.17427274585 -0.00014822137018 0 
-0.17357349396 -0.00018851002096 0 -0.17276464403 -0.00021476391703 0 -0.17187078297 -0.00022618076764 0 
-0.17091752589 -0.0002226873039 0 -0.16993023455 -0.00020505872089 0 -0.16893275082 -0.00017450767336 0 
-0.16794614494 -0.00013128014689 0 -0.16698747873 -7.8365010268e-05 0 -0.16606846452 -4.083317981e-05 0 
-0.15954704583 8.4138351667e-05 0 -0.1605360657 0.00016413448611 0 -0.16165857017 0.00027915337705 0 
-0.16289700568 0.00038020615466 0 -0.1642268151 0.00046323068091 0 -0.16561827064 0.00052905437769 0 
-0.16703811288 0.00057596486295 0 -0.1684512794 0.0006025620969 0 -0.16982252896 0.00060855608899 0 
-0.1711179018 0.00059453985887 0 -0.17230586708 0.00056183477864 0 -0.17335836589 0.00051240675384 0 
-0.17425151169 0.00044876977336 0 -0.17496615648 0.00037387601333 0 -0.17548832297 0.00029100262327 0 
-0.1758094281 0.00020363782824 0 -0.17592643201 0.00011536616512 0 -0.17584179342 2.9746044675e-05 0 
-0.17556348443 -4.9819565902e-05 0 -0.175104931 -0.00012017417612 0 -0.17448416352 -0.00017859737272 0 
-0.17372326553 -0.00022285724117 0 -0.17284756899 -0.00025133130839 0 -0.17188479006 -0.00026309548412 0 
-0.1708638072 -0.00025804125471 0 -0.16981337965 -0.00023701986356 0 -0.16876068711 -0.00020138164109 0 
-0.16772982478 -0.00015135880676 0 -0.16674046218 -9.0294721304e-05 0 -0.16580626369 -4.6956385631e-05 0 
-0.15902639925 9.2390444479e-05 0 -0.1600343436 0.00018038458074 0 -0.16119578481 0.00030670448905 0 
-0.16249078512 0.00041745393537 0 -0.16389164329 0.00050821778132 0 -0.1653649658 0.00057989120251 0 
-0.16687360406 0.000630593393 0 -0.16837856174 0.00065881590126 0 -0.16984079778 0.00066427997081 0 
-0.17122283578 0.00064767769072 0 -0.17249006033 0.00061049900251 0 -0.17361174524 0.00055493664695 0 
-0.17456178367 0.00048377920757 0 -0.17531935871 0.0004002910573 0 -0.17586927116 0.00030809026794 0 
-0.17620228231 0.00021102699975 0 -0.1763151437 0.00011306037777 0 -0.17621071637 1.812251503e-05 0 
-0.17589792609 -7.0005909947e-05 0 -0.17539165914 -0.00014782349172 0 -0.17471195757 -0.00021228962578 0 
-0.17388342321 -0.00026089733001 0 -0.17293433845 -0.00029180862475 0 -0.17189574242 -0.00030395729118 0 
-0.17080014944 -0.00029718712904 0 -0.16968005896 -0.00027242457145 0 -0.16856633127 -0.00023116621014 0 
-0.16748648882 -0.00017362421204 0 -0.16646313667 -0.00010352485697 0 -0.16551209986 -5.3739408031e-05 0 
-0.15846779943 0.00010130352894 0 -0.15949635208 0.00019795716798 0 -0.16070017219 0.00033649234683 0 
-0.16205663979 0.00045769877033 0 -0.16353458166 0.00055679178331 0 -0.16509658098 0.00063474173658 0 
-0.16670122743 0.00068948883563 0 -0.16830524802 0.00071941339411 0 -0.16986550391 0.0007242540014 0 
-0.17134079337 0.00070481369039 0 -0.17269316316 0.00066276587313 0 -0.17388902605 0.00060054770438 0 
-0.17489999533 0.00052124180365 0 -0.17570343614 0.00042844589916 0 -0.17628288269 0.00032614186057 0 
-0.17662833631 0.00021856660896 0 -0.17673635483 0.00011008061847 0 -0.17661017179 5.0171970543e-06 0 
-0.17625965178 -9.2431400844e-05 0 -0.17570130527 -0.00017839003704 0 -0.17495726049 -0.00024946586927 0 
-0.17405477166 -0.00030284590321 0 -0.17302533984 -0.00033644831274 0 -0.17190359533 -0.00034904145286 0 
-0.17072600126 -0.0003404058225 0 -0.1695291996 -0.00031154058524 0 -0.16834814847 -0.0002640967723 0 
-0.1672141999 -0.00019825919298 0 -0.16615323722 -0.00011816684128 0 -0.16518357396 -6.1239486968e-05 0 
-0.15786929429 0.00011091869965 0 -0.15892028809 0.00021693565941 0 -0.16017012298 0.00036865685252 0 
-0.16159325838 0.00050112616736 0 -0.16315466166 0.00060917378869 0 -0.16481250525 0.00069385371171 0 
-0.16652074456 0.00075291638495 0 -0.16823144257 0.0007846285007 0 -0.16989709437 0.00078875303734 0 
-0.17147247493 0.00076621590415 0 -0.17291611433 0.00071888940874 0 -0.17419141531 0.00064947281498 0 
-0.17526754737 0.00056136253988 0 -0.17611993849 0.00045851082541 0 -0.1767308116 0.00034528668039 0 
-0.17708933353 0.00022633915069 0 -0.17719182372 0.00010645801376 0 -0.17704184353 -9.5936002253e-06 0 
-0.17665030062 -0.00011717605958 0 -0.1760353148 -0.00021200993797 0 -0.17522126436 -0.00029031481245 0 
-0.17423820496 -0.00034893746488 0 -0.17312105 -0.00038552068872 0 -0.171908319 -0.00039864020073 0 
-0.17064082623 -0.00038799454342 0 -0.16935972869 -0.00035465080873 0 -0.16810454428 -0.00030042175786 0 
-0.16691090167 -0.00022545618413 0 -0.16580840945 -0.00013433657296 0 -0.16481815279 -6.9514018833e-05 0 
-0.15722893178 0.00012127108494 0 -0.15830427408 0.00023739418248 0 -0.15960401297 0.00040332344361 0 
-0.16109931469 0.00054790213471 0 -0.16275088489 0.00066556147067 0 -0.16451212764 0.00075744825881 0 
-0.16633187234 0.00082111277152 0 -0.16815720499 0.00085470592603 0 -0.1699359417 0.00085802259855 0 
-0.17161855102 0.00083212397294 0 -0.17315983772 0.00077909656102 0 -0.17452004552 0.00070191978011 0 
-0.1756657511 0.00060432293685 0 -0.17657038569 0.00049063458573 0 -0.1772147119 0.00036563392496 0 
-0.17758700252 0.00023440834775 0 -0.17768332362 0.00010220560216 0 -0.17750751972 -2.5751764042e-05 0 
-0.17707157135 -0.00014433839533 0 -0.17639526725 -0.00024883839069 0 -0.17550528049 -0.00033504527528 0 
-0.17443467677 -0.00039942824515 0 -0.17322199047 -0.00043931914843 0 -0.17190997303 -0.00045307024266 0 
-0.17054410279 -0.0004402755003 0 -0.16917054355 -0.00040206237463 0 -0.16783387959 -0.00034041158506 0 
-0.16657452285 -0.00025542548974 0 -0.16542620957 -0.00015216134489 0 -0.16441322863 -7.8626559116e-05 0 
-0.15654473007 0.00013239202963 0 -0.15764649212 0.00025939961779 0 -0.15900021791 0.00044060478103 0 
-0.16057346761 0.00059817492729 0 -0.16232228279 0.00072613090742 0 -0.16419479251 0.0008257223526 0 
-0.16613432765 0.00089428882347 0 -0.16808260977 0.00092986389063 0 -0.16998238862 0.00093228212791 0 
-0.17177964747 0.0009027524502 0 -0.1734252274 0.00084359105676 0 -0.17487604916 0.00075807439862 0 
-0.17609596252 0.0006502844044 0 -0.17705628276 0.00052494660486 0 -0.17773622274 0.00038727436913 0 
-0.17812313139 0.00024281966034 0 -0.17821270227 9.7317933978e-05 0 -0.1780090332 -4.3518346502e-05 0 
-0.1775252223 -0.0001740372245 0 -0.17678272724 -0.00028905228828 0 -0.17581066489 -0.00038388956455 0 
-0.17464523017 -0.00045459961984 0 -0.17332878709 -0.00049816415412 0 -0.17190864682 -0.00051267654635 0 
-0.17043535411 -0.0004975994816 0 -0.16896060109 -0.00045411006431 0 -0.16753451526 -0.00038436154136 0 
-0.16620284319 -0.00028839710285 0 -0.16500405967 -0.00017178042617 0 -0.16396601498 -8.864630945e-05 0 
-0.15581478179 0.00014430837473 0 -0.15694510937 0.00028301068232 0 -0.1583571434 0.00048059993424 0 
-0.16001443565 0.00065207469743 0 -0.16186788678 0.00079103664029 0 -0.16385988891 0.00089884939371 0 
-0.16592782736 0.00097263097996 0 -0.16800767183 0.0010102966335 0 -0.17003679276 0.0010117285419 0 
-0.17195637524 0.00097829534207 0 -0.17371314764 0.00091255747247 0 -0.17526049912 0.00081810529809 0 
-0.17655944824 0.00069939176319 0 -0.17757909 0.00056156073697 0 -0.17829698324 0.00041028295527 0 
-0.1786994487 0.00025160235236 0 -0.17878176272 9.1772541055e-05 0 -0.17854824662 -6.2972831074e-05 0 
-0.17801305652 -0.00020641181618 0 -0.17719939351 -0.0003328511375 0 -0.17613887787 -0.00043710466707 0 
-0.17487098277 -0.00051475997316 0 -0.17344214022 -0.0005624050973 0 -0.1719045043 -0.00057783460943 0 
-0.17031416297 -0.00056034856243 0 -0.16872878373 -0.00051115895621 0 -0.16720469296 -0.00043259415543 0 
-0.1657936126 -0.00032462278614 0 -0.16453929245 -0.00019334655371 0 -0.16347360611 -9.9649114418e-05 0 
-0.15503722429 0.00015704176622 0 -0.15619841218 0.00030827664887 0 -0.15767326951 0.00052339199465 0 
-0.1594209522 0.00070971017703 0 -0.16138675809 0.00086040835595 0 -0.1635068059 0.00097697600722 0 
-0.16571210325 0.0010562988464 0 -0.16793239117 0.0010961727239 0 -0.17009940743 0.0010965347756 0 
-0.17214928567 0.0010589248268 0 -0.17402435839 0.00098616094328 0 -0.17567442358 0.00088216317818 0 
-0.17705745995 0.00075177353574 0 -0.17814025283 0.00060057430528 0 -0.17889860272 0.00043471789104 0 
-0.17931774259 0.0002607680799 0 -0.1793923825 8.5527652118e-05 0 -0.17912702262 -8.4214880189e-05 0 
-0.17853692174 -0.00024162468617 0 -0.17764700949 -0.00038045967813 0 -0.17649145424 -0.00049497489817 0 
-0.17511312664 -0.00058024714235 0 -0.17356279492 -0.00063242280157 0 -0.17189776897 -0.00064895296237 0 
-0.17018011212 -0.00062893825816 0 -0.16847401857 -0.00057360657956 0 -0.16684268415 -0.00048546143807 0 
-0.1653444618 -0.00036437800736 0 -0.16402906179 -0.00021702701633 0 -0.16293297708 -0.00011171788356 0 
-0.15421029925 0.00017060745449 0 -0.15540473163 0.00033523477032 0 -0.15694715083 0.00056904432131 0 
-0.15879185498 0.00077116396278 0 -0.16087801754 0.00093434582232 0 -0.16313496232 0.0010602171533 0 
-0.16548682749 0.0011454203632 0 -0.16785676777 0.0011876305798 0 -0.17017050087 0.001186846639 0 
-0.17235885561 0.0011447889265 0 -0.17435961962 0.0010645454749 0 -0.1761187762 0.00095037993742 0 
-0.17759120464 0.00080754008377 0 -0.17874118686 0.00064206705429 0 -0.17954270542 0.00046061904868 0 
-0.17997974157 0.00027030808269 0 -0.18004642427 7.8512639448e-05 0 -0.17974732816 -0.000107366046 0 
-0.17909874022 -0.00027986519854 0 -0.17812734842 -0.00043213064782 0 -0.17686995864 -0.00055781425908 0 
-0.17537294328 -0.00065143068787 0 -0.17369160056 -0.00070863199653 0 -0.17188872397 -0.00072647543857 0 
-0.17003279924 -0.00070381985279 0 -0.16819520295 -0.00064188521355 0 -0.16644664109 -0.00054334686138 0 
-0.16485291719 -0.00040796358371 0 -0.16347041726 -0.00024300487712 0 -0.16234086454 -0.0001249431225 0 
-0.15333236754 0.00018501277373 0 -0.1545625329 0.00036390748573 0 -0.15617743134 0.00061759556411 0 
-0.15812604129 0.00083648663713 0 -0.16034083068 0.0010129121365 0 -0.16274382174 0.001148649375 0 
-0.16525173187 0.0012400859268 0 -0.16778075695 0.0012847738108 0 -0.17025025189 0.0012827782193 0 
-0.17258553207 0.0012360081309 0 -0.17471961677 0.0011478305096 0 -0.17659449577 0.0010228654137 0 
-0.17816182971 0.00086678162916 0 -0.17938326299 0.00068609847222 0 -0.18023087084 0.00048800473451 0 
-0.1806872189 0.00028018993908 0 -0.18074575067 7.0640271588e-05 0 -0.18041108549 -0.00013258440595 0 
-0.17970043421 -0.00032135227229 0 -0.17864228785 -0.00048814908951 0 -0.17727604508 -0.00062597141368 0 
-0.17565177381 -0.0007287163171 0 -0.1738294363 -0.00079148454824 0 -0.17187769711 -0.00081088382285 0 
-0.16987189651 -0.00078548310557 0 -0.16789121926 -0.00071646424476 0 -0.16601468623 -0.00060666748323 0 
-0.16431638598 -0.00045570751536 0 -0.16286024451 -0.00027148006484 0 -0.16169390082 -0.00013942354417 0 
-0.15240193903 0.00020025517733 0 -0.15367044508 0.0003942985204 0 -0.15536291897 0.00066905340645 0 
-0.15742252767 0.00090568885207 0 -0.15977443755 0.0010961253429 0 -0.16233280301 0.0012423024746 0 
-0.16500648856 0.0013403402409 0 -0.16770425439 0.0013876635348 0 -0.17033880949 0.0013844063506 0 
-0.17282965779 0.0013326698681 0 -0.1751049161 0.0012361072004 0 -0.17710243165 0.0010997036006 0 
-0.17877042294 0.00092956330627 0 -0.18006783724 0.00073270307621 0 -0.18096463382 0.00051686714869 0 
-0.18144191802 0.00029035384068 0 -0.18149226904 6.1791470216e-05 0 -0.18112024665 -0.0001600546675 0 
-0.18034400046 -0.00036633890704 0 -0.17919369042 -0.00054883613484 0 -0.17771142721 -0.00069983233698 0 
-0.17595100403 -0.00081254797988 0 -0.17397727072 -0.00088147126371 0 -0.17186503112 -0.00090269959765 0 
-0.16969706118 -0.00087445689132 0 -0.16756094992 -0.00079785089474 0 -0.16554488242 -0.00067587505328 0 
-0.16373218596 -0.00050796609139 0 -0.16219523549 -0.00030267014517 0 -0.16098845005 -0.0001552663598 0 
-0.15141777694 0.00021632009884 0 -0.15272729099 0.00042638840387 0 -0.15450258553 0.00072338752216 0 
-0.15668042004 0.00097873201594 0 -0.15917815268 0.0011839481303 0 -0.1619014442 0.0013411490945 0 
-0.16475076973 0.0014461729443 0 -0.16762711108 0.0014963108115 0 -0.17043621838 0.0014917632798 0 
-0.1730915308 0.0014348238474 0 -0.17551605403 0.0013294332894 0 -0.17764332891 0.0011809491552 0 
-0.1794180274 0.0009959229501 0 -0.180796206 0.00078188767657 0 -0.18174555898 0.00054716930026 0 
-0.18224558234 0.0003007085179 0 -0.18228787184 5.181216693e-05 0 -0.18187682331 -0.00018999821623 0 
-0.18103142083 -0.00041511611198 0 -0.17978350818 -0.00061455159448 0 -0.17817786336 -0.00077982171206 0 
-0.17627207935 -0.00090340833412 0 -0.1741361022 -0.00097912177444 0 -0.17185118794 -0.0010024827207 0 
-0.16950798035 -0.00097130867653 0 -0.16720323265 -0.0008865899872 0 -0.1650352031 -0.00075145572191 0 
-0.1630974561 -0.00056512386072 0 -0.16147194803 -0.00033681065543 0 -0.16022071242 -0.00017258738808 0 
-0.15037886798 0.00023317804153 0 -0.15173211694 0.00046012885286 0 -0.15359556675 0.00078051985474 0 
-0.15589903295 0.0010555165354 0 -0.15855138004 0.0012762752594 0 -0.16144923866 0.0014450923773 0 
-0.16448423266 0.0015575067373 0 -0.1675491184 0.0016106654657 0 -0.17054243386 0.0016048285179 0 
-0.1733713299 0.001542474376 0 -0.17595346272 0.0014278286835 0 -0.17821791768 0.0012666232651 0 
-0.18010564148 0.0010658671381 0 -0.18156963587 0.00083362840815 0 -0.18257518113 0.00057884247508 0 
-0.18309997022 0.00031112853321 0 -0.18313448131 4.0511626139e-05 0 -0.18268282712 -0.00022267489112 0 
-0.18176472187 -0.00046801424469 0 -0.18041367829 -0.00068569451105 0 -0.17867712677 -0.00086640269728 0 
-0.17661650479 -0.0010018174071 0 -0.17430697381 -0.0010850019753 0 -0.17183659971 -0.0011108291801 0 
-0.16930435598 -0.0010766412597 0 -0.16681693494 -0.00098326045554 0 -0.16448356211 -0.00083392765373 0 
-0.16240924597 -0.00062759243883 0 -0.16068670154 -0.00037415444967 0 -0.15938667953 -0.00019151085871 0 
-0.1492844969 0.0002507813042 0 -0.15068428218 0.00049543567002 0 -0.15264126658 0.00084031344159 0 
-0.15507778525 0.0011358675547 0 -0.15789361298 0.0013729167404 0 -0.16097573936 0.0015539480373 0 
-0.16420646012 0.0016741809668 0 -0.16746999323 0.001730602351 0 -0.17065730691 0.0017235161504 0 
-0.17366908491 0.0016555712791 0 -0.17641744018 0.0015312673058 0 -0.17882680893 0.0013567081187 0 
-0.18083417416 0.0011393679306 0 -0.18238934875 0.00088786805281 0 -0.18345497549 0.0006117838202 0 
-0.18400681019 0.00032145317527 0 -0.18403401971 2.7662388675e-05 0 -0.18354026973 -0.00025838191505 0 
-0.18254597485 -0.0005254005664 0 -0.1810861975 -0.0007626991719 0 -0.17921102047 -0.00096007151296 0 
-0.17698577046 -0.0011083254358 0 -0.17449098825 -0.0011997057591 0 -0.17182175815 -0.0012283611577 0 
-0.16908593476 -0.0011910836911 0 -0.16640084982 -0.0010884681251 0 -0.16388779879 -0.00092383491574 0 
-0.16166447103 -0.00069580640411 0 -0.15983568132 -0.0004149696324 0 -0.15848205984 -0.00021216840832 0 
-0.14813435078 0.00026905973209 0 -0.1495834887 0.00053217972163 0 -0.15163940191 0.00090255693067 0 
-0.15421637893 0.0012195145246 0 -0.15720447898 0.001473575714 0 -0.16048051417 0.001667422126 0 
-0.16391700506 0.0017959293909 0 -0.16738930345 0.001855900744 0 -0.17078053951 0.0018476583064 0 
-0.1739847064 0.001773995813 0 -0.17690818012 0.0016396673163 0 -0.17947046459 0.0014511399204 0 
-0.18160447478 0.0012163572246 0 -0.18325653672 0.00094451324549 0 -0.18438647687 0.00064585648943 0 
-0.18496786058 0.00033148835064 0 -0.18498837948 1.300412714e-05 0 -0.18445116282 -0.00029744772473 0 
-0.18337719142 -0.00058767088922 0 -0.18180303276 -0.00084602460265 0 -0.17978136241 -0.0010613440536 0 
-0.1773814261 -0.0012234979076 0 -0.1746892333 -0.0013238384854 0 -0.17180716991 -0.0013557107886 0 
-0.16885246336 -0.0013152752072 0 -0.16595382988 -0.0012028302299 0 -0.16324573755 -0.0010217358358 0 
-0.16085992754 -0.00077021488687 0 -0.15891486406 -0.00045953504741 0 -0.1575024277 -0.00023469701409 0 
-0.14692859352 0.00028791537625 0 -0.1484298408 0.00057017552899 0 -0.15059001744 0.0009669449646 0 
-0.15331472456 0.0013060653582 0 -0.15648370981 0.0015778174857 0 -0.15996314585 0.0017850778531 0 
-0.16361536086 0.0019223479321 0 -0.16730649769 0.0019862144254 0 -0.17091168463 0.0019769784994 0 
-0.17431794107 0.0018975397106 0 -0.17742568254 0.0017528749304 0 -0.18014930189 0.001549797249 0 
-0.18241731822 0.0012967208168 0 -0.18417231739 0.0010034325533 0 -0.1853711009 0.00068089098204 0 
-0.18598482013 0.0003410121426 0 -0.18599946797 -3.7463732951e-06 0 -0.18541750312 -0.00034021766623 0 
-0.18426038325 -0.00065523077501 0 -0.18256610632 -0.00093613140052 0 -0.18038992584 -0.0011707294034 0 
-0.1778049618 -0.0013478859328 0 -0.17490279675 -0.0014579858398 0 -0.17179335654 -0.0014934885548 0 
-0.16860367358 -0.0014498351375 0 -0.16547468305 -0.0013269503834 0 -0.16255512834 -0.0011281814659 0 
-0.15999233723 -0.00085126678459 0 -0.15792006254 -0.00050813215785 0 -0.15644308925 -0.00025923544308 0 
-0.14566791058 0.00030721569783 0 -0.14722397923 0.00060916511575 0 -0.1494935751 0.0010330505902 0 
-0.15237301588 0.001394969644 0 -0.15573123097 0.0016850254033 0 -0.15942326188 0.0019062865758 0 
-0.16330088675 0.0020528449677 0 -0.16722087562 0.0021210249979 0 -0.17105004191 0.0021110509988 0 
-0.17466828227 0.0020258703735 0 -0.17796976864 0.001870636479 0 -0.18086351454 0.0016524813836 0 
-0.18327330053 0.0013802864123 0 -0.18513773382 0.001064451877 0 -0.18641024828 0.0007166886935 0 
-0.18705935776 0.00034978616168 0 -0.18706914783 -2.2876285584e-05 0 -0.18644124269 -0.00038702751044 0 
-0.18519750237 -0.00072846183321 0 -0.18337732553 -0.0010334413964 0 -0.18103842437 -0.0012886845507 0 
-0.17825783789 -0.0014819765929 0 -0.17513276637 -0.0016026622616 0 -0.17178086936 -0.0016422318295 0 
-0.16833941638 -0.0015953147085 0 -0.16496229172 -0.0014613743406 0 -0.16181376576 -0.001243680832 0 
-0.15905833244 -0.00093938567443 0 -0.15684701502 -0.00056103093084 0 -0.15529921651 -0.00028591795126 0 
-0.14435368776 0.00032678453135 0 -0.1459672004 0.00064879731508 0 -0.14835107327 0.0011002874235 0 
-0.15139186382 0.0014854646288 0 -0.15494716167 0.0017943355488 0 -0.15886047482 0.0020301553886 0 
-0.16297286749 0.0021865656599 0 -0.16713145375 0.0022595685441 0 -0.17119464278 0.002249232959 0 
-0.17503492534 0.0021584739443 0 -0.17853999138 0.001992554171 0 -0.18161305785 0.0017588838236 0 
-0.18417286873 0.0014668026706 0 -0.18615366518 0.0011273460696 0 -0.1875051856 0.00075302668847 0 
-0.1881930232 0.0003575735318 0 -0.18819913268 -4.4644933951e-05 0 -0.18752419949 -0.00043815819663 0 
-0.18619038165 -0.00080766406609 0 -0.18423840404 -0.001138269552 0 -0.18172845244 -0.0014155361569 0 
-0.17874145508 -0.0016261099372 0 -0.17538021505 -0.0017582246801 0 -0.17177028954 -0.00180232001 0 
-0.16805955768 -0.0017521172995 0 -0.16441561282 -0.0016065208474 0 -0.16101948917 -0.0013686442981 0 
-0.15805466473 -0.0010349291842 0 -0.15569141507 -0.00061846757308 0 -0.1540658921 -0.00031486447551 0 
-0.14298814535 0.00034639041405 0 -0.14466153085 0.00068859802559 0 -0.14716421068 0.0011678555747 0 
-0.15037238598 0.0015764985001 0 -0.15413191915 0.0019045382505 0 -0.15827454627 0.0021554138511 0 
-0.1626304388 0.0023222733289 0 -0.16703702509 0.0024007193279 0 -0.17134416103 0.0023905588314 0 
-0.17541669309 0.0022945620585 0 -0.17913548648 0.0021180079784 0 -0.18239757419 0.001868526917 0 
-0.18511620164 0.001555899973 0 -0.18722076714 0.0011918215314 0 -0.18865697086 0.0007896614261 0 
-0.18938717246 0.00036416560761 0 -0.18939097226 -6.9233981776e-05 0 -0.18866796792 -0.00049376371317 0 
-0.18724061549 -0.0008929632022 0 -0.18515090644 -0.0012507128995 0 -0.18246147037 -0.00155135768 0 
-0.17925705016 -0.0017803455703 0 -0.17564612627 -0.001924736076 0 -0.17176218331 -0.0019738399424 0 
-0.16776408255 -0.0019203727134 0 -0.16383381188 -0.0017625710461 0 -0.1601704061 -0.0015032937517 0 
-0.15697816014 -0.0011381249642 0 -0.15444903076 -0.00068060844205 0 -0.15273827314 -0.00034616523772 0 
-0.14157453179 0.00036573107354 0 -0.14331005514 0.00072792958235 0 -0.14593550563 0.0012346639996 0 
-0.14931635559 0.001666614553 0 -0.15328632295 0.0020139294211 0 -0.15766529739 0.0022802413441 0 
-0.16227260232 0.0024581651669 0 -0.16693602502 0.0025428063236 0 -0.17149677873 0.0025335669052 0 
-0.17581188679 0.0024329184089 0 -0.17975492775 0.002246028278 0 -0.18321624398 0.0019806644414 0 
-0.18610300124 0.0016470225528 0 -0.1883392781 0.0012574801221 0 -0.1898662895 0.00082632887643 0 
-0.19064278901 0.00036941896542 0 -0.19064581394 -9.6672723885e-05 0 -0.18987379968 -0.00055376015371 0 
-0.1883494556 -0.00098416605033 0 -0.18611603975 -0.0013704784214 0 -0.18323862553 -0.0016957733314 0 
-0.17980572581 -0.0019442538032 0 -0.1759314388 -0.0021017508116 0 -0.17175726593 -0.0021563759074 0 
-0.16745321453 -0.0020997412503 0 -0.16321635246 -0.0019292960642 0 -0.15926493704 -0.0016475234879 0 
-0.15582607687 -0.0012489715591 0 -0.15311598778 -0.00074749498162 0 -0.15131168067 -0.00037985731615 0 
-0.14011740685 0.00038441212382 0 -0.14191706479 0.00076593313133 0 -0.14466871321 0.0012992175762 0 
-0.14822648466 0.0017537792446 0 -0.15241183341 0.0021200838964 0 -0.15703286231 0.0024019996636 0 
-0.16189828515 0.0025915838778 0 -0.16682650149 0.0026833247393 0 -0.17165014148 0.0026760271285 0 
-0.17621810734 0.0025716556702 0 -0.18039622903 0.0023750877008 0 -0.18406750262 0.0020941155963 0 
-0.18713234365 0.0017393085873 0 -0.18950882554 0.0013237521052 0 -0.19113315642 0.00086273305351 0 
-0.19196021557 0.00037330301711 0 -0.19196416438 -0.000126729763 0 -0.19114229083 -0.00061765860301 0 
-0.18951752782 -0.0010805401253 0 -0.18713448942 -0.0014966161689 0 -0.18406064808 -0.0018476584228 0 
-0.18038828671 -0.0021165928338 0 -0.17623700202 -0.0022879831959 0 -0.17175631225 -0.002348683076 0 
-0.16712753475 -0.0022891082335 0 -0.16256326437 -0.0021057897247 0 -0.15830221772 -0.0018006844912 0 
-0.15459634364 -0.0013670843327 0 -0.15168897808 -0.00081895821495 0 -0.14978204668 -0.00041588844033 0 
-0.13862292469 0.00040192171582 0 -0.14048857987 0.00080144981621 0 -0.14336913824 0.0013594548218 0 
-0.14710691571 0.0018351258477 0 -0.1515109092 0.0022195102647 0 -0.15637779236 0.0025168235879 0 
-0.16150631011 0.0027185748331 0 -0.1667059809 0.0028184899129 0 -0.17180100083 0.0028145173565 0 
-0.17663194239 0.0027078287676 0 -0.18105624616 0.002502768999 0 -0.18494874239 0.0022069963161 0 
-0.18820218742 0.001831392874 0 -0.19072791934 0.0013897771714 0 -0.19245655835 0.00089851301163 0 
-0.19333867729 0.00037595827598 0 -0.19334545732 -0.00015876033285 0 -0.19247294962 -0.00068432145054 0 
-0.19074450433 -0.0011804853566 0 -0.18820609152 -0.0016271203058 0 -0.18492762744 -0.0020046839491 0 
-0.18100512028 -0.0022948186379 0 -0.17656357586 -0.0024808028247 0 -0.17176038027 -0.0025481905323 0 
-0.1667881608 -0.0024861183483 0 -0.16187545657 -0.0022900595795 0 -0.15728244185 -0.0019612552132 0 
-0.15328803658 -0.0014914635103 0 -0.15016582608 -0.00089449202642 0 -0.1481462568 -0.00045406629215 0 
-0.13709935546 0.00041761880857 0 -0.13903273642 0.00083292735508 0 -0.1420443356 0.0014125205344 0 
-0.14596374333 0.001906570862 0 -0.15058746934 0.0023071258329 0 -0.15570142865 0.0026189931668 0 
-0.1610955447 0.0028332076035 0 -0.16657136381 0.0029425516259 0 -0.17194508016 0.0029437660705 0 
-0.17704862356 0.0028368353378 0 -0.18173030019 0.0026252395473 0 -0.18585571647 0.0023162856232 0 
-0.18930886686 0.0019210808678 0 -0.19199338555 0.0014541979181 0 -0.19383366406 0.00093316688435 0 
-0.19477556646 0.0003777606762 0 -0.19478723407 -0.00019149640866 0 -0.19386355579 -0.00075160997221 0 
-0.19202841818 -0.0012810501503 0 -0.18932929635 -0.0017583318986 0 -0.18583860993 -0.0021626336966 0 
-0.1816559881 -0.0024743429385 0 -0.17691171169 -0.0026754660066 0 -0.17177082598 -0.0027502409648 0 
-0.16643710434 -0.0026864602696 0 -0.16115517914 -0.0024783960544 0 -0.15620754659 -0.002126338426 0 
-0.15190210938 -0.0016201501712 0 -0.14854614437 -0.00097307842225 0 -0.14640282094 -0.00049400510034 0 
-0.13555777073 0.00043071349501 0 -0.13756091893 0.00085827615112 0 -0.14070528746 0.0014544101432 0 
-0.14480634034 0.0019622112159 0 -0.14964792132 0.0023754329886 0 -0.1550065428 0.0026999637485 0 
-0.16066515446 0.0029265356716 0 -0.16641893983 0.0030467512552 0 -0.17207673192 0.003055654699 0 
-0.17746157944 0.0029515009373 0 -0.18241167068 0.0027364499401 0 -0.18678197265 0.0024171604309 0 
-0.1904463321 0.0020048390143 0 -0.19329956174 0.0015148252714 0 -0.19525901973 0.00096590921748 0 
-0.19626562297 0.00037938432069 0 -0.19628438354 -0.00022276824166 0 -0.19530929625 -0.00081589294132 0 
-0.19336499274 -0.0013772393577 0 -0.19050067663 -0.0018840717385 0 -0.18679124117 -0.0023143959697 0 
-0.18233987689 -0.0026474301703 0 -0.17728190124 -0.0028639601078 0 -0.17178969085 -0.002946928842 0 
-0.16607788205 -0.002882754663 0 -0.16040700674 -0.0026643809397 0 -0.15508237481 -0.0022908600513 0 
-0.15044270456 -0.0017496737419 0 -0.14683263004 -0.0010529021965 0 -0.14455313981 -0.00053502817173 0 
-0.13401320577 0.00044013845036 0 -0.13608910143 0.00087456958136 0 -0.13936829567 0.0014793724986 0 
-0.14364920557 0.0019933676813 0 -0.14870281518 0.0024132668041 0 -0.15429846942 0.0027469326742 0 
-0.1602152735 0.0029850953724 0 -0.16624453664 0.0031178351492 0 -0.17218886316 0.0031378061976 0 
-0.17786210775 0.0030407868326 0 -0.18309098482 0.0028269991744 0 -0.18771806359 0.0025020507164 0 
-0.19160531461 0.0020770658739 0 -0.19463728368 0.0015681490768 0 -0.19672349095 0.00099544296972 0 
-0.19779965281 0.00038185412996 0 -0.19782787561 -0.00024915541871 0 -0.19680161774 -0.00087139976677 0 
-0.19474665821 -0.001461080974 0 -0.19171409309 -0.0019944512751 0 -0.18778130412 -0.0024485671893 0 
-0.1830548346 -0.0028016439173 0 -0.17767469585 -0.0030333558097 0 -0.17182026803 -0.0031254172791 0 
-0.16571646929 -0.0030629069079 0 -0.15963923931 -0.0028373687528 0 -0.15391653776 -0.0024463040754 0 
-0.14891915023 -0.001874143607 0 -0.1450329721 -0.0011308273533 0 -0.14260309935 -0.00057592068333 0 
-0.13248291612 0.00044482172234 0 -0.13463750482 0.00087794713909 0 -0.13805550337 0.001479191822 0 
-0.1425126791 0.00198722817 0 -0.14776690304 0.0024039731361 0 -0.15358436108 0.0027407652233 0 
-0.15974548459 0.0029887428973 0 -0.16604149342 0.0031359088607 0 -0.17227034271 0.0031715291552 0 
-0.17823629081 0.003087888239 0 -0.1837528646 0.0028824477922 0 -0.18864795566 0.0025592178572 0 
-0.19276937842 0.0021289777942 0 -0.19598975778 0.0016085619573 0 -0.19820986688 0.001019551768 0 
-0.19936010242 0.00038653743104 0 -0.19940021634 -0.00026556919329 0 -0.19832375646 -0.00090936670313 0 
-0.1961582154 -0.0015203480143 0 -0.19295680523 -0.0020742099732 0 -0.18879926205 -0.0025474659633 0 
-0.18379504979 -0.0029176245444 0 -0.17808845639 -0.0031634289771 0 -0.17186532915 -0.0032654954121 0 
-0.16536028683 -0.003207701724 0 -0.15886361897 -0.0029802725185 0 -0.15272477269 -0.0025789020583 0 
-0.1473467052 -0.0019840912428 0 -0.14316003025 -0.0012020146241 0 -0.14056229591 -0.00061509612715 0 
-0.13098523021 0.00044552114559 0 -0.13323162496 0.00086439528968 0 -0.1367970109 0.001442189212 0 
-0.14142434299 0.0019244253635 0 -0.14685921371 0.0023221517913 0 -0.15287187696 0.0026523484848 0 
-0.15925231576 0.0029068966396 0 -0.16579724848 0.0030707253609 0 -0.17230206728 0.0031282661948 0 
-0.1785607636 0.0030669516418 0 -0.1843713522 0.0028804061003 0 -0.18954412639 0.0025702952407 0 
-0.193909958 0.0021466540638 0 -0.19732742012 0.0016269478947 0 -0.19968752563 0.0010342677124 0 
-0.20091556013 0.00039493464283 0 -0.20096987486 -0.00026479086955 0 -0.19984519482 -0.00091686932137 0 
-0.19757154584 -0.0015366773587 0 -0.19420447946 -0.0021001466084 0 -0.18982568383 -0.002583950758 0 
-0.18454685807 -0.0029653960373 0 -0.1785158664 -0.003222593572 0 -0.17192451656 -0.0033352826722 0 
-0.16501657665 -0.0032864722889 0 -0.15809521079 -0.0030654964503 0 -0.15152868629 -0.0026663222816 0 
-0.14574947953 -0.0020646261983 0 -0.14123475552 -0.00126012892 0 -0.13844540715 -0.00065216282383 0 
-0.12956677377 0.00044331504614 0 -0.13193179667 0.0008272867999 0 -0.13565993309 0.0013485678937 0 
-0.14044584334 0.0017731876578 0 -0.14602720737 0.0021276066545 0 -0.15219150484 0.002436817158 0 
-0.15875072777 0.0026931997854 0 -0.16551452875 0.0028768042102 0 -0.172277987 0.0029651774094 0 
-0.17882348597 0.0029391902499 0 -0.18493062258 0.0027872631326 0 -0.19038835168 0.0025076766033 0 
-0.1950070858 0.0021090726368 0 -0.19862870872 0.0016093163285 0 -0.20113331079 0.0010330623481 0 
-0.20244145393 0.00040842112503 0 -0.20251189172 -0.00023714439885 0 -0.20134221017 -0.0008758182521 0 
-0.19896619022 -0.0014837906929 0 -0.19544196129 -0.002038479317 0 -0.19085246325 -0.0025178627111 0 
-0.18531031907 -0.0028998830821 0 -0.17896589637 -0.0031625076663 0 -0.17201666534 -0.0032849546988 0 
-0.16471551359 -0.0032500175294 0 -0.15737722814 -0.0030472720973 0 -0.1503842026 -0.0026699830778 0 
-0.14419139922 -0.0020888973959 0 -0.13931883872 -0.0012932782993 0 -0.13630343974 -0.00068521214416 0 
-0.12831449509 0.00042641913751 0 -0.13085669279 0.00074721849523 0 -0.13477493823 0.0011613251409 0 
-0.13969710469 0.001482703723 0 -0.14536866546 0.0017613135278 0 -0.15161672235 0.0020314150024 0 
-0.15829309821 0.0022846108768 0 -0.16522936523 0.0024932078086 0 -0.17222177982 0.0026252712123 0 
-0.17903909087 0.0026532607153 0 -0.18543879688 0.0025588111021 0 -0.1911841929 0.0023353444412 0 
-0.19606088102 0.0019890267868 0 -0.19989064336 0.0015376518713 0 -0.2025411427 0.0010074931197 0 
-0.20392911136 0.00042859974201 0 -0.20401644707 -0.0001704673341 0 -0.20280638337 -0.00076315220213 0 
-0.20033827424 -0.0013277708786 0 -0.19667321444 -0.0018450535135 0 -0.19189402461 -0.0022960321512 0 
-0.18611197174 -0.0026605806779 0 -0.17947803438 -0.0029172170907 0 -0.17219513655 -0.0030450348277 0 
-0.16452661157 -0.0030275289901 0 -0.15679873526 -0.0028565286193 0 -0.14940190315 -0.0025271263439 0 
-0.14279870689 -0.0020076085348 0 -0.13753475249 -0.0012727439171 0 -0.13423220813 -0.00069702870678 0 
-0.12708613276 0.00038183489232 0 -0.12995542586 0.00060653005494 0 -0.1341163516 0.00082736054901 0 
-0.13913026452 0.00098012073431 0 -0.14479868114 0.0011419868097 0 -0.15102607012 0.0013513681479 0 
-0.15772745013 0.0015964027261 0 -0.16476534307 0.0018377451925 0 -0.17193709314 0.0020310599357 0 
-0.1789945662 0.0021388460882 0 -0.18566985428 0.0021342670079 0 -0.19169610739 0.0020036560018 0 
-0.19682885706 0.0017487725709 0 -0.20086486638 0.0013864121865 0 -0.20365689695 0.00094458006788 0 
-0.20511907339 0.00045568452333 0 -0.2052205205 -5.0575850764e-05 0 -0.20397466421 -0.00054997508414 0 
-0.20142957568 -0.001024782774 0 -0.19765016437 -0.0014615938999 0 -0.19271735847 -0.0018471379299 0 
-0.18673744798 -0.0021653133444 0 -0.17985880375 -0.0023963442072 0 -0.17228941619 -0.0025197090581 0 
-0.16430619359 -0.002520755399 0 -0.15624964237 -0.0023963446729 0 -0.14851109684 -0.0021478151903 0 
-0.14153343439 -0.0017518140376 0 -0.1358333379 -0.0011717637535 0 -0.132097736 -0.00067300233059 0 
-0.12547019124 0.00030703830998 0 -0.12896853685 0.00041882824735 0 -0.13342191279 0.00024737400236 0 
-0.13841943443 0.00011638618889 0 -0.14392715693 0.00010536651098 0 -0.14997862279 0.00022560959042 0 
-0.15657515824 0.00045590795344 0 -0.16361480951 0.00074089417467 0 -0.17089127004 0.0010211907793 0 
-0.17813566327 0.0012487720232 0 -0.18505397439 0.0013864210341 0 -0.19134540856 0.0014088504249 0 
-0.19672866166 0.0013087457046 0 -0.20096710324 0.0010994956829 0 -0.20389340818 0.00081098993542 0 
-0.20541965961 0.00047923164675 0 -0.20552742481 0.00013595850032 0 -0.20424705744 -0.00019697593234 0 
-0.20164085925 -0.00050762714818 0 -0.19778035581 -0.00079142244067 0 -0.1927434355 -0.0010445899097 0 
-0.186627388 -0.0012589880498 0 -0.17957358062 -0.0014199495781 0 -0.17179475725 -0.0015101329191 0 
-0.16358847916 -0.0015201823553 0 -0.15532013774 -0.0014568037586 0 -0.14738219976 -0.0013365286868 0 
-0.14016056061 -0.0011832057498 0 -0.13402301073 -0.00098283728585 0 -0.12958587706 -0.00060478970408 0 
-0.12552598119 -0.00026821915526 0 -0.12996484339 4.059316052e-05 0 -0.13464014232 -0.00084428908303 0 
-0.1394021064 -0.0014026978752 0 -0.14452669024 -0.0016330120852 0 -0.15021798015 -0.0016258299584 0 
-0.15657061338 -0.0014150298666 0 -0.16350877285 -0.0010697770631 0 -0.17080834508 -0.00066247634823 0 
-0.17817528546 -0.00024890661007 0 -0.18529717624 0.00012147070083 0 -0.19183623791 0.00040107383393 0 
-0.19746805727 0.0005613292451 0 -0.20191054046 0.00060616544215 0 -0.20496821404 0.00056729878997 0 
-0.20655195415 0.00048696412705 0 -0.20666141808 0.00040213527973 0 -0.20535326004 0.00033670448465 0 
-0.20271059871 0.00029838184128 0 -0.19881480932 0.00028181899688 0 -0.19373863935 0.00027755906922 0 
-0.1875641197 0.0002797744819 0 -0.18041844666 0.00029024123796 0 -0.17251819372 0.00031474718708 0 
-0.16419547796 0.00034919611062 0 -0.15587079525 0.00037122995127 0 -0.14796566963 0.00033842379344 0 
-0.14079143107 9.6757117717e-05 0 -0.13441057503 -0.00044854223961 0 -0.12908154726 7.6897391409e-05 0 
-0.13263124228 -0.0019694275688 0 -0.13795128465 -0.00066163187148 0 -0.14253145456 -0.0025137639605 0 
-0.14674684405 -0.003540529171 0 -0.15126086771 -0.0039470642805 0 -0.1564450711 -0.004026751034 0 
-0.16246585548 -0.0038183298893 0 -0.16924087703 -0.0033910169732 0 -0.17649836838 -0.0028200778179 0 
-0.18391370773 -0.0021597782616 0 -0.1911726892 -0.0014726462541 0 -0.19793444872 -0.00084143615095 0 
-0.20381595194 -0.00033208963578 0 -0.20846700668 4.2892883357e-05 0 -0.21165119112 0.00031797704287 0 
-0.21328225732 0.00054505682783 0 -0.21338663995 0.0007708472549 0 -0.21205450594 0.0010279389098 0 
-0.20940150321 0.0013252561912 0 -0.20552240312 0.0016484481748 0 -0.2004801631 0.0019742283039 0 
-0.19433197379 0.0022798848804 0 -0.18717779219 0.0025489539839 0 -0.17922951281 0.0027708320413 0 
-0.17086458206 0.0029274525587 0 -0.16260014474 0.0029882641975 0 -0.15494094789 0.0028866445646 0 
-0.14815461636 0.0022294239607 0 -0.14191517234 0.00066275009885 0 -0.13581876457 0.0020160481799 0 
-0.15017463267 -0.0046479399316 0 -0.1560677588 -0.0015311456518 0 -0.16018006206 -0.0044322106987 0 
-0.16359555721 -0.0058031780645 0 -0.16734361649 -0.0062171309255 0 -0.17193365097 -0.0062665692531 0 
-0.17758159339 -0.0059802914038 0 -0.18416117132 -0.0054143657908 0 -0.19131332636 -0.0046391314827 0 
-0.19868542254 -0.0036954716779 0 -0.20601174235 -0.0026568740141 0 -0.21297325194 -0.0016593170585 0 
-0.21911071241 -0.0008244610508 0 -0.22397145629 -0.00018189140246 0 -0.22726918757 0.0003194391029 0 
-0.22892637551 0.00075402570656 0 -0.22900575399 0.0011877829675 0 -0.22764018178 0.0016736519756 0 
-0.22499620914 0.0022283368744 0 -0.22118635476 0.0028276955709 0 -0.21625544131 0.0034363244195 0 
-0.21022325754 0.004017168656 0 -0.20314081013 0.004535980057 0 -0.19519139826 0.0049672666937 0 
-0.18679513037 0.0052860234864 0 -0.17861372232 0.005465562921 0 -0.1713039577 0.0054206149653 0 
-0.1651609391 0.0044217142276 0 -0.15948905051 0.0017320889747 0 -0.15299023688 0.0047322697937 0 
-0.17885155976 -0.0076182098128 0 -0.18502558768 -0.0018707686104 0 -0.1883649379 -0.005908632651 0 
-0.19082389772 -0.0075421109796 0 -0.19371680915 -0.0078236814588 0 -0.19766566157 -0.007714856416 0 
-0.20293594897 -0.0072293393314 0 -0.20930446684 -0.006421066355 0 -0.21624335647 -0.0053641665727 0 
-0.22338494658 -0.0040736258961 0 -0.23064412177 -0.0026364475489 0 -0.23780791461 -0.0012926127529 0 
-0.24426484108 -0.00026484401315 0 -0.24936233461 0.00041391164996 0 -0.25273814797 0.00085886963643 0 
-0.2543772161 0.0012073310791 0 -0.25439250469 0.0015643273946 0 -0.25296938419 0.0020272920374 0 
-0.25037401915 0.0026247557253 0 -0.24673718214 0.0033043955918 0 -0.24205714464 0.0040176142938 0 
-0.23629318178 0.0047242152505 0 -0.22940297425 0.0053841182962 0 -0.2214846313 0.0059726419859 0 
-0.21297656 0.006478079129 0 -0.20477204025 0.0068844160996 0 -0.19777579606 0.007085126359 0 
-0.1924289465 0.0059316954575 0 -0.18778063357 0.002169540152 0 -0.18134191632 0.0078435707837 0 
-0.2228397131 -0.010969740339 0 -0.22845457494 -0.0015121294418 0 -0.23069100082 -0.0067567056976 0 
-0.23211345077 -0.008611695841 0 -0.23403060436 -0.0086141694337 0 -0.23717515171 -0.0081216609105 0 
-0.24194233119 -0.0072066131979 0 -0.24795648456 -0.0060219182633 0 -0.25432822108 -0.004628920462 0 
-0.26063418388 -0.0028716232628 0 -0.26723486185 -0.0008209841908 0 -0.27426192164 0.00095516775036 0 
-0.2808444798 0.0019443660276 0 -0.28597533703 0.00219382043 0 -0.28922265768 0.0020810752176 0 
-0.29072591662 0.0018950506346 0 -0.29067131877 0.0017843900714 0 -0.28925678134 0.0019416457508 0 
-0.28694137931 0.0023870677687 0 -0.28386190534 0.0029295433778 0 -0.27991056442 0.0034764111042 0 
-0.27496767044 0.0039985836484 0 -0.26882785559 0.0044763046317 0 -0.26137661934 0.004970151931 0 
-0.25293457508 0.0056218034588 0 -0.24474413693 0.006457184907 0 -0.23803372681 0.0072513199411 0 
-0.2335216552 0.0063093081117 0 -0.23038718104 0.0017085580621 0 -0.22507727146 0.011367949657 0 
-0.29000732303 -0.014394615777 0 -0.2933935225 -0.00083546241513 0 -0.29459431767 -0.007146211341 0 
-0.29552710056 -0.0093318121508 0 -0.29664865136 -0.0090531148016 0 -0.29860019684 -0.0078750625253 0 
-0.30199214816 -0.0061545567587 0 -0.30660504103 -0.0045143142343 0 -0.31135240197 -0.0030427523889 0 
-0.31554085016 -0.00095335190417 0 -0.31975275278 0.0020132334903 0 -0.32467627525 0.0045493082143 0 
-0.32973152399 0.0053908117115 0 -0.33376824856 0.0047444677912 0 -0.3362468183 0.0036633450072 0 
-0.33741691709 0.0027203112841 0 -0.33755406737 0.0019713048823 0 -0.33669176698 0.0017856549239 0 
-0.33531779051 0.0021908492781 0 -0.33362492919 0.002617912367 0 -0.33142226934 0.0028564948589 0 
-0.32856181264 0.0028830957599 0 -0.32477262616 0.002653661184 0 -0.31973388791 0.0023881262168 0 
-0.3132853508 0.0027478630655 0 -0.30658262968 0.0040344991721 0 -0.30089816451 0.0057321302593 0 
-0.29714894295 0.0055110394023 0 -0.29544770718 0.00077245477587 0 -0.29287302494 0.015145837329 0 
-0.37590476871 -0.015642475337 0 -0.37611117959 -0.0002863050031 0 -0.37680116296 -0.0067232958972 0 
-0.37854832411 -0.0093190381303 0 -0.3797391355 -0.0096550872549 0 -0.38048800826 -0.0087044229731 0 
-0.38093528152 -0.0066871917807 0 -0.38169053197 -0.0044978843071 0 -0.38294750452 -0.0028730023187 0 
-0.38409775496 -0.0011343390215 0 -0.38448551297 0.0017352869036 0 -0.38450577855 0.0048565058969 0 
-0.3850364387 0.0063369139098 0 -0.3859910965 0.0058296462521 0 -0.3869048655 0.0046235974878 0 
-0.38749808073 0.0037554688752 0 -0.38809084892 0.0031943356153 0 -0.38872715831 0.0030707602855 0 
-0.38899564743 0.003691855818 0 -0.38937902451 0.0044225654565 0 -0.389760077 0.0047033750452 0 
-0.38993805647 0.0045550060458 0 -0.38991653919 0.0039434228092 0 -0.38954210281 0.0029102764092 0 
-0.3885654211 0.0021234543528 0 -0.3863543272 0.0024918171111 0 -0.38355997205 0.0038155214861 0 
-0.38059276342 0.0036256925669 0 -0.37898367643 -0.00069865508704 0 -0.37910526991 0.016053400934 0 
-0.45013552904 -0.011320821941 0 -0.44827064872 -0.00027554840199 0 -0.44922792912 -0.005533978343 0 
-0.45112153888 -0.0080919368193 0 -0.45235070586 -0.010403067805 0 -0.45219251513 -0.012241484597 0 
-0.45024600625 -0.012760539539 0 -0.44698792696 -0.010741407052 0 -0.44369372725 -0.0074515040033 0 
-0.44121795893 -0.005234607961 0 -0.43896868825 -0.0043421168812 0 -0.43590483069 -0.0025146808475 0 
-0.43244826794 0.00044539663941 0 -0.43002054095 0.0027637670282 0 -0.42906290293 0.0038091654424 0 
-0.42902985215 0.0045638307929 0 -0.42949935794 0.0060082068667 0 -0.43070459366 0.0069874501787 0 
-0.43256801367 0.0079651279375 0 -0.43465924263 0.0095737408847 0 -0.43710893393 0.010456525721 0 
-0.43982481956 0.010816980153 0 -0.4426086247 0.010941393673 0 -0.4454625845 0.010897632688 0 
-0.44844260812 0.009382661432 0 -0.4507625401 0.0067178215832 0 -0.45110473037 0.0045553590171 0 
-0.44934502244 0.0015625236556 0 -0.44737178087 -0.0031332545914 0 -0.44873040915 0.0093704676256 0 
-0.4832610786 -0.0042441752739 0 -0.48177108169 -0.00096459861379 0 -0.48333254457 -0.0054728211835 0 
-0.48439136147 -0.0090764574707 0 -0.48438674212 -0.012744395062 0 -0.48310652375 -0.017443949357 0 
-0.48054212332 -0.021092580631 0 -0.47667509317 -0.021882671863 0 -0.47173455358 -0.018762532622 0 
-0.46678245068 -0.013924457133 0 -0.46298921108 -0.010990394279 0 -0.46028551459 -0.01022611279 0 
-0.45763510466 -0.0081631951034 0 -0.45517984033 -0.0036381478421 0 -0.45352634788 0.0010589102749 0 
-0.45280957222 0.0043444549665 0 -0.45252794027 0.0071243299171 0 -0.45262917876 0.010802673176 0 
-0.45412382483 0.014104563743 0 -0.45662936568 0.016493774951 0 -0.45967674255 0.018542781472 0 
-0.4629432857 0.019498581067 0 -0.46598121524 0.019722620025 0 -0.4686524868 0.019613586366 0 
-0.47077929974 0.018624806777 0 -0.47271105647 0.014664176852 0 -0.4736790657 0.008221947588 0 
-0.47315180302 0.001883375342 0 -0.47185128927 -0.0031940771732 0 -0.47309988737 -5.5108197557e-05 0 
-0.47952514887 0.0020958150271 0 -0.48021143675 -0.0022664768621 0 -0.48153761029 -0.0063270307146 0 
-0.48216941953 -0.011770099401 0 -0.48116090894 -0.017511926591 0 -0.47972175479 -0.023398526013 0 
-0.47785305977 -0.028275439516 0 -0.47550147772 -0.030645212159 0 -0.4719569087 -0.029144277796 0 
-0.46719932556 -0.023970663548 0 -0.46285408735 -0.018243290484 0 -0.46084806323 -0.014531462453 0 
-0.46043163538 -0.01154565718 0 -0.45975863934 -0.0070697730407 0 -0.45882502198 -0.0018033108208 0 
-0.45803779364 0.002624890767 0 -0.45752882957 0.0064483354799 0 -0.45703905821 0.011582553387 0 
-0.45713639259 0.017812740058 0 -0.45863166451 0.022751612589 0 -0.46060222387 0.025397550315 0 
-0.46233952045 0.026095349342 0 -0.46367412806 0.025629824027 0 -0.46433156729 0.024623120204 0 
-0.46434018016 0.022701790556 0 -0.46384084225 0.018708894029 0 -0.46397385001 0.012340613641 0 
-0.46415671706 0.0049887588248 0 -0.46383532882 -0.00017215190746 0 -0.46354791522 -0.0047704959288 0 
-0.4628584981 0.0033576623537 0 -0.46515104175 -0.0042517315596 0 -0.46605631709 -0.0086289960891 0 
-0.46618542075 -0.015113005415 0 -0.46530982852 -0.021368993446 0 -0.46472117305 -0.026931900531 0 
-0.4645549953 -0.03178261593 0 -0.46417561173 -0.035325612873 0 -0.46321260929 -0.0361802876 0 
-0.46048429608 -0.032238252461 0 -0.45617628098 -0.024336496368 0 -0.45367959142 -0.017113935202 0 
-0.45381867886 -0.012907622382 0 -0.45384112 -0.0087165217847 0 -0.45329117775 -0.0031528354157 0 
-0.45289099216 0.0020115200896 0 -0.45290917158 0.0061417599209 0 -0.45331785083 0.011681328528 0 
-0.45328253508 0.019287681207 0 -0.45308545232 0.025437414646 0 -0.45294994116 0.028126137331 0 
-0.45245653391 0.028267377988 0 -0.45177078247 0.02716435492 0 -0.45085144043 0.025603152812 0 
-0.44951254129 0.023634642363 0 -0.44815659523 0.020785305649 0 -0.44741129875 0.016278199852 0 
-0.44748798013 0.0098717454821 0 -0.44757154584 0.0043397974223 0 -0.44573384523 -0.0038824283984 0 
-0.45029225945 0.0015094103292 0 -0.45292600989 -0.0070689800195 0 -0.45333552361 -0.01175159961 0 
-0.45317241549 -0.018278518692 0 -0.45329669118 -0.023902893066 0 -0.45356038213 -0.027750594541 0 
-0.45466139913 -0.031667165458 0 -0.45597726107 -0.035024221987 0 -0.45707011223 -0.037352189422 0 
-0.4572057128 -0.037691622972 0 -0.45523908734 -0.031749147922 0 -0.45124390721 -0.021069925278 0 
-0.4496961534 -0.014032033272 0 -0.44986641407 -0.010103125125 0 -0.44927722216 -0.0044470825233 0 
-0.44863557816 0.0021148370579 0 -0.4486092627 0.0080898851156 0 -0.4495126605 0.013690900058 0 
-0.45006483793 0.019457006827 0 -0.44927603006 0.024461776018 0 -0.44747364521 0.026632446796 0 
-0.44554823637 0.026703381911 0 -0.44363954663 0.026194294915 0 -0.44200220704 0.025087919086 0 
-0.44038319588 0.023592034355 0 -0.43872672319 0.02172437124 0 -0.43725457788 0.018859917298 0 
-0.43585431576 0.014279960655 0 -0.43468460441 0.0086841071025 0 -0.43225330114 -0.00090552360052 0 
-0.44323083758 -0.0010995350312 0 -0.44535854459 -0.010327770375 0 -0.44602566957 -0.015374608338 0 
-0.44646930695 -0.020213268697 0 -0.4478238523 -0.024422999471 0 -0.44918635488 -0.027341661975 0 
-0.45097261667 -0.029712092131 0 -0.45284703374 -0.032695703208 0 -0.45468199253 -0.035276651382 0 
-0.45610797405 -0.036575306207 0 -0.45682042837 -0.035902064294 0 -0.45494303107 -0.02848623693 0 
-0.45145827532 -0.017584482208 0 -0.45037472248 -0.011284485459 0 -0.4498809278 -0.0060372543521 0 
-0.44912499189 0.0012092929101 0 -0.44858837128 0.008828535676 0 -0.44856160879 0.015724498779 0 
-0.44859728217 0.02057085 0 -0.44757294655 0.022725215182 0 -0.44567611814 0.023451993242 0 
-0.4436891377 0.02374202013 0 -0.44175466895 0.023927550763 0 -0.43971684575 0.023933652788 0 
-0.43751978874 0.023171067238 0 -0.4349232018 0.02178491652 0 -0.43223819137 0.01888394542 0 
-0.42989867926 0.01454521995 0 -0.42733624578 0.010479578748 0 -0.42351701856 0.0021163495257 0 
-0.43447139859 -0.0036478058901 0 -0.4373268187 -0.01281888783 0 -0.43928587437 -0.01674692519 0 
-0.44114482403 -0.020149299875 0 -0.44370135665 -0.023019237444 0 -0.44614878297 -0.025179132819 0 
-0.44817119837 -0.027373943478 0 -0.45017024875 -0.030014863238 0 -0.45236316323 -0.032813038677 0 
-0.45403292775 -0.035130176693 0 -0.45502090454 -0.035108171403 0 -0.45544958115 -0.031774569303 0 
-0.45328992605 -0.023420773447 0 -0.45095950365 -0.014170235954 0 -0.45073786378 -0.0071047912352 0 
-0.45068243146 0.00037449641968 0 -0.45004457235 0.0084456363693 0 -0.44889962673 0.015442768112 0 
-0.44745692611 0.019492043182 0 -0.44563511014 0.020943278447 0 -0.44427266717 0.021333167329 0 
-0.44280716777 0.021629134193 0 -0.44101831317 0.021792743355 0 -0.4386600554 0.021363573149 0 
-0.43566957116 0.020304786041 0 -0.43196079135 0.019033486024 0 -0.4276778996 0.017715817317 0 
-0.42455554008 0.014584221877 0 -0.42184203863 0.0091052586213 0 -0.41796246171 0.00029905186966 0 
-0.42286521196 -0.0027437193785 0 -0.4277831018 -0.011654406786 0 -0.43153735995 -0.015540719964 0 
-0.4354364574 -0.017744939774 0 -0.43888580799 -0.019840437919 0 -0.44189238548 -0.022615645081 0 
-0.44394826889 -0.024803908542 0 -0.44594037533 -0.026860682294 0 -0.44807490706 -0.029711136594 0 
-0.45061695576 -0.033111136407 0 -0.45225581527 -0.034784026444 0 -0.45299959183 -0.032937802374 0 
-0.45269134641 -0.026546772569 0 -0.45163246989 -0.016592882574 0 -0.45095789433 -0.0068751755171 0 
-0.45127758384 0.00054689857643 0 -0.45082339644 0.0071743633598 0 -0.44892436266 0.013266523369 0 
-0.44655454159 0.016937671229 0 -0.44455176592 0.018753929064 0 -0.44281843305 0.019765269011 0 
-0.44149798155 0.019616620615 0 -0.43968507648 0.019035303965 0 -0.43703266978 0.018136236817 0 
-0.43350291252 0.016595579684 0 -0.42903956771 0.014666474424 0 -0.4236496985 0.013952212408 0 
-0.41841828823 0.013203265145 0 -0.41446232796 0.010086719878 0 -0.41064199805 0.0032719618175 0 
-0.41527929902 -0.001078623347 0 -0.42059463263 -0.0075015905313 0 -0.42580774426 -0.010741765611 0 
-0.43105214834 -0.013036321849 0 -0.43543145061 -0.016172541305 0 -0.43904206157 -0.019584121183 0 
-0.44142493606 -0.022446760908 0 -0.44305458665 -0.024280490354 0 -0.44456657767 -0.025994246826 0 
-0.44707435369 -0.02927134186 0 -0.44989231229 -0.032406695187 0 -0.45206654072 -0.03247923404 0 
-0.45357194543 -0.027065895498 0 -0.45317924023 -0.017817910761 0 -0.45186120272 -0.0077370582148 0 
-0.45123714209 0.0007464402006 0 -0.45039314032 0.0058376872912 0 -0.44821438193 0.010270539671 0 
-0.44555065036 0.014111636207 0 -0.44367828965 0.016128929332 0 -0.44197267294 0.017344936728 0 
-0.44033110142 0.01767109707 0 -0.4384341836 0.016331767663 0 -0.43572467566 0.014181510545 0 
-0.43188709021 0.011659002863 0 -0.42696350813 0.0090560223907 0 -0.42075908184 0.0077920272015 0 
-0.41306903958 0.0078731002286 0 -0.40744489431 0.0067261769436 0 -0.40143933892 0.0022837892175 0 
-0.41608822346 -0.0021809232421 0 -0.42095178366 -0.0037954342552 0 -0.42546707392 -0.0052513545379 0 
-0.43009912968 -0.0072791422717 0 -0.43483963609 -0.010823754594 0 -0.43901896477 -0.015660813078 0 
-0.44178700447 -0.019956372678 0 -0.44331255555 -0.022676629946 0 -0.44409945607 -0.023926753551 0 
-0.44508388638 -0.025499667972 0 -0.44776907563 -0.028035867959 0 -0.45046460629 -0.02846518904 0 
-0.45290488005 -0.025921270251 0 -0.45356726646 -0.019837485626 0 -0.45236626267 -0.0097462506965 0 
-0.44938290119 -0.0010158864316 0 -0.44788476825 0.0035710956436 0 -0.44632446766 0.0071886703372 0 
-0.44405931234 0.011349629611 0 -0.4421479404 0.014236197807 0 -0.44075635076 0.015367253684 0 
-0.43881687522 0.015098785982 0 -0.4368468821 0.0133973388 0 -0.43439367414 0.010388589464 0 
-0.43105766177 0.0067274128087 0 -0.42669767141 0.0028051384725 0 -0.42115068436 -0.00085027940804 0 
-0.4138738513 8.0133810116e-05 0 -0.40603908896 0.0010096661281 0 -0.40089550614 0.00056153268088 0 
-0.42290201783 -0.00020953280909 0 -0.42646083236 -0.00085324351676 0 -0.43013864756 -0.0024031135254 0 
-0.43321344256 -0.0031275353394 0 -0.43629953265 -0.0059064626694 0 -0.43960991502 -0.011260064319 0 
-0.44271230698 -0.01717296429 0 -0.44462430477 -0.021366143599 0 -0.44501826167 -0.0236325562 0 
-0.44504010677 -0.02414191328 0 -0.44604840875 -0.02496929653 0 -0.44782248139 -0.025548815727 0 
-0.44904249907 -0.02319550328 0 -0.45028811693 -0.01921531558 0 -0.44978895783 -0.013869884424 0 
-0.44728198647 -0.0053072683513 0 -0.44547432661 0.0021696577314 0 -0.44413247705 0.005725255236 0 
-0.44257229567 0.0091257039458 0 -0.4407350719 0.012163427658 0 -0.43911918998 0.013088470325 0 
-0.4374563694 0.012684211135 0 -0.43548804522 0.011049051769 0 -0.43344882131 0.0076391794719 0 
-0.43116620183 0.0033485575113 0 -0.42795658112 -0.0011492355261 0 -0.42456394434 -0.0053785792552 0 
-0.42102107406 -0.0080014886335 0 -0.41515433788 -0.004278391134 0 -0.41086551547 0.0041710534133 0 
-0.42984560132 -0.0012170067057 0 -0.43175044656 0.00039494343218 0 -0.43448448181 -0.00030206149677 0 
-0.43610954285 -0.0021074663382 0 -0.43745705485 -0.0042835632339 0 -0.43920898438 -0.0081696026027 0 
-0.44167360663 -0.013703084551 0 -0.44376456738 -0.019814234227 0 -0.44508641958 -0.023607959971 0 
-0.44505432248 -0.024267971516 0 -0.44457018375 -0.024345373735 0 -0.44531926513 -0.024540837854 0 
-0.44575598836 -0.022706784308 0 -0.44567641616 -0.019021922722 0 -0.44563886523 -0.014325632714 0 
-0.44530311227 -0.007005866617 0 -0.44370663166 -0.00010850892431 0 -0.44245120883 0.0041478704661 0 
-0.44104290009 0.0075955078937 0 -0.43917703629 0.010163901374 0 -0.43746107817 0.011291840114 0 
-0.43604212999 0.0106355194 0 -0.43422061205 0.0088698035106 0 -0.432307899 0.0061021279544 0 
-0.43052440882 0.0016757278936 0 -0.4288790226 -0.0028190354351 0 -0.42697224021 -0.0058617307805 0 
-0.42559590936 -0.0078943781555 0 -0.42436215281 -0.0077565936372 0 -0.42083454132 -0.0026983655989 0 
-0.43085941672 0.00050312257372 0 -0.43295833468 0.00017785630189 0 -0.43471598625 -0.00073883013101 0 
-0.43590059876 -0.0024526491761 0 -0.43682685494 -0.0040834154934 0 -0.4378195703 -0.0069696102291 0 
-0.43894541264 -0.011647654697 0 -0.44076454639 -0.01702702418 0 -0.44268107414 -0.022137014195 0 
-0.44348698854 -0.025145873427 0 -0.44285783172 -0.02487612702 0 -0.4426663518 -0.024172339588 0 
-0.443018049 -0.022881135345 0 -0.44300714135 -0.019430734217 0 -0.44267764688 -0.014455336146 0 
-0.4422724545 -0.0077490983531 0 -0.4410674572 -0.0010761400918 0 -0.44002768397 0.0030938528944 0 
-0.43853926659 0.0056806881912 0 -0.43677523732 0.0080226277933 0 -0.43504309654 0.0093528227881 0 
-0.43341809511 0.0089042717591 0 -0.4319165349 0.0070393527858 0 -0.43018099666 0.0043929838575 0 
-0.42851245403 0.001277622534 0 -0.42743441463 -0.0025356081314 0 -0.42636013031 -0.0054990192875 0 
-0.42516425252 -0.0064124632627 0 -0.42414322495 -0.005872326903 0 -0.4227604866 -0.0022432620171 0 
-0.42681309581 0.0019435809227 0 -0.42893344164 0.00048590495135 0 -0.43055257201 -0.0006875609979 0 
-0.43195131421 -0.0026025061961 0 -0.43282049894 -0.0040863673203 0 -0.4336694479 -0.0068641942926 0 
-0.43434026837 -0.010534385219 0 -0.43577894568 -0.015038062818 0 -0.43748295307 -0.020107289776 0 
-0.43932452798 -0.024379881099 0 -0.43970069289 -0.025767348707 0 -0.43929135799 -0.024522714317 0 
-0.43959611654 -0.022334201261 0 -0.43998005986 -0.019403189421 0 -0.43984121084 -0.015160334297 0 
-0.4390463531 -0.0088578434661 0 -0.43773600459 -0.0024403906427 0 -0.43626558781 0.0017799038906 0 
-0.43492463231 0.0042343675159 0 -0.43352010846 0.0062101446092 0 -0.43186384439 0.0073381732218 0 
-0.43030235171 0.0071335220709 0 -0.42903506756 0.0056679225527 0 -0.42780327797 0.0033378596418 0 
-0.42650583386 0.00063624978065 0 -0.42505484819 -0.0022354868706 0 -0.42418643832 -0.0046446616761 0 
-0.42297759652 -0.0055677331984 0 -0.42131131887 -0.0045019644313 0 -0.41929000616 -0.0022774469107 0 
-0.42113670707 0.001430849079 0 -0.42299610376 -0.00061482808087 0 -0.42389523983 -0.0011001535458 0 
-0.42513129115 -0.0027236044407 0 -0.42576289177 -0.0041585643776 0 -0.42641893029 -0.0065657072701 0 
-0.42726889253 -0.0097070429474 0 -0.42854803801 -0.013139052317 0 -0.43053209782 -0.017508830875 0 
-0.43241906166 -0.022416424006 0 -0.43394935131 -0.025259984657 0 -0.43464678526 -0.024484647438 0 
-0.43534946442 -0.021872252226 0 -0.43581429124 -0.018854942173 0 -0.43611499667 -0.015436599031 0 
-0.43549063802 -0.010221208446 0 -0.43413609266 -0.0041293036193 0 -0.43260934949 0.00036843627458 0 
-0.4313185215 0.003077413654 0 -0.43020480871 0.0047341263853 0 -0.42887583375 0.0056717898697 0 
-0.42765161395 0.0058963843621 0 -0.42675033212 0.0049335458316 0 -0.42594945431 0.0028813020326 0 
-0.42485255003 0.00022546060791 0 -0.42331397533 -0.0022119665518 0 -0.42199087143 -0.004040364176 0 
-0.42076054215 -0.004959967453 0 -0.41898220778 -0.0040139108896 0 -0.41631028056 -0.0021725881379 0 
-0.41553112864 0.00056751177181 0 -0.4176312983 -0.0021183833014 0 -0.41846266389 -0.0022300176788 0 
-0.41944733262 -0.0033802452963 0 -0.42003822327 -0.0047751348466 0 -0.42032474279 -0.0065483949147 0 
-0.42101624608 -0.0086945276707 0 -0.42214050889 -0.011074609123 0 -0.42387375236 -0.015015683137 0 
-0.42545214295 -0.019965307787 0 -0.42753264308 -0.023100819439 0 -0.42943128943 -0.022812331095 0 
-0.43105980754 -0.020582890138 0 -0.431984514 -0.017977925017 0 -0.43252134323 -0.01521389652 0 
-0.43226090074 -0.011134550907 0 -0.43107056618 -0.0056246598251 0 -0.42966255546 -0.00092143105576 0 
-0.42827907205 0.0021693995222 0 -0.42721655965 0.0038279683795 0 -0.42626854777 0.0046435748227 0 
-0.42544531822 0.0051740435883 0 -0.42465990782 0.0046975123696 0 -0.4239782393 0.0026970042381 0 
-0.42278325558 -0.00028191745514 0 -0.42131352425 -0.0026918891817 0 -0.41972780228 -0.0038990788162 0 
-0.41838791966 -0.004353589844 0 -0.41668644547 -0.0034868679941 0 -0.41400334239 -0.0018934991676 0 
-0.41075825691 0.00027576964931 0 -0.4134195745 -0.0028203865513 0 -0.41482883692 -0.0029703101609 0 
-0.41600167751 -0.0038506356068 0 -0.4168767035 -0.0054254801944 0 -0.41749024391 -0.0069981794804 0 
-0.41788074374 -0.0083721773699 0 -0.41836735606 -0.0098233120516 0 -0.41909760237 -0.013208867982 0 
-0.42100986838 -0.017657086253 0 -0.42295730114 -0.020250568166 0 -0.42539852858 -0.019960142672 0 
-0.42722064257 -0.018253555521 0 -0.42866176367 -0.016441382468 0 -0.42954790592 -0.014624499716 0 
-0.42962634563 -0.011743372306 0 -0.42863869667 -0.0068885516375 0 -0.42743861675 -0.002214388689 0 
-0.42618504167 0.0010670885677 0 -0.4248495698 0.0030319974758 0 -0.42390680313 0.0041103325784 0 
-0.42332977057 0.0047138733789 0 -0.42244005203 0.0043328450993 0 -0.42139434814 0.0022973152809 0 
-0.4198769331 -0.0007335395203 0 -0.4185885787 -0.0029828271363 0 -0.41728764772 -0.0038831511047 0 
-0.41584682465 -0.0039119422436 0 -0.41422250867 -0.0030043092556 0 -0.41156855226 -0.0017626800109 0 
-0.40589177608 0.00081220205175 0 -0.40897539258 -0.0024953114334 0 -0.41127881408 -0.0029844825622 0 
-0.41255962849 -0.0038491056766 0 -0.41389116645 -0.0052627385594 0 -0.41516926885 -0.0069755972363 0 
-0.41632974148 -0.0086342282593 0 -0.41636404395 -0.0099806291983 0 -0.41658303142 -0.011723516509 0 
-0.41812989116 -0.015043367632 0 -0.42046248913 -0.0176002644 0 -0.42246311903 -0.017336755991 0 
-0.42377009988 -0.016041049734 0 -0.42468446493 -0.014437572099 0 -0.42550888658 -0.013493703678 0 
-0.4264600575 -0.011905676685 0 -0.42607104778 -0.0077744289301 0 -0.42514330149 -0.002980817575 0 
-0.42433533072 7.8556295193e-05 0 -0.42322096229 0.0019261197885 0 -0.42248684168 0.0035329489037 0 
-0.42184236646 0.0042585702613 0 -0.42087069154 0.0035474740434 0 -0.41915899515 0.0012805260485 0 
-0.41751602292 -0.0013695729431 0 -0.41590169072 -0.002884922782 0 -0.41475352645 -0.0036124370527 0 
-0.41343694925 -0.0035006438848 0 -0.41171020269 -0.002506226534 0 -0.40921002626 -0.0016215585638 0 
-0.40189263225 0.0012706615962 0 -0.40445992351 -0.0014034251217 0 -0.40684521198 -0.0023686590139 0 
-0.40835177898 -0.0035672921222 0 -0.41001534462 -0.0045033358037 0 -0.41179978848 -0.0056619360112 0 
-0.41373926401 -0.0079853935167 0 -0.41484045982 -0.010068488307 0 -0.41524496675 -0.011150793172 0 
-0.41610634327 -0.012857333757 0 -0.41843795776 -0.014926462434 0 -0.41976508498 -0.015725525096 0 
-0.42041704059 -0.015030974522 0 -0.42035913467 -0.013596684672 0 -0.42027556896 -0.011889194138 0 
-0.42153450847 -0.010676061735 0 -0.42245236039 -0.00788365677 0 -0.42217600346 -0.0032813828439 0 
-0.42168083787 -0.00011538226681 0 -0.42104762793 0.0017615512479 0 -0.42069119215 0.0032956716605 0 
-0.41997513175 0.0037069476675 0 -0.4190094471 0.0023119535763 0 -0.41724380851 -6.3002546085e-05 0 
-0.41552701592 -0.0023464518599 0 -0.41382914782 -0.0033879934344 0 -0.41240617633 -0.0033561617602 0 
-0.41112989187 -0.0032151194755 0 -0.40941178799 -0.0021176447626 0 -0.40719735622 -0.001158156083 0 
-0.39813804626 0.00042166403728 0 -0.40024811029 -0.0015747820726 0 -0.40204271674 -0.0019085617969 0 
-0.40377631783 -0.0028792249504 0 -0.40548595786 -0.0033538308926 0 -0.40764591098 -0.0040902090259 0 
-0.40979209542 -0.006050826516 0 -0.41222921014 -0.0088180284947 0 -0.41335037351 -0.010446536355 0 
-0.41421440244 -0.011246164329 0 -0.41571456194 -0.013172484003 0 -0.41705217957 -0.014787157997 0 
-0.41746133566 -0.014849229716 0 -0.41755273938 -0.013902973384 0 -0.41704678535 -0.011437335052 0 
-0.41700509191 -0.0088410582393 0 -0.41831618547 -0.0063667003997 0 -0.41856789589 -0.0028156696353 0 
-0.41809722781 -6.7262764787e-05 0 -0.41785606742 0.0017826783005 0 -0.41748514771 0.0031654504128 0 
-0.41647177935 0.0032189155463 0 -0.41515034437 0.0015085068299 0 -0.41382545233 -0.0011643695179 0 
-0.41240358353 -0.0031505385414 0 -0.4113060534 -0.0037814215757 0 -0.40993896127 -0.0034842437599 0 
-0.40862539411 -0.0029698270373 0 -0.40711241961 -0.0015524163609 0 -0.40509775281 -0.00071957783075 0 
-0.39327403903 0.00067650800338 0 -0.39594751596 -0.0015008794144 0 -0.39758616686 -0.0016073258594 0 
-0.39929208159 -0.002257250715 0 -0.40090727806 -0.0021597959567 0 -0.40296015143 -0.0021884527523 0 
-0.40563538671 -0.0036337315105 0 -0.40828514099 -0.0065451166593 0 -0.41064274311 -0.009166656062 0 
-0.41144835949 -0.010178337805 0 -0.4125058651 -0.011578952894 0 -0.41417232156 -0.013497834094 0 
-0.41482555866 -0.013998218812 0 -0.41599428654 -0.01345340535 0 -0.41725179553 -0.011892417446 0 
-0.41574248672 -0.0086124055088 0 -0.41549351811 -0.0052845412865 0 -0.41499596834 -0.0023999956902 0 
-0.41363468766 0.00025924152578 0 -0.41398659348 0.0020666974597 0 -0.41355109215 0.0025577009656 0 
-0.41251504421 0.0018956619315 0 -0.41083338857 0.00044480027282 0 -0.40964153409 -0.0015202894574 0 
-0.4088101387 -0.0029766683001 0 -0.40823715925 -0.0035105019342 0 -0.40720805526 -0.003337433096 0 
-0.40606257319 -0.0027233557776 0 -0.40452754498 -0.0010735766264 0 -0.40241271257 -0.00048037088709 0 
-0.3887270391 0.0013751990627 0 -0.39161795378 -0.00088405871065 0 -0.39355176687 -0.0012524386402 0 
-0.39504399896 -0.0017058207886 0 -0.39694711566 -0.0013215116924 0 -0.39856290817 -0.00026281084865 0 
-0.40062564611 -0.00097085378366 0 -0.40303704143 -0.0037194788456 0 -0.40591585636 -0.007215868216 0 
-0.40759041905 -0.0092669054866 0 -0.40862941742 -0.010019306093 0 -0.41024437547 -0.011905608699 0 
-0.41176712513 -0.012288953178 0 -0.41293630004 -0.010547928512 0 -0.41475751996 -0.011158904992 0 
-0.41545450687 -0.010234763846 0 -0.41342765093 -0.0063404589891 0 -0.41164261103 -0.0037509498652 0 
-0.40965110064 2.4468916308e-05 0 -0.40879303217 0.0026748736855 0 -0.40855824947 0.0022536937613 0 
-0.40813261271 0.00090573070338 0 -0.40709155798 -0.00056480540661 0 -0.40665632486 -0.0016369444784 0 
-0.40597203374 -0.0023540311959 0 -0.40518563986 -0.0028695336077 0 -0.40454754233 -0.0029765565414 0 
-0.40350994468 -0.002531203907 0 -0.40208646655 -0.0010384913767 0 -0.39981362224 -0.00071694463259 0 
-0.38509851694 0.0014119613916 0 -0.38763350248 -0.00019038624305 0 -0.38981693983 -0.00078101636609 0 
-0.39137339592 -0.00099589023739 0 -0.39342683554 -0.00038888293784 0 -0.39506092668 0.00033077882836 0 
-0.39611342549 0.00033477519173 0 -0.39755386114 -0.0012544547208 0 -0.39953872561 -0.0044688521884 0 
-0.40205803514 -0.007352496963 0 -0.40392753482 -0.0085466774181 0 -0.40550589561 -0.0097267786041 0 
-0.40762463212 -0.010451322421 0 -0.40865215659 -0.0093436930329 0 -0.40908718109 -0.0085530104116 0 
-0.41079118848 -0.0096226278692 0 -0.41015154123 -0.0086649646983 0 -0.40885579586 -0.0054552182555 0 
-0.40736758709 -0.0016184325796 0 -0.40469107032 0.0018675515894 0 -0.40360155702 0.0024415622465 0 
-0.40288865566 0.00095517962473 0 -0.40271273255 -1.2797033378e-05 0 -0.40286397934 -0.00089004216716 0 
-0.40264242887 -0.002166452352 0 -0.4017277956 -0.002385373693 0 -0.40103891492 -0.0023494923953 0 
-0.40039172769 -0.0022399220616 0 -0.39955621958 -0.0009351283079 0 -0.39777162671 -0.0010768140201 0 
-0.38182225823 0.0014601612929 0 -0.38410666585 0.00040960867773 0 -0.38628166914 1.0240623851e-05 0 
-0.38834196329 -0.000190858118 0 -0.39006480575 0.00058309099404 0 -0.39198660851 0.00098871765658 0 
-0.39330258965 0.00059301580768 0 -0.39421391487 -0.00065129931318 0 -0.39492923021 -0.0026503794361 0 
-0.39694473147 -0.0046608392149 0 -0.39914360642 -0.0061884447932 0 -0.40084180236 -0.0075246444903 0 
-0.40332350135 -0.0082919038832 0 -0.40525817871 -0.0082397926599 0 -0.40530198812 -0.0081454161555 0 
-0.40531724691 -0.0085305897519 0 -0.4063102603 -0.0077413595282 0 -0.40632617474 -0.0055997218005 0 
-0.40583911538 -0.0031596836634 0 -0.40310668945 -0.00037004207843 0 -0.40055370331 0.00090285920305 0 
-0.3989161253 0.00060736434534 0 -0.39840087295 0.00066193699604 0 -0.39777484536 0.0002490390907 0 
-0.39774945378 -0.001143122674 0 -0.39737099409 -0.0019097478362 0 -0.39665654302 -0.0016552751185 0 
-0.39648619294 -0.0011529681506 0 -0.39629983902 6.738929369e-05 0 -0.39544767141 -0.00078662938904 0 
-0.37914833426 0.0016701536952 0 -0.38088560104 0.0010653552599 0 -0.38288596272 0.0011246828362 0 
-0.38491684198 0.00071617774665 0 -0.38658961654 0.0014273060951 0 -0.38850414753 0.0020815546159 0 
-0.39039641619 0.0014242394827 0 -0.39173987508 -0.00037483073538 0 -0.39244604111 -0.002021930879 0 
-0.3935572505 -0.0030363355763 0 -0.39545240998 -0.0042721498758 0 -0.39701002836 -0.0048764306121 0 
-0.40024921298 -0.0051545505412 0 -0.40271824598 -0.0065890983678 0 -0.4033074975 -0.0079049719498 0 
-0.40309029818 -0.0079479208216 0 -0.40347960591 -0.0067219962366 0 -0.40282279253 -0.0046760202385 0 
-0.40168765187 -0.003635461675 0 -0.40042984486 -0.0026659190189 0 -0.39773344994 -0.0013639344834 0 
-0.39616650343 -0.00064464891329 0 -0.39530497789 7.2439397627e-05 0 -0.39393413067 0.00046387204202 0 
-0.39347597957 -4.3032116082e-05 0 -0.39325538278 -0.00082746701082 0 -0.39313614368 -0.00059864425566 0 
-0.39292347431 0.00019088762929 0 -0.39263147116 0.0016207864974 0 -0.39219635725 -6.2106715632e-05 0 
-0.3771840632 0.0013268331531 0 -0.3783018589 0.0011407801649 0 -0.37955588102 0.0018184271175 0 
-0.38092678785 0.001441479777 0 -0.38251850009 0.0022689430043 0 -0.38442966342 0.0032633061055 0 
-0.38635477424 0.0026442196686 0 -0.38796854019 0.00048671170953 0 -0.38921177387 -0.0014270751271 0 
-0.39065173268 -0.0018467976479 0 -0.39385071397 -0.0025020372123 0 -0.39713665843 -0.0021141101606 0 
-0.39907181263 -0.0017171215732 0 -0.40093994141 -0.004445950035 0 -0.40134468675 -0.0072411336005 0 
-0.40108317137 -0.007727404125 0 -0.4009988308 -0.0070434743538 0 -0.39949443936 -0.0060663647018 0 
-0.39685600996 -0.0042326655239 0 -0.39489170909 -0.003513434669 0 -0.39319807291 -0.0028886615764 0 
-0.39257961512 -0.0012048522476 0 -0.39180338383 -0.00038173905341 0 -0.39069113135 0.00037131007412 0 
-0.38962632418 0.00075529544847 0 -0.38963726163 0.00045967064216 0 -0.38988482952 0.00058711256133 0 
-0.3897895515 0.00089841155568 0 -0.38932910562 0.0025054919533 0 -0.38856655359 0.00029755180003 0 
-0.37427026033 0.0015376904048 0 -0.37530440092 0.00068629381713 0 -0.37585222721 0.0015931513626 0 
-0.37672033906 0.0015853078803 0 -0.37814062834 0.0029513030313 0 -0.38035696745 0.0042752465233 0 
-0.38194641471 0.0036767772399 0 -0.38359361887 0.0014776597964 0 -0.38524192572 -0.00010655824008 0 
-0.38772791624 0.0011922436533 0 -0.39227965474 0.0023171124049 0 -0.39931714535 0.00085481896531 0 
-0.40005859733 -0.00063386419788 0 -0.39972934127 -0.0036473961081 0 -0.39881265163 -0.0072497385554 0 
-0.39812865853 -0.0076854373328 0 -0.39781233668 -0.0073757702485 0 -0.39723357558 -0.0075730360113 0 
-0.39502096176 -0.006884005852 0 -0.39119046926 -0.0054179709405 0 -0.38920855522 -0.0031482772902 0 
-0.38842442632 -0.0012945636408 0 -0.38703224063 -0.00057244539494 0 -0.38566994667 0.00024405278964 0 
-0.38351127505 0.0015099764569 0 -0.38366276026 0.0021806331351 0 -0.38451361656 0.002064462984 0 
-0.38516300917 0.0019243977731 0 -0.38544130325 0.0029721448664 0 -0.38430994749 -0.00030134667759 0 
-0.3682743907 0.0021750878077 0 -0.36965027452 0.00021939560247 0 -0.37044855952 0.0011418331414 0 
-0.37115600705 0.0016154531622 0 -0.37328481674 0.0038422236685 0 -0.37571886182 0.005295435898 0 
-0.37773230672 0.0044497749768 0 -0.37942704558 0.0026411744766 0 -0.38196057081 0.0017433613539 0 
-0.3846102953 0.0046222456731 0 -0.38793215156 0.0090630464256 0 -0.39299690723 0.0061512333341 0 
-0.39781287313 -0.00065923365764 0 -0.39690563083 -0.0050474512391 0 -0.39578697085 -0.0083647305146 0 
-0.3950227499 -0.0081339646131 0 -0.39430430532 -0.006989385467 0 -0.39423564076 -0.00755921565 0 
-0.39273622632 -0.0088465269655 0 -0.39058738947 -0.0082069858909 0 -0.38765528798 -0.0049037607387 0 
-0.38451653719 -0.0025383003522 0 -0.38247185946 -0.0018412203062 0 -0.37979030609 -0.001133281854 0 
-0.3768542707 0.0015013435623 0 -0.37597066164 0.004377309233 0 -0.37767642736 0.0046233008616 0 
-0.37923154235 0.0039770416915 0 -0.37946283817 0.003841153346 0 -0.37860387564 -0.0012100000167 0 
-0.35999983549 0.0026911653113 0 -0.36180028319 0.00030534423422 0 -0.36249572039 0.0010760556906 0 
-0.36398416758 0.0022942805663 0 -0.3667024076 0.0053427433595 0 -0.36892226338 0.0067757894285 0 
-0.37153297663 0.005758933723 0 -0.37326616049 0.0043880441226 0 -0.37672543526 0.0038498165086 0 
-0.37995260954 0.0063216686249 0 -0.38169702888 0.010885761119 0 -0.38186463714 0.011191934347 0 
-0.38630622625 0.0037770399358 0 -0.38969680667 -0.0050223036669 0 -0.39165553451 -0.0087191248313 0 
-0.39142936468 -0.0086096739396 0 -0.39028477669 -0.0071606831625 0 -0.38931244612 -0.0077829668298 0 
-0.38791948557 -0.0090624513105 0 -0.3862401545 -0.0092210425064 0 -0.38415369391 -0.0081562139094 0 
-0.38061195612 -0.0054576764815 0 -0.37780308723 -0.0039262385108 0 -0.37562572956 -0.0032709101215 0 
-0.37412524223 0.00054608442588 0 -0.37108144164 0.0060493103229 0 -0.37170091271 0.0078759351745 0 
-0.37347662449 0.0058178799227 0 -0.37336325645 0.0044541577809 0 -0.37238240242 -0.0012545322534 0 
-0.35289356112 0.0025446366053 0 -0.35470929742 1.6570271328e-05 0 -0.35535049438 0.001396853826 0 
-0.35654866695 0.0036976484116 0 -0.35894486308 0.006504651159 0 -0.3612780571 0.0079198824242 0 
-0.36329934001 0.0069079264067 0 -0.36505123973 0.0063546313904 0 -0.36801949143 0.0070006498136 0 
-0.37234473228 0.0084389857948 0 -0.37481155992 0.010932725854 0 -0.37459370494 0.011434369721 0 
-0.37452432513 0.0077882669866 0 -0.37990477681 0.00061873963568 0 -0.38521689177 -0.0063636857085 0 
-0.38610082865 -0.0089890724048 0 -0.38519433141 -0.00803121645 0 -0.38346862793 -0.0085227191448 0 
-0.38207402825 -0.010399890132 0 -0.37886971235 -0.010649906471 0 -0.3762755394 -0.0095811039209 0 
-0.37428501248 -0.0078057637438 0 -0.37167865038 -0.0053322636522 0 -0.3711450994 -0.002777149668 0 
-0.37195327878 -0.00029678488499 0 -0.36960509419 0.0050227465108 0 -0.36730766296 0.0095702810213 0 
-0.36725911498 0.0076118484139 0 -0.36724352837 0.0047217016108 0 -0.366522789 -0.0021897738334 0 
-0.34859463573 0.0020878582727 0 -0.34926098585 8.0697151134e-05 0 -0.35095509887 0.0012267510174 0 
-0.35100695491 0.0039470330812 0 -0.35209023952 0.0076306136325 0 -0.35455989838 0.0086172474548 0 
-0.35629144311 0.0073563074693 0 -0.35876783729 0.0075199217536 0 -0.36014154553 0.0097227096558 0 
-0.36421105266 0.011731304228 0 -0.36734750867 0.01263129618 0 -0.36877819896 0.01149708312 0 
-0.36878630519 0.0097686834633 0 -0.37176778913 0.0059339641593 0 -0.37703168392 -0.0024555893615 0 
-0.37967160344 -0.0082590747625 0 -0.37931033969 -0.0086874738336 0 -0.37829816341 -0.0094071812928 0 
-0.37601098418 -0.012078141794 0 -0.37359142303 -0.013582090847 0 -0.36951285601 -0.011800470762 0 
-0.36641967297 -0.0090871155262 0 -0.36490893364 -0.0055305818096 0 -0.36391660571 -0.00092638534261 0 
-0.36312240362 0.0014936737716 0 -0.36469435692 0.0042730318382 0 -0.36184343696 0.0082798553631 0 
-0.35973709822 0.0077432035469 0 -0.35910725594 0.0054853796028 0 -0.35876393318 -0.0021396644879 0 
-0.3454888165 0.00079876667587 0 -0.34454074502 0.00010350241791 0 -0.34508803487 0.0016910085687 0 
-0.34708595276 0.0031470619142 0 -0.34697058797 0.0076143527403 0 -0.34710600972 0.0093081826344 0 
-0.35003015399 0.0085484655574 0 -0.35317191482 0.0084268478677 0 -0.35483300686 0.011066474952 0 
-0.35688835382 0.014224430546 0 -0.36008024216 0.014677625149 0 -0.36229774356 0.013066568412 0 
-0.36414921284 0.011479716748 0 -0.36541989446 0.0092578753829 0 -0.36872640252 0.0015024606837 0 
-0.3727838695 -0.0065288459882 0 -0.37283504009 -0.0083716390654 0 -0.37234580517 -0.01025411766 0 
-0.3696603477 -0.013440823182 0 -0.36766293645 -0.015621094964 0 -0.36488452554 -0.015410373919 0 
-0.36039716005 -0.011264045723 0 -0.35833069682 -0.0061641721986 0 -0.35602611303 -0.0018291015876 0 
-0.3531344831 0.0031972308643 0 -0.35301208496 0.0063139330596 0 -0.35264396667 0.0073886318132 0 
-0.35098779202 0.0069412430748 0 -0.34967631102 0.0054567069747 0 -0.34864264727 -0.0027314184699 0 
-0.33994224668 0.00012126976799 0 -0.33945810795 -0.0015403140569 0 -0.33857706189 0.0025704079308 0 
-0.34065845609 0.0040385937318 0 -0.34212172031 0.0054537993856 0 -0.34066185355 0.0087343519554 0 
-0.34202191234 0.010375656188 0 -0.34515064955 0.010185583495 0 -0.35013696551 0.01196134463 0 
-0.35077238083 0.015608960763 0 -0.3525505662 0.017039904371 0 -0.35552343726 0.015382919461 0 
-0.35841390491 0.013420347124 0 -0.35937511921 0.011128664017 0 -0.36015987396 0.0048634363338 0 
-0.36306095123 -0.0041424976662 0 -0.36448732018 -0.0080888010561 0 -0.36311793327 -0.010982055217 0 
-0.36167824268 -0.015058341436 0 -0.35846880078 -0.016875643283 0 -0.3571664989 -0.017624704167 0 
-0.35393565893 -0.014062283561 0 -0.35011637211 -0.007829060778 0 -0.34761145711 -0.0030037928373 0 
-0.34584316611 0.002058617305 0 -0.34246754646 0.0067834802903 0 -0.34211447835 0.008600643836 0 
-0.34078723192 0.0066756778397 0 -0.33917713165 0.0048621194437 0 -0.33841148019 -0.0034023802727 0 
-0.33224400878 0.0013620696263 0 -0.33250701427 -0.0017805111129 0 -0.33276569843 0.0022640055977 0 
-0.33292624354 0.0049045654014 0 -0.33518561721 0.0050797387958 0 -0.33606737852 0.0063382061198 0 
-0.33525747061 0.010006476194 0 -0.33691838384 0.013779772446 0 -0.34107205272 0.014764861204 0 
-0.3460201323 0.015414712951 0 -0.34639760852 0.018438724801 0 -0.347481668 0.018409946933 0 
-0.35004416108 0.015622357838 0 -0.35138046741 0.011835443787 0 -0.35060501099 0.005584590137 0 
-0.351054281 -0.0021356670186 0 -0.35241472721 -0.007330163382 0 -0.35123932362 -0.011453761719 0 
-0.35052773356 -0.016484079883 0 -0.34795770049 -0.018597355112 0 -0.3463780582 -0.018722333014 0 
-0.34509411454 -0.016514487565 0 -0.34095585346 -0.0099741443992 0 -0.33804252744 -0.0030725307297 0 
-0.33602002263 0.001844389597 0 -0.33418875933 0.0061296969652 0 -0.33121809363 0.0081249885261 0 
-0.32932135463 0.0057557127438 0 -0.32782655954 0.0047385445796 0 -0.3273870945 -0.0029982370324 0 
-0.32399082184 0.001432216377 0 -0.32381308079 -0.0015243806411 0 -0.32477030158 0.0026427996345 0 
-0.32588940859 0.0050090476871 0 -0.32651183009 0.0055002844892 0 -0.32870930433 0.0054097352549 0 
-0.33020529151 0.0083627235144 0 -0.3310392499 0.01369089447 0 -0.33053231239 0.018644690514 0 
-0.33668980002 0.01897963509 0 -0.33898714185 0.01787741296 0 -0.33790716529 0.018828492612 0 
-0.33830857277 0.017463264987 0 -0.33920094371 0.012544007972 0 -0.33912292123 0.0054224445485 0 
-0.33899310231 -0.0017593913944 0 -0.3388980329 -0.0068687517196 0 -0.33841398358 -0.011377215385 0 
-0.33743783832 -0.016980757937 0 -0.33622854948 -0.019581889734 0 -0.33500811458 -0.019264623523 0 
-0.33501517773 -0.017743013799 0 -0.33239650726 -0.012074797414 0 -0.3288103044 -0.0044452827424 0 
-0.32519096136 0.0019153528847 0 -0.32315173745 0.0055732415058 0 -0.31947311759 0.0064947479405 0 
-0.31709089875 0.0048351762816 0 -0.31610229611 0.0043861838058 0 -0.31531968713 -0.0033899357077 0 
-0.31459856033 0.0015383280115 0 -0.31441301107 -0.0013436337467 0 -0.31488594413 0.0039422539994 0 
-0.31686228514 0.0053609875031 0 -0.31764101982 0.0047891424038 0 -0.31809476018 0.0056563126855 0 
-0.32112205029 0.0087013430893 0 -0.32409316301 0.012341689318 0 -0.32418707013 0.018786478788 0 
-0.32535263896 0.021676205099 0 -0.32812121511 0.018738163635 0 -0.32733762264 0.017998671159 0 
-0.32518184185 0.017398256809 0 -0.32418894768 0.013388410211 0 -0.32489827275 0.0062238904648 0 
-0.32544586062 -0.0014265534701 0 -0.32523947954 -0.006663619075 0 -0.32436972857 -0.011420737952 0 
-0.3240814805 -0.01741720736 0 -0.32335057855 -0.019815707579 0 -0.32230308652 -0.018714230508 0 
-0.32311609387 -0.017533197999 0 -0.32226955891 -0.013293328695 0 -0.3191499114 -0.006199601572 0 
-0.31548121572 0.00048687402159 0 -0.31135991216 0.004179533571 0 -0.3077570796 0.0047419909388 0 
-0.30466935039 0.003680420341 0 -0.3036352396 0.0042031249031 0 -0.30307522416 -0.0035517027136 0 
-0.30421757698 0.0020386963151 0 -0.30458956957 -0.0011348737171 0 -0.30509197712 0.0049841022119 0 
-0.30549496412 0.0063831596635 0 -0.30787786841 0.003675730899 0 -0.3078135848 0.0042673014104 0 
-0.30832114816 0.0097476048395 0 -0.31179523468 0.013934240676 0 -0.31657001376 0.018797883764 0 
-0.31601172686 0.021717119962 0 -0.31695234776 0.018818587065 0 -0.31564477086 0.01626721397 0 
-0.31247922778 0.0154030798 0 -0.30914708972 0.013188942336 0 -0.30844396353 0.0073968884535 0 
-0.30909284949 -0.00048401165986 0 -0.3095883131 -0.0065218880773 0 -0.3079098165 -0.011028481647 0 
-0.3090223372 -0.01693279855 0 -0.31002813578 -0.020135549828 0 -0.30834999681 -0.01813540794 0 
-0.30886277556 -0.016248544678 0 -0.30922362208 -0.013259470463 0 -0.3071757257 -0.0070970859379 0 
-0.30411830544 -0.0010821704054 0 -0.29972627759 0.0019888021052 0 -0.2952888608 0.0023227802012 0 
-0.29172244668 0.0018791782204 0 -0.28991129994 0.0039278655313 0 -0.28940263391 -0.0034048114903 0 
-0.29326432943 0.0031416129787 0 -0.29389056563 -0.00018413369253 0 -0.29485294223 0.0053206006996 0 
-0.29399880767 0.0069282478653 0 -0.29499533772 0.0035878778435 0 -0.29868626595 0.0016207738081 0 
-0.29827463627 0.0083417212591 0 -0.29960721731 0.016607135534 0 -0.30337131023 0.021006509662 0 
-0.30388459563 0.02148595266 0 -0.30380555987 0.017812518403 0 -0.30148425698 0.013964330778 0 
-0.30004259944 0.012355804443 0 -0.29579865932 0.010984716937 0 -0.29198479652 0.0073528233916 0 
-0.29135936499 0.0007212717901 0 -0.29222553968 -0.0063385893591 0 -0.2914929688 -0.010507994331 0 
-0.29155188799 -0.014791013673 0 -0.29412916303 -0.01944786869 0 -0.29432454705 -0.018038215116 0 
-0.29310184717 -0.014840005897 0 -0.29381379485 -0.01224836614 0 -0.29198071361 -0.0071956170723 0 
-0.28857114911 -0.0021066737827 0 -0.2840129137 -0.00036071639624 0 -0.28023535013 -0.00076566002099 0 
-0.27698856592 -0.00061686773552 0 -0.27561357617 0.003087280551 0 -0.27398839593 -0.003465726506 0 
-0.28129461408 0.0041236695834 0 -0.28174009919 0.00085163040785 0 -0.28195339441 0.0058414083906 0 
-0.2813180685 0.0060007590801 0 -0.28071832657 0.0042084055021 0 -0.28606507182 0.0018600153271 0 
-0.29054924846 0.0065380902961 0 -0.29111114144 0.015874054283 0 -0.29094710946 0.021209266037 0 
-0.29066094756 0.021469583735 0 -0.28904977441 0.016263507307 0 -0.28729599714 0.012594107538 0 
-0.28586781025 0.01066243276 0 -0.28321826458 0.0074596907943 0 -0.27806034684 0.0052169668488 0 
-0.27546840906 0.0012566146906 0 -0.27518033981 -0.0051216054708 0 -0.27641689777 -0.010145298205 0 
-0.2754008472 -0.013576111756 0 -0.27725630999 -0.017048152164 0 -0.27863532305 -0.017218673602 0 
-0.27720806003 -0.014147226699 0 -0.27672606707 -0.011259394698 0 -0.27453199029 -0.0077300751582 0 
-0.26981383562 -0.0037109707482 0 -0.26427519321 -0.0021730833687 0 -0.26151064038 -0.0027649558615 0 
-0.26059728861 -0.0022392107639 0 -0.26094564795 0.0021598332096 0 -0.25900268555 -0.0042389365844 0 
-0.2679335475 0.0050567374565 0 -0.26812499762 0.0012765352149 0 -0.26619371772 0.0059812762775 0 
-0.2655813396 0.0053211739287 0 -0.26646146178 0.0041401321068 0 -0.27028536797 0.004041721113 0 
-0.27838739753 0.0076374034397 0 -0.28096985817 0.014619311318 0 -0.28015348315 0.01967382431 0 
-0.2786436379 0.019492762163 0 -0.27660790086 0.014448490925 0 -0.27604547143 0.010771394707 0 
-0.27141827345 0.0088422056288 0 -0.26930037141 0.005131022539 0 -0.26554062963 0.0025568979327 0 
-0.26215308905 0.00028238102095 0 -0.26034006476 -0.0040863640606 0 -0.26141521335 -0.0089257704094 0 
-0.26143285632 -0.012612385675 0 -0.2620588243 -0.015622495674 0 -0.26242226362 -0.016216171905 0 
-0.26154351234 -0.013477205299 0 -0.25925934315 -0.010891467333 0 -0.25668114424 -0.0086940554902 0 
-0.25162726641 -0.0061548165977 0 -0.24609659612 -0.0042965998873 0 -0.24307760596 -0.0034735866357 0 
-0.24404259026 -0.002002625959 0 -0.24558797479 0.0023386988323 0 -0.24478369951 -0.0038326908834 0 
-0.25393074751 0.0053389710374 0 -0.25400522351 0.0005936009693 0 -0.25004002452 0.0051921270788 0 
-0.24862591922 0.0053720027208 0 -0.25114440918 0.0045157321729 0 -0.25577419996 0.0059240651317 0 
-0.26201629639 0.009881013073 0 -0.26663830876 0.01433609426 0 -0.26601150632 0.018078813329 0 
-0.26371774077 0.018019054085 0 -0.26294845343 0.013371274807 0 -0.26305934787 0.0079109854996 0 
-0.25750488043 0.0052685048431 0 -0.2538241148 0.0030224176589 0 -0.25188571215 0.0007689477643 0 
-0.249336496 -0.00088716228493 0 -0.24748595059 -0.0039063822478 0 -0.24659126997 -0.0077605624683 0 
-0.24731820822 -0.011408601888 0 -0.24725858867 -0.014552407898 0 -0.24784769118 -0.015485403128 0 
-0.24627700448 -0.013396503404 0 -0.24296101928 -0.011081209406 0 -0.23970547318 -0.0094219446182 0 
-0.23544105887 -0.0078782597557 0 -0.23157064617 -0.0061819227412 0 -0.22867316008 -0.004242522642 0 
-0.22944195569 -0.0015710968291 0 -0.23097571731 0.0030289064161 0 -0.23097896576 -0.0026033406612 0 
-0.23981747031 0.0053307097405 0 -0.23975025117 -0.00051711389096 0 -0.23580704629 0.0035292552784 0 
-0.23349641263 0.0053414553404 0 -0.23587207496 0.0059446883388 0 -0.24204818904 0.0072777913883 0 
-0.24642497301 0.011154680513 0 -0.24950969219 0.014248795807 0 -0.24988293648 0.015761950985 0 
-0.24669454992 0.016263514757 0 -0.24505734444 0.012959358282 0 -0.24422685802 0.0057373326272 0 
-0.24294197559 0.0015377420932 0 -0.23876595497 0.0010501763318 0 -0.23799712956 0.00015678130148 0 
-0.23701420426 -0.0012421358842 0 -0.23540605605 -0.0042420132086 0 -0.23363685608 -0.0072887712158 0 
-0.23345515132 -0.010269625112 0 -0.23350796103 -0.013223184273 0 -0.2342069447 -0.014528082684 0 
-0.23261329532 -0.013694505207 0 -0.22920010984 -0.011609276757 0 -0.22493734956 -0.0099184224382 0 
-0.22122097015 -0.0083340387791 0 -0.21823108196 -0.0069542150013 0 -0.21682426333 -0.0050685550086 0 
-0.21749700606 -0.0019136422779 0 -0.21957026422 0.0032137525268 0 -0.21932512522 -0.0010551618179 0 
-0.22646853328 0.0045817927457 0 -0.22534266114 -0.0010464953957 0 -0.2223046273 0.0023992832284 0 
-0.22074362636 0.0047213328071 0 -0.22237831354 0.0071734711528 0 -0.22820360959 0.008635818027 0 
-0.23282043636 0.010761378333 0 -0.23365873098 0.013277315535 0 -0.2344018966 0.013711352833 0 
-0.23220056295 0.013383713551 0 -0.22884677351 0.010803477839 0 -0.22649097443 0.0051611978561 0 
-0.22875379026 0.0004445562372 0 -0.22733913362 -0.00033640119364 0 -0.22697599232 0.00056997960201 0 
-0.22668400407 -0.0010057836771 0 -0.22520886362 -0.0044954791665 0 -0.22362536192 -0.0072912354954 0 
-0.22210769355 -0.0094612482935 0 -0.22215072811 -0.011744849384 0 -0.22206921875 -0.013398910873 0 
-0.22114542127 -0.013487119228 0 -0.21813189983 -0.012283156626 0 -0.21351286769 -0.010556995869 0 
-0.20936013758 -0.0085741458461 0 -0.20573475957 -0.0069039147347 0 -0.20516529679 -0.0050165960565 0 
-0.20694281161 -0.001970551908 0 -0.21102501452 0.0029362221248 0 -0.21143628657 -0.00059613387566 0 
-0.21567411721 0.0025293631479 0 -0.21235588193 -0.0014912165934 0 -0.2084839642 0.0024605828803 0 
-0.20835530758 0.0046017286368 0 -0.21089708805 0.0076398290694 0 -0.21516853571 0.009574518539 0 
-0.22056469321 0.010076746345 0 -0.22231847048 0.011522110552 0 -0.2223700285 0.011917922646 0 
-0.22204048932 0.010754513554 0 -0.21848033369 0.0080468254164 0 -0.21673974395 0.0045849760063 0 
-0.21791836619 0.0012538285227 0 -0.22018219531 1.7442787794e-05 0 -0.21991723776 0.00097262876807 0 
-0.21879293025 -0.00070441141725 0 -0.21774475276 -0.0045763999224 0 -0.21592833102 -0.0075370804407 0 
-0.21386188269 -0.0090911388397 0 -0.21294157207 -0.01068295911 0 -0.21182255447 -0.012199762277 0 
-0.21113581955 -0.012773580849 0 -0.20847484469 -0.012535627931 0 -0.20475144684 -0.011226042174 0 
-0.19986103475 -0.009240061976 0 -0.19557531178 -0.0070690042339 0 -0.19385701418 -0.0045457910746 0 
-0.19659015536 -0.0011212687241 0 -0.20250731707 0.0034362822771 0 -0.20577186346 0.00016452907585 0 
-0.20794528723 -0.00031879488961 0 -0.20226873457 -0.0025260723196 0 -0.19604444504 0.0027848356403 0 
-0.19619454443 0.0054279319011 0 -0.20018568635 0.0079464893788 0 -0.20446208119 0.0099809477106 0 
-0.20989087224 0.010234681889 0 -0.21327476203 0.010220996104 0 -0.21428014338 0.010418691672 0 
-0.21454295516 0.0086883138865 0 -0.2125634402 0.0059321229346 0 -0.21160390973 0.0038608498871 0 
-0.21186162531 0.0022505125962 0 -0.21446949244 0.001344513963 0 -0.21414533257 0.00099176284857 0 
-0.21238403022 -0.00071485154331 0 -0.21095642447 -0.0046442355961 0 -0.20932035148 -0.0079833595082 0 
-0.20721186697 -0.0091670406982 0 -0.20518498123 -0.010323124006 0 -0.20360991359 -0.011322638951 0 
-0.20190647244 -0.011855405755 0 -0.19972275198 -0.012107205577 0 -0.19651989639 -0.011421198957 0 
-0.19179490209 -0.0099729578942 0 -0.18714725971 -0.0077367108315 0 -0.18414472044 -0.0045497487299 0 
-0.18637785316 -0.00025305827148 0 -0.19325195253 0.0046683442779 0 -0.19952000678 0.0016920441994 0 
-0.20244206488 -0.0025682318956 0 -0.19399763644 -0.0037719942629 0 -0.18585711718 0.0027501359582 0 
-0.18571172655 0.0063695413992 0 -0.19045457244 0.0086710108444 0 -0.19608204067 0.010324508883 0 
-0.20125906169 0.010251956061 0 -0.20494271815 0.0097719673067 0 -0.20719876885 0.0094417165965 0 
-0.20741182566 0.0073164114729 0 -0.20766533911 0.0045887553133 0 -0.20731802285 0.0032547195442 0 
-0.20751018822 0.0029188878834 0 -0.20810516179 0.0021025897004 0 -0.207467556 0.00093830097467 0 
-0.20565798879 -0.0010655777296 0 -0.20372289419 -0.0048020556569 0 -0.20273646712 -0.008093633689 0 
-0.2012758404 -0.0094500891864 0 -0.19900007546 -0.010150776245 0 -0.19752168655 -0.010856433772 0 
-0.19488300383 -0.011199212633 0 -0.19256438315 -0.011369980872 0 -0.18910875916 -0.011248207651 0 
-0.18461491168 -0.01030401513 0 -0.17974029481 -0.0084872571751 0 -0.17606219649 -0.0051462920383 0 
-0.17721134424 -0.00019945783424 0 -0.18460816145 0.0056905727834 0 -0.19362956285 0.0037946330849 0 
-0.19860541821 -0.0046944990754 0 -0.18557247519 -0.0048744147643 0 -0.17697763443 0.0028481408954 0 
-0.17693971097 0.0072456374764 0 -0.18263158202 0.0095558576286 0 -0.1891425997 0.010742072947 0 
-0.19474001229 0.010050300509 0 -0.19863419235 0.0092452792451 0 -0.20069304109 0.0085748797283 0 
-0.2014285475 0.0065658101812 0 -0.20249718428 0.0042312527075 0 -0.20356485248 0.0029096247163 0 
-0.20345512033 0.0027239285409 0 -0.20209205151 0.0020475436468 0 -0.20077045262 0.00076930271462 0 
-0.1989351064 -0.0014026090503 0 -0.19731590152 -0.0047380411997 0 -0.19700068235 -0.007650510408 0 
-0.1964803189 -0.0092069506645 0 -0.1950340569 -0.0097799329087 0 -0.19345296919 -0.01035891287 0 
-0.19113227725 -0.010740260594 0 -0.18817059696 -0.010859194212 0 -0.18440832198 -0.011027077213 0 
-0.17968679965 -0.010462915525 0 -0.17429991066 -0.0091137448326 0 -0.17000001669 -0.0060680871829 0 
-0.16997236013 -0.0010216571391 0 -0.17806687951 0.0061332699843 0 -0.19102777541 0.0064015388489 0 
-0.19679513574 -0.0072670956142 0 -0.17707084119 -0.005639791023 0 -0.16857598722 0.0036789849401 0 
-0.16991139948 0.0082787256688 0 -0.17672590911 0.010544958524 0 -0.18398874998 0.011209540069 0 
-0.19023561478 0.010045948438 0 -0.19472800195 0.0086240265518 0 -0.19642195106 0.0077150128782 0 
-0.19771523774 0.0060072988272 0 -0.19867764413 0.0042920750566 0 -0.20021131635 0.0030150138773 0 
-0.20011270046 0.0020171820652 0 -0.1982294023 0.0012044237228 0 -0.19615085423 0.00033851078479 0 
-0.19419883192 -0.0015240059001 0 -0.19325703382 -0.004231041763 0 -0.19327947497 -0.0066768038087 0 
-0.1934351474 -0.0083125922829 0 -0.19264812768 -0.0090603083372 0 -0.191202268 -0.0096448268741 0 
-0.18937924504 -0.010147764347 0 -0.18633590639 -0.010504096746 0 -0.18247637153 -0.010841988027 0 
-0.17753995955 -0.010685633868 0 -0.17143775523 -0.0098092574626 0 -0.16605578363 -0.0073264297098 0 
-0.16444897652 -0.0026466152631 0 -0.17304965854 0.0061814822257 0 -0.19229075313 0.0088090738282 0 
-0.19758115709 -0.0099067417905 0 -0.16921766102 -0.0060875257477 0 -0.1612033993 0.0056081744842 0 
-0.16509474814 0.0097177354619 0 -0.1730876565 0.011575836688 0 -0.18110251427 0.011785496026 0 
-0.18780072033 0.010250079446 0 -0.19282561541 0.0081110512838 0 -0.19436883926 0.0069396761246 0 
-0.19559286535 0.0055448208004 0 -0.19643102586 0.0041801375337 0 -0.19736939669 0.0029899533838 0 
-0.19708266854 0.0015130414395 0 -0.19599661231 0.00039095562533 0 -0.19419631362 -0.00031744566513 0 
-0.19228905439 -0.001472726115 0 -0.19175235927 -0.0034909660462 0 -0.19149458408 -0.0055493409745 0 
-0.19167736173 -0.0071944454685 0 -0.19091150165 -0.0081414543092 0 -0.18966837227 -0.0086831878871 0 
-0.18814320862 -0.0093575976789 0 -0.18541195989 -0.010005482472 0 -0.1817073226 -0.010598894209 0 
-0.17667759955 -0.010946793482 0 -0.17001135647 -0.010702988133 0 -0.16317239404 -0.0090601816773 0 
-0.15936480463 -0.0052458820865 0 -0.16756857932 0.0059479232877 0 -0.1955524683 0.010623194277 0 
-0.20036406815 -0.011480470188 0 -0.16140078008 -0.0058743078262 0 -0.15526048839 0.0087408684194 0 
-0.16231174767 0.011616983451 0 -0.17156307399 0.012654546648 0 -0.1801507175 0.012330863625 0 
-0.18699516356 0.010540271178 0 -0.19200320542 0.0076681203209 0 -0.19398123026 0.0060011246242 0 
-0.19411179423 0.0049217715859 0 -0.19472211599 0.0038192758802 0 -0.19500817358 0.0026300258469 0 
-0.19467918575 0.0011997371912 0 -0.19397622347 0.00022407207871 0 -0.19357022643 -0.00053529505385 0 
-0.1923507899 -0.0012941026362 0 -0.19120162725 -0.0028651859611 0 -0.1907672137 -0.0047017694451 0 
-0.19046288729 -0.0062591643073 0 -0.19004777074 -0.0072596818209 0 -0.18840639293 -0.0076217046008 0 
-0.1869571507 -0.0083623863757 0 -0.18454156816 -0.009323454462 0 -0.18099938333 -0.01023873128 0 
-0.17605443299 -0.011157616973 0 -0.16899000108 -0.011701820418 0 -0.16078086197 -0.011222714558 0 
-0.15398095548 -0.008938331157 0 -0.16053943336 0.0051871957257 0 -0.19914934039 0.011253028177 0 
-0.20282402635 -0.010515194386 0 -0.15267653763 -0.004478125833 0 -0.15049822628 0.013141754083 0 
-0.16125333309 0.013843415305 0 -0.17156560719 0.013695188798 0 -0.18028953671 0.012775733136 0 
-0.18684771657 0.010589511134 0 -0.19138546288 0.0073934434913 0 -0.19406551123 0.0049368785694 0 
-0.19339589775 0.0037683863193 0 -0.1933837235 0.003198603401 0 -0.19323715568 0.0021807148587 0 
-0.19315597415 0.00093065062538 0 -0.19231405854 0.00051080505364 0 -0.19266098738 5.6345357734e-05 0 
-0.19228303432 -0.0011655502021 0 -0.19012159109 -0.0025609089062 0 -0.18951787055 -0.0039862445556 0 
-0.18919734657 -0.0052649606951 0 -0.18976822495 -0.0063692191616 0 -0.18782997131 -0.0068139205687 0 
-0.18596173823 -0.0073231002316 0 -0.18366542459 -0.0085194557905 0 -0.18042288721 -0.0097416909412 0 
-0.17571461201 -0.011208250187 0 -0.1684949249 -0.012625750154 0 -0.15920476615 -0.013641994447 0 
-0.14884275198 -0.013679939322 0 -0.1518215239 0.0033762562089 0 -0.20169825852 0.0096239158884 0 
-0.20156414807 -0.0037372044753 0 -0.14281843603 -0.00030693397275 0 -0.14751203358 0.01850155741 0 
-0.16208936274 0.016182467341 0 -0.17280957103 0.014453635551 0 -0.18123847246 0.012774368748 0 
-0.18650005758 0.010262186639 0 -0.19070340693 0.0070928176865 0 -0.19288115203 0.0040618702769 0 
-0.19326046109 0.0024239935447 0 -0.19265040755 0.0022436769214 0 -0.19242402911 0.001696609077 0 
-0.19226588309 0.00070808717282 0 -0.19136254489 0.00076345755951 0 -0.19053432345 0.00080760422861 0 
-0.1900344044 -0.0010486874962 0 -0.18824853003 -0.002594480291 0 -0.18696993589 -0.0032894995529 0 
-0.18722766638 -0.0038501371164 0 -0.18793641031 -0.0051123201847 0 -0.18714626133 -0.0061407359317 0 
-0.18468849361 -0.006492217537 0 -0.18264091015 -0.0075977076776 0 -0.17991498113 -0.0090047176927 0 
-0.1757646203 -0.011021169834 0 -0.16863575578 -0.013302103616 0 -0.15874186158 -0.016013566405 0 
-0.14490820467 -0.019137216732 0 -0.14151705801 -0.00091138359858 0 -0.20045189559 0.0026988571044 0 
-0.197939381 0.014008770697 0 -0.13206830621 0.0096130948514 0 -0.1467820406 0.024117276073 0 
-0.16427446902 0.018133761361 0 -0.17456416786 0.014698744752 0 -0.18233883381 0.011956750415 0 
-0.18650333583 0.0092638507485 0 -0.18950463831 0.0063623772003 0 -0.19069291651 0.003442122601 0 
-0.19215576351 0.0016184462002 0 -0.19214843214 0.0012456637342 0 -0.19220396876 0.001130513032 0 
-0.19183786213 0.000390144618 0 -0.19073536992 0.00042959139682 0 -0.18818412721 0.00074187695282 0 
-0.18643207848 -0.00073522893945 0 -0.18573777378 -0.0024547534995 0 -0.1847114414 -0.0026842686348 0 
-0.18512496352 -0.0025247880258 0 -0.18494488299 -0.0035254303366 0 -0.18510319293 -0.0050011570565 0 
-0.18320477009 -0.0056538996287 0 -0.18161538243 -0.0063933813944 0 -0.17945286632 -0.007893989794 0 
-0.17607963085 -0.010449231602 0 -0.16934870183 -0.013586995192 0 -0.15952309966 -0.017835114151 0 
-0.1430285126 -0.02442166023 0 -0.13028533757 -0.010565282777 0 -0.19679902494 -0.014806224033 0 
-0.2120244503 0.042565241456 0 -0.1205798015 0.025253694504 0 -0.148547858 0.028266211972 0 
-0.16720312834 0.019097138196 0 -0.17649066448 0.0142341787 0 -0.18356704712 0.010710207745 0 
-0.18796660006 0.0075762621127 0 -0.190252617 0.0048990864307 0 -0.19128882885 0.0027845371515 0 
-0.19226738811 0.0013206624426 0 -0.19361972809 0.0007667177706 0 -0.19406417012 0.00063894380582 0 
-0.19401788712 -2.3081916879e-05 0 -0.192875579 -0.00029811848071 0 -0.19039329886 -7.7739859989e-05 0 
-0.18774046004 -0.00062746036565 0 -0.18724296987 -0.0017305249348 0 -0.18737386167 -0.0018451127689 0 
-0.18758550286 -0.0016227678861 0 -0.1867941916 -0.0022669835016 0 -0.18628510833 -0.0034601450898 0 
-0.18527546525 -0.0042903088033 0 -0.18396295607 -0.0049700872041 0 -0.18153068423 -0.0064814705402 0 
-0.1783683598 -0.0094694280997 0 -0.17203219235 -0.013304035179 0 -0.16289576888 -0.018614364788 0 
-0.14471463859 -0.028003610671 0 -0.11912358552 -0.025632005185 0 -0.21108919382 -0.042936213315 0 
-0.24973140657 0.064978733659 0 -0.11458267272 0.03238138184 0 -0.154269889 0.028849890456 0 
-0.17173722386 0.01867358014 0 -0.17963080108 0.013218310662 0 -0.18648579717 0.0094250338152 0 
-0.19144496322 0.0062594241463 0 -0.19462648034 0.0037771183997 0 -0.19640152156 0.0020414721221 0 
-0.19709971547 0.0011158648413 0 -0.19886083901 0.00068777095294 0 -0.19951915741 0.00039077008842 0 
-0.19997934997 -0.00015183800133 0 -0.19945843518 -0.00050768553047 0 -0.19854730368 -0.00050433742581 0 
-0.19672830403 -0.00060368230334 0 -0.1961709559 -0.00084072625032 0 -0.19655823708 -0.00083873886615 0 
-0.1966213882 -0.00089886289788 0 -0.19581316411 -0.0014198219869 0 -0.19461204112 -0.00217324798 0 
-0.19336421788 -0.002888666233 0 -0.19170083106 -0.0038823296782 0 -0.18825948238 -0.0055639208294 0 
-0.1842751056 -0.0085648503155 0 -0.17786215246 -0.012673619203 0 -0.16982650757 -0.018382200971 0 
-0.15215913951 -0.02839589864 0 -0.11418221891 -0.032351668924 0 -0.24937899411 -0.065254621208 0 
-0.10242564231 0.091923475266 0 -0.15402239561 0.029168663546 0 -0.15764065087 0.021042572334 0 
-0.16649436951 0.016924643889 0 -0.17213639617 0.011948563159 0 -0.17520093918 0.0081518134102 0 
-0.17686095834 0.0053116795607 0 -0.17761908472 0.0032611391507 0 -0.17786844075 0.0018571952824 0 
-0.17784902453 0.00099611922633 0 -0.17770312726 0.00049471767852 0 -0.17754006386 0.00020131171914 0 
-0.17740747333 4.3858832214e-05 0 -0.17736320198 -1.857562529e-05 0 -0.17738933861 -3.4795641113e-05 0 
-0.17747457325 -4.1557392251e-05 0 -0.17759408057 -3.1444211345e-05 0 -0.17776033282 -6.8256245868e-05 0 
-0.17795497179 -0.00022501689091 0 -0.17816437781 -0.00055293447804 0 -0.1783349514 -0.0010957188206 0 
-0.17838612199 -0.0019526643446 0 -0.17814385891 -0.0033235442825 0 -0.17735746503 -0.0053430800326 0 
-0.17564052343 -0.008172115311 0 -0.17251861095 -0.01201177761 0 -0.16680561006 -0.017021173611 0 
-0.15789228678 -0.021110810339 0 -0.1542301923 -0.029230538756 0 -0.10261079669 -0.092148222029 0 

ManningN 1 4740 double
0.02 0.02 0.02 0.02 0.02 0.02 0.02 0.02 0.02 
0.02 0.02 0.02 0.02 0.02 0.02 0.02 0.02 0.02 
0.02 0.02 0.02 0.02 0.02 0.02 0.02 0.02 0.02 
0.02 0.02 0.02 0.02 0.02 0.02 0.02 0.02 0.02 
0.02 0.02 0.02 0.02 0.02 0.02 0.02 0.02 0.02 
0.02 0.02 0.02 0.02 0.02 0.02 0.02 0.02 0.02 
0.02 0.02 0.02 0.02 0.02 0.02 0.02 0.02 0.02 
0.02 0.02 0.02 0.02 0.02 0.02 0.02 0.02 0.02 
0.02 0.02 0.02 0.02 0.02 0.02 0.02 0.02 0.02 
0.02 0.02 0.02 0.02 0.02 0.02 0.02 0.02 0.02 
0.02 0.02 0.02 0.02 0.02 0.02 0.02 0.02 0.02 
0.02 0.02 0.02 0.02 0.02 0.02 0.02 0.02 0.02 
0.02 0.02 0.02 0.02 0.02 0.02 0.02 0.02 0.02 
0.02 0.02 0.02 0.02 0.02 0.02 0.02 0.02 0.02 
0.02 0.02 0.02 0.02 0.02 0.02 0.02 0.02 0.02 
0.02 0.02 0.02 0.02 0.02 0.02 0.02 0.02 0.02 
0.02 0.02 0.02 0.02 0.02 0.02 0.02 0.02 0.02 
0.02 0.02 0.02 0.02 0.02 0.02 0.02 0.02 0.02 
0.02 0.02 0.02 0.02 0.02 0.02 0.02 0.02 0.02 
0.02 0.02 0.02 0.02 0.02 0.02 0.02 0.02 0.02 
0.02 0.02 0.02 0.02 0.02 0.02 0.02 0.02 0.02 
0.02 0.02 0.02 0.02 0.02 0.02 0.02 0.02 0.02 
0.02 0.02 0.02 0.02 0.02 0.02 0.02 0.02 0.02 
0.02 0.02 0.02 0.02 0.02 0.02 0.02 0.02 0.02 
0.02 0.02 0.02 0.02 0.02 0.02 0.02 0.02 0.02 
0.02 0.02 0.02 0.02 0.02 0.02 0.02 0.02 0.02 
0.02 0.02 0.02 0.02 0.02 0.02 0.02 0.02 0.02 
0.02 0.02 0.02 0.02 0.02 0.02 0.02 0.02 0.02 
0.02 0.02 0.02 0.02 0.02 0.02 0.02 0.02 0.02 
0.02 0.02 0.02 0.02 0.02 0.02 0.02 0.02 0.02 
0.02 0.02 0.02 0.02 0.02 0.02 0.02 0.02 0.02 
0.02 0.02 0.02 0.02 0.02 0.02 0.02 0.02 0.02 
0.02 0.02 0.02 0.02 0.02 0.02 0.02 0.02 0.02 
0.02 0.02 0.02 0.02 0.02 0.02 0.02 0.02 0.02 
0.02 0.02 0.02 0.02 0.02 0.02 0.02 0.02 0.02 
0.02 0.02 0.02 0.02 0.02 0.02 0.02 0.02 0.02 
0.02 0.02 0.02 0.02 0.02 0.02 0.02 0.02 0.02 
0.02 0.02 0.02 0.02 0.02 0.02 0.02 0.02 0.02 
0.02 0.02 0.02 0.02 0.02 0.02 0.02 0.02 0.02 
0.02 0.02 0.02 0.02 0.02 0.02 0.02 0.02 0.02 
0.02 0.02 0.02 0.02 0.02 0.02 0.02 0.02 0.02 
0.02 0.02 0.02 0.02 0.02 0.02 0.02 0.02 0.02 
0.02 0.02 0.02 0.02 0.02 0.02 0.02 0.02 0.02 
0.02 0.02 0.02 0.02 0.02 0.02 0.02 0.02 0.02 
0.02 0.02 0.02 0.02 0.02 0.02 0.02 0.02 0.02 
0.02 0.02 0.02 0.02 0.02 0.02 0.02 0.02 0.02 
0.02 0.02 0.02 0.02 0.02 0.02 0.02 0.02 0.02 
0.02 0.02 0.02 0.02 0.02 0.02 0.02 0.02 0.02 
0.02 0.02 0.02 0.02 0.02 0.02 0.02 0.02 0.02 
0.02 0.02 0.02 0.02 0.02 0.02 0.02 0.02 0.02 
0.02 0.02 0.02 0.02 0.02 0.02 0.02 0.02 0.02 
0.02 0.02 0.02 0.02 0.02 0.02 0.02 0.02 0.02 
0.02 0.02 0.02 0.02 0.02 0.02 0.02 0.02 0.02 
0.02 0.02 0.02 0.02 0.02 0.02 0.02 0.02 0.02 
0.02 0.02 0.02 0.02 0.02 0.02 0.02 0.02 0.02 
0.02 0.02 0.02 0.02 0.02 0.02 0.02 0.02 0.02 
0.02 0.02 0.02 0.02 0.02 0.02 0.02 0.02 0.02 
0.02 0.02 0.02 0.02 0.02 0.02 0.02 0.02 0.02 
0.02 0.02 0.02 0.02 0.02 0.02 0.02 0.02 0.02 
0.02 0.02 0.02 0.02 0.02 0.02 0.02 0.02 0.02 
0.02 0.02 0.02 0.02 0.02 0.02 0.02 0.02 0.02 
0.02 0.02 0.02 0.02 0.02 0.02 0.02 0.02 0.02 
0.02 0.02 0.02 0.02 0.02 0.02 0.02 0.02 0.02 
0.02 0.02 0.02 0.02 0.02 0.02 0.02 0.02 0.02 
0.02 0.02 0.02 0.02 0.02 0.02 0.02 0.02 0.02 
0.02 0.02 0.02 0.02 0.02 0.02 0.02 0.02 0.02 
0.02 0.02 0.02 0.02 0.02 0.02 0.02 0.02 0.02 
0.02 0.02 0.02 0.02 0.02 0.02 0.02 0.02 0.02 
0.02 0.02 0.02 0.02 0.02 0.02 0.02 0.02 0.02 
0.02 0.02 0.02 0.02 0.02 0.02 0.02 0.02 0.02 
0.02 0.02 0.02 0.02 0.02 0.02 0.02 0.02 0.02 
0.02 0.02 0.02 0.02 0.02 0.02 0.02 0.02 0.02 
0.02 0.02 0.02 0.02 0.02 0.02 0.02 0.02 0.02 
0.02 0.02 0.02 0.02 0.02 0.02 0.02 0.02 0.02 
0.02 0.02 0.02 0.02 0.02 0.02 0.02 0.02 0.02 
0.02 0.02 0.02 0.02 0.02 0.02 0.02 0.02 0.02 
0.02 0.02 0.02 0.02 0.02 0.02 0.02 0.02 0.02 
0.02 0.02 0.02 0.02 0.02 0.02 0.02 0.02 0.02 
0.02 0.02 0.02 0.02 0.02 0.02 0.02 0.02 0.02 
0.02 0.02 0.02 0.02 0.02 0.02 0.02 0.02 0.02 
0.02 0.02 0.02 0.02 0.02 0.02 0.02 0.02 0.02 
0.02 0.02 0.02 0.02 0.02 0.02 0.02 0.02 0.02 
0.02 0.02 0.02 0.02 0.02 0.02 0.02 0.02 0.02 
0.02 0.02 0.02 0.02 0.02 0.02 0.02 0.02 0.02 
0.02 0.02 0.02 0.02 0.02 0.02 0.02 0.02 0.02 
0.02 0.02 0.02 0.02 0.02 0.02 0.02 0.02 0.02 
0.02 0.02 0.02 0.02 0.02 0.02 0.02 0.02 0.02 
0.02 0.02 0.02 0.02 0.02 0.02 0.02 0.02 0.02 
0.02 0.02 0.02 0.02 0.02 0.02 0.02 0.02 0.02 
0.02 0.02 0.02 0.02 0.02 0.02 0.02 0.02 0.02 
0.02 0.02 0.02 0.02 0.02 0.02 0.02 0.02 0.02 
0.02 0.02 0.02 0.02 0.02 0.02 0.02 0.02 0.02 
0.02 0.02 0.02 0.02 0.02 0.02 0.02 0.02 0.02 
0.02 0.02 0.02 0.02 0.02 0.02 0.02 0.02 0.02 
0.02 0.02 0.02 0.02 0.02 0.02 0.02 0.02 0.02 
0.02 0.02 0.02 0.02 0.02 0.02 0.02 0.02 0.02 
0.02 0.02 0.02 0.02 0.02 0.02 0.02 0.02 0.02 
0.02 0.02 0.02 0.02 0.02 0.02 0.02 0.02 0.02 
0.02 0.02 0.02 0.02 0.02 0.02 0.02 0.02 0.02 
0.02 0.02 0.02 0.02 0.02 0.02 0.02 0.02 0.02 
0.02 0.02 0.02 0.02 0.02 0.02 0.02 0.02 0.02 
0.02 0.02 0.02 0.02 0.02 0.02 0.02 0.02 0.02 
0.02 0.02 0.02 0.02 0.02 0.02 0.02 0.02 0.02 
0.02 0.02 0.02 0.02 0.02 0.02 0.02 0.02 0.02 
0.02 0.02 0.02 0.02 0.02 0.02 0.02 0.02 0.02 
0.02 0.02 0.02 0.02 0.02 0.02 0.02 0.02 0.02 
0.02 0.02 0.02 0.02 0.02 0.02 0.02 0.02 0.02 
0.02 0.02 0.02 0.02 0.02 0.02 0.02 0.02 0.02 
0.02 0.02 0.02 0.02 0.02 0.02 0.02 0.02 0.02 
0.02 0.02 0.02 0.02 0.02 0.02 0.02 0.02 0.02 
0.02 0.02 0.02 0.02 0.02 0.02 0.02 0.02 0.02 
0.02 0.02 0.02 0.02 0.02 0.02 0.02 0.02 0.02 
0.02 0.02 0.02 0.02 0.02 0.02 0.02 0.02 0.02 
0.02 0.02 0.02 0.02 0.02 0.02 0.02 0.02 0.02 
0.02 0.02 0.02 0.02 0.02 0.02 0.02 0.02 0.02 
0.02 0.02 0.02 0.02 0.02 0.02 0.02 0.02 0.02 
0.02 0.02 0.02 0.02 0.02 0.02 0.02 0.02 0.02 
0.02 0.02 0.02 0.02 0.02 0.02 0.02 0.02 0.02 
0.02 0.02 0.02 0.02 0.02 0.02 0.02 0.02 0.02 
0.02 0.02 0.02 0.02 0.02 0.02 0.02 0.02 0.02 
0.02 0.02 0.02 0.02 0.02 0.02 0.02 0.02 0.02 
0.02 0.02 0.02 0.02 0.02 0.02 0.02 0.02 0.02 
0.02 0.02 0.02 0.02 0.02 0.02 0.02 0.02 0.02 
0.02 0.02 0.02 0.02 0.02 0.02 0.02 0.02 0.02 
0.02 0.02 0.02 0.02 0.02 0.02 0.02 0.02 0.02 
0.02 0.02 0.02 0.02 0.02 0.02 0.02 0.02 0.02 
0.02 0.02 0.02 0.02 0.02 0.02 0.02 0.02 0.02 
0.02 0.02 0.02 0.02 0.02 0.02 0.02 0.02 0.02 
0.02 0.02 0.02 0.02 0.02 0.02 0.02 0.02 0.02 
0.02 0.02 0.02 0.02 0.02 0.02 0.02 0.02 0.02 
0.02 0.02 0.02 0.02 0.02 0.02 0.02 0.02 0.02 
0.02 0.02 0.02 0.02 0.02 0.02 0.02 0.02 0.02 
0.02 0.02 0.02 0.02 0.02 0.02 0.02 0.02 0.02 
0.02 0.02 0.02 0.02 0.02 0.02 0.02 0.02 0.02 
0.02 0.02 0.02 0.02 0.02 0.02 0.02 0.02 0.02 
0.02 0.02 0.02 0.02 0.02 0.02 0.02 0.02 0.02 
0.02 0.02 0.02 0.02 0.02 0.02 0.02 0.02 0.02 
0.02 0.02 0.02 0.02 0.02 0.02 0.02 0.02 0.02 
0.02 0.02 0.02 0.02 0.02 0.02 0.02 0.02 0.02 
0.02 0.02 0.02 0.02 0.02 0.02 0.02 0.02 0.02 
0.02 0.02 0.02 0.02 0.02 0.02 0.02 0.02 0.02 
0.02 0.02 0.02 0.02 0.02 0.02 0.02 0.02 0.02 
0.02 0.02 0.02 0.02 0.02 0.02 0.02 0.02 0.02 
0.02 0.02 0.02 0.02 0.02 0.02 0.02 0.02 0.02 
0.02 0.02 0.02 0.02 0.02 0.02 0.02 0.02 0.02 
0.02 0.02 0.02 0.02 0.02 0.02 0.02 0.02 0.02 
0.02 0.02 0.02 0.02 0.02 0.02 0.02 0.02 0.02 
0.02 0.02 0.02 0.02 0.02 0.02 0.02 0.02 0.02 
0.02 0.02 0.02 0.02 0.02 0.02 0.02 0.02 0.02 
0.02 0.02 0.02 0.02 0.02 0.02 0.02 0.02 0.02 
0.02 0.02 0.02 0.02 0.02 0.02 0.02 0.02 0.02 
0.02 0.02 0.02 0.02 0.02 0.02 0.02 0.02 0.02 
0.02 0.02 0.02 0.02 0.02 0.02 0.02 0.02 0.02 
0.02 0.02 0.02 0.02 0.02 0.02 0.02 0.02 0.02 
0.02 0.02 0.02 0.02 0.02 0.02 0.02 0.02 0.02 
0.02 0.02 0.02 0.02 0.02 0.02 0.02 0.02 0.02 
0.02 0.02 0.02 0.02 0.02 0.02 0.02 0.02 0.02 
0.02 0.02 0.02 0.02 0.02 0.02 0.02 0.02 0.02 
0.02 0.02 0.02 0.02 0.02 0.02 0.02 0.02 0.02 
0.02 0.02 0.02 0.02 0.02 0.02 0.02 0.02 0.02 
0.02 0.02 0.02 0.02 0.02 0.02 0.02 0.02 0.02 
0.02 0.02 0.02 0.02 0.02 0.02 0.02 0.02 0.02 
0.02 0.02 0.02 0.02 0.02 0.02 0.02 0.02 0.02 
0.02 0.02 0.02 2.6133907628 2.6133907628 2.6133907628 2.6133907628 2.6133907628 2.6133907628 
2.6133907628 2.6133907628 2.6133907628 2.6133907628 2.6133907628 2.6133907628 2.6133907628 2.6133907628 2.6133907628 
2.6133907628 2.6133907628 2.6133907628 2.6133907628 2.6133907628 2.6133907628 2.6133907628 2.6133907628 2.6133907628 
2.6133907628 2.6133907628 2.6133907628 2.6133907628 2.6133907628 2.6133907628 2.6133907628 2.6133907628 2.6133907628 
2.6133907628 2.6133907628 2.6133907628 2.6133907628 2.6133907628 2.6133907628 2.6133907628 2.6133907628 2.6133907628 
2.6133907628 2.6133907628 2.6133907628 2.6133907628 2.6133907628 2.6133907628 2.6133907628 2.6133907628 2.6133907628 
2.6133907628 2.6133907628 2.6133907628 2.6133907628 2.6133907628 2.6133907628 2.6133907628 2.6133907628 2.6133907628 
2.6133907628 2.6133907628 2.6133907628 2.6133907628 2.6133907628 2.6133907628 2.6133907628 2.6133907628 2.6133907628 
2.6133907628 2.6133907628 2.6133907628 2.6133907628 2.6133907628 2.6133907628 2.6133907628 2.6133907628 2.6133907628 
2.6133907628 2.6133907628 2.6133907628 2.6133907628 2.6133907628 2.6133907628 2.6133907628 2.6133907628 2.6133907628 
2.6133907628 2.6133907628 2.6133907628 2.6133907628 2.6133907628 2.6133907628 2.6133907628 2.6133907628 2.6133907628 
2.6133907628 2.6133907628 2.6133907628 2.6133907628 2.6133907628 2.6133907628 2.6133907628 2.6133907628 2.6133907628 
2.6133907628 2.6133907628 2.6133907628 2.6133907628 2.6133907628 2.6133907628 2.6133907628 2.6133907628 2.6133907628 
2.6133907628 2.6133907628 2.6133907628 2.6133907628 2.6133907628 2.6133907628 2.6133907628 2.6133907628 2.6133907628 
2.6133907628 2.6133907628 2.6133907628 2.6133907628 2.6133907628 2.6133907628 2.6133907628 2.6133907628 2.6133907628 
2.6133907628 2.6133907628 2.6133907628 2.6133907628 2.6133907628 2.6133907628 2.6133907628 2.6133907628 2.6133907628 
2.6133907628 2.6133907628 2.6133907628 2.6133907628 2.6133907628 2.6133907628 2.6133907628 2.6133907628 2.6133907628 
2.6133907628 2.6133907628 2.6133907628 2.6133907628 2.6133907628 2.6133907628 2.6133907628 2.6133907628 2.6133907628 
2.6133907628 2.6133907628 2.6133907628 2.6133907628 2.6133907628 2.6133907628 2.6133907628 2.6133907628 2.6133907628 
2.6133907628 2.6133907628 2.6133907628 2.6133907628 2.6133907628 2.6133907628 2.6133907628 2.6133907628 2.6133907628 
2.6133907628 2.6133907628 2.6133907628 2.6133907628 2.6133907628 2.6133907628 2.6133907628 2.6133907628 2.6133907628 
2.6133907628 2.6133907628 2.6133907628 2.6133907628 2.6133907628 2.6133907628 2.6133907628 2.6133907628 2.6133907628 
2.6133907628 2.6133907628 2.6133907628 2.6133907628 2.6133907628 2.6133907628 2.6133907628 2.6133907628 2.6133907628 
2.6133907628 2.6133907628 2.6133907628 2.6133907628 2.6133907628 2.6133907628 2.6133907628 2.6133907628 2.6133907628 
2.6133907628 2.6133907628 2.6133907628 2.6133907628 2.6133907628 2.6133907628 2.6133907628 2.6133907628 2.6133907628 
2.6133907628 2.6133907628 2.6133907628 2.6133907628 2.6133907628 2.6133907628 2.6133907628 2.6133907628 2.6133907628 
2.6133907628 2.6133907628 2.6133907628 2.6133907628 2.6133907628 2.6133907628 2.6133907628 2.6133907628 2.6133907628 
0.02 0.02 0.02 0.02 0.02 0.02 0.02 0.02 0.02 
0.02 0.02 0.02 0.02 0.02 0.02 0.02 0.02 0.02 
0.02 0.02 0.02 0.02 0.02 0.02 0.02 0.02 0.02 
0.02 0.02 0.02 0.02 0.02 0.02 0.02 0.02 0.02 
0.02 0.02 0.02 0.02 0.02 0.02 0.02 0.02 0.02 
0.02 0.02 0.02 0.02 0.02 0.02 0.02 0.02 0.02 
0.02 0.02 0.02 0.02 0.02 0.02 0.02 0.02 0.02 
0.02 0.02 0.02 0.02 0.02 0.02 0.02 0.02 0.02 
0.02 0.02 0.02 0.02 0.02 0.02 0.02 0.02 0.02 
0.02 0.02 0.02 0.02 0.02 0.02 0.02 0.02 0.02 
0.02 0.02 0.02 0.02 0.02 0.02 0.02 0.02 0.02 
0.02 0.02 0.02 0.02 0.02 0.02 0.02 0.02 0.02 
0.02 0.02 0.02 0.02 0.02 0.02 0.02 0.02 0.02 
0.02 0.02 0.02 0.02 0.02 0.02 0.02 0.02 0.02 
0.02 0.02 0.02 0.02 0.02 0.02 0.02 0.02 0.02 
0.02 0.02 0.02 0.02 0.02 0.02 0.02 0.02 0.02 
0.02 0.02 0.02 0.02 0.02 0.02 0.02 0.02 0.02 
0.02 0.02 0.02 0.02 0.02 0.02 0.02 0.02 0.02 
0.02 0.02 0.02 0.02 0.02 0.02 0.02 0.02 0.02 
0.02 0.02 0.02 0.02 0.02 0.02 0.02 0.02 0.02 
0.02 0.02 0.02 0.02 0.02 0.02 0.02 0.02 0.02 
0.02 0.02 0.02 0.02 0.02 0.02 0.02 0.02 0.02 
0.02 0.02 0.02 0.02 0.02 0.02 0.02 0.02 0.02 
0.02 0.02 0.02 0.02 0.02 0.02 0.02 0.02 0.02 
0.02 0.02 0.02 0.02 0.02 0.02 0.02 0.02 0.02 
0.02 0.02 0.02 0.02 0.02 0.02 0.02 0.02 0.02 
0.02 0.02 0.02 0.02 0.02 0.02 0.02 0.02 0.02 
0.02 0.02 0.02 0.02 0.02 0.02 0.02 0.02 0.02 
0.02 0.02 0.02 0.02 0.02 0.02 0.02 0.02 0.02 
0.02 0.02 0.02 0.02 0.02 0.02 0.02 0.02 0.02 
0.02 0.02 0.02 0.02 0.02 0.02 0.02 0.02 0.02 
0.02 0.02 0.02 0.02 0.02 0.02 0.02 0.02 0.02 
0.02 0.02 0.02 0.02 0.02 0.02 0.02 0.02 0.02 
0.02 0.02 0.02 0.02 0.02 0.02 0.02 0.02 0.02 
0.02 0.02 0.02 0.02 0.02 0.02 0.02 0.02 0.02 
0.02 0.02 0.02 0.02 0.02 0.02 0.02 0.02 0.02 
0.02 0.02 0.02 0.02 0.02 0.02 0.02 0.02 0.02 
0.02 0.02 0.02 0.02 0.02 0.02 0.02 0.02 0.02 
0.02 0.02 0.02 0.02 0.02 0.02 0.02 0.02 0.02 
0.02 0.02 0.02 0.02 0.02 0.02 0.02 0.02 0.02 
0.02 0.02 0.02 0.02 0.02 0.02 0.02 0.02 0.02 
0.02 0.02 0.02 0.02 0.02 0.02 0.02 0.02 0.02 
0.02 0.02 0.02 0.02 0.02 0.02 0.02 0.02 0.02 
0.02 0.02 0.02 0.02 0.02 0.02 0.02 0.02 0.02 
0.02 0.02 0.02 0.02 0.02 0.02 0.02 0.02 0.02 
0.02 0.02 0.02 0.02 0.02 0.02 0.02 0.02 0.02 
0.02 0.02 0.02 0.02 0.02 0.02 0.02 0.02 0.02 
0.02 0.02 0.02 0.02 0.02 0.02 0.02 0.02 0.02 
0.02 0.02 0.02 0.02 0.02 0.02 0.02 0.02 0.02 
0.02 0.02 0.02 0.02 0.02 0.02 0.02 0.02 0.02 
0.02 0.02 0.02 0.02 0.02 0.02 0.02 0.02 0.02 
0.02 0.02 0.02 0.02 0.02 0.02 0.02 0.02 0.02 
0.02 0.02 0.02 0.02 0.02 0.02 0.02 0.02 0.02 
0.02 0.02 0.02 0.02 0.02 0.02 0.02 0.02 0.02 
0.02 0.02 0.02 0.02 0.02 0.02 0.02 0.02 0.02 
0.02 0.02 0.02 0.02 0.02 0.02 0.02 0.02 0.02 
0.02 0.02 0.02 0.02 0.02 0.02 0.02 0.02 0.02 
0.02 0.02 0.02 0.02 0.02 0.02 0.02 0.02 0.02 
0.02 0.02 0.02 0.02 0.02 0.02 0.02 0.02 0.02 
0.02 0.02 0.02 0.02 0.02 0.02 0.02 0.02 0.02 
0.02 0.02 0.02 0.02 0.02 0.02 0.02 0.02 0.02 
0.02 0.02 0.02 0.02 0.02 0.02 0.02 0.02 0.02 
0.02 0.02 0.02 0.02 0.02 0.02 0.02 0.02 0.02 
0.02 0.02 0.02 0.02 0.02 0.02 0.02 0.02 0.02 
0.02 0.02 0.02 0.02 0.02 0.02 0.02 0.02 0.02 
0.02 0.02 0.02 0.02 0.02 0.02 0.02 0.02 0.02 
0.02 0.02 0.02 0.02 0.02 0.02 0.02 0.02 0.02 
0.02 0.02 0.02 0.02 0.02 0.02 0.02 0.02 0.02 
0.02 0.02 0.02 0.02 0.02 0.02 0.02 0.02 0.02 
0.02 0.02 0.02 0.02 0.02 0.02 0.02 0.02 0.02 
0.02 0.02 0.02 0.02 0.02 0.02 0.02 0.02 0.02 
0.02 0.02 0.02 0.02 0.02 0.02 0.02 0.02 0.02 
0.02 0.02 0.02 0.02 0.02 0.02 0.02 0.02 0.02 
0.02 0.02 0.02 0.02 0.02 0.02 0.02 0.02 0.02 
0.02 0.02 0.02 0.02 0.02 0.02 0.02 0.02 0.02 
0.02 0.02 0.02 0.02 0.02 0.02 0.02 0.02 0.02 
0.02 0.02 0.02 0.02 0.02 0.02 0.02 0.02 0.02 
0.02 0.02 0.02 0.02 0.02 0.02 0.02 0.02 0.02 
0.02 0.02 0.02 0.02 0.02 0.02 0.02 0.02 0.02 
0.02 0.02 0.02 0.02 0.02 0.02 0.02 0.02 0.02 
0.02 0.02 0.02 0.02 0.02 0.02 0.02 0.02 0.02 
0.02 0.02 0.02 0.02 0.02 0.02 0.02 0.02 0.02 
0.02 0.02 0.02 0.02 0.02 0.02 0.02 0.02 0.02 
0.02 0.02 0.02 0.02 0.02 0.02 0.02 0.02 0.02 
0.02 0.02 0.02 0.02 0.02 0.02 0.02 0.02 0.02 
0.02 0.02 0.02 0.02 0.02 0.02 0.02 0.02 0.02 
0.02 0.02 0.02 0.02 0.02 0.02 0.02 0.02 0.02 
0.02 0.02 0.02 0.02 0.02 0.02 0.02 0.02 0.02 
0.02 0.02 0.02 0.02 0.02 0.02 0.02 0.02 0.02 
0.02 0.02 0.02 0.02 0.02 0.02 0.02 0.02 0.02 
0.02 0.02 0.02 0.02 0.02 0.02 0.02 0.02 0.02 
0.02 0.02 0.02 0.02 0.02 0.02 0.02 0.02 0.02 
0.02 0.02 0.02 0.02 0.02 0.02 0.02 0.02 0.02 
0.02 0.02 0.02 0.02 0.02 0.02 0.02 0.02 0.02 
0.02 0.02 0.02 0.02 0.02 0.02 0.02 0.02 0.02 
0.02 0.02 0.02 0.02 0.02 0.02 0.02 0.02 0.02 
0.02 0.02 0.02 0.02 0.02 0.02 0.02 0.02 0.02 
0.02 0.02 0.02 0.02 0.02 0.02 0.02 0.02 0.02 
0.02 0.02 0.02 0.02 0.02 0.02 0.02 0.02 0.02 
0.02 0.02 0.02 0.02 0.02 0.02 0.02 0.02 0.02 
0.02 0.02 0.02 0.02 0.02 0.02 0.02 0.02 0.02 
0.02 0.02 0.02 0.02 0.02 0.02 0.02 0.02 0.02 
0.02 0.02 0.02 0.02 0.02 0.02 0.02 0.02 0.02 
0.02 0.02 0.02 0.02 0.02 0.02 0.02 0.02 0.02 
0.02 0.02 0.02 0.02 0.02 0.02 0.02 0.02 0.02 
0.02 0.02 0.02 0.02 0.02 0.02 0.02 0.02 0.02 
0.02 0.02 0.02 0.02 0.02 0.02 0.02 0.02 0.02 
0.02 0.02 0.02 0.02 0.02 0.02 0.02 0.02 0.02 
0.02 0.02 0.02 0.02 0.02 0.02 0.02 0.02 0.02 
0.02 0.02 0.02 0.02 0.02 0.02 0.02 0.02 0.02 
0.02 0.02 0.02 0.02 0.02 0.02 0.02 0.02 0.02 
0.02 0.02 0.02 0.02 0.02 0.02 0.02 0.02 0.02 
0.02 0.02 0.02 0.02 0.02 0.02 0.02 0.02 0.02 
0.02 0.02 0.02 0.02 0.02 0.02 0.02 0.02 0.02 
0.02 0.02 0.02 0.02 0.02 0.02 0.02 0.02 0.02 
0.02 0.02 0.02 0.02 0.02 0.02 0.02 0.02 0.02 
0.02 0.02 0.02 0.02 0.02 0.02 0.02 0.02 0.02 
0.02 0.02 0.02 0.02 0.02 0.02 0.02 0.02 0.02 
0.02 0.02 0.02 0.02 0.02 0.02 0.02 0.02 0.02 
0.02 0.02 0.02 0.02 0.02 0.02 0.02 0.02 0.02 
0.02 0.02 0.02 0.02 0.02 0.02 0.02 0.02 0.02 
0.02 0.02 0.02 0.02 0.02 0.02 0.02 0.02 0.02 
0.02 0.02 0.02 0.02 0.02 0.02 0.02 0.02 0.02 
0.02 0.02 0.02 0.02 0.02 0.02 0.02 0.02 0.02 
0.02 0.02 0.02 0.02 0.02 0.02 0.02 0.02 0.02 
0.02 0.02 0.02 0.02 0.02 0.02 0.02 0.02 0.02 
0.02 0.02 0.02 0.02 0.02 0.02 0.02 0.02 0.02 
0.02 0.02 0.02 0.02 0.02 0.02 0.02 0.02 0.02 
0.02 0.02 0.02 0.02 0.02 0.02 0.02 0.02 0.02 
0.02 0.02 0.02 0.02 0.02 0.02 0.02 0.02 0.02 
0.02 0.02 0.02 0.02 0.02 0.02 0.02 0.02 0.02 
0.02 0.02 0.02 0.02 0.02 0.02 0.02 0.02 0.02 
0.02 0.02 0.02 0.02 0.02 0.02 0.02 0.02 0.02 
0.02 0.02 0.02 0.02 0.02 0.02 0.02 0.02 0.02 
0.02 0.02 0.02 0.02 0.02 0.02 0.02 0.02 0.02 
0.02 0.02 0.02 0.02 0.02 0.02 0.02 0.02 0.02 
0.02 0.02 0.02 0.02 0.02 0.02 0.02 0.02 0.02 
0.02 0.02 0.02 0.02 0.02 0.02 0.02 0.02 0.02 
0.02 0.02 0.02 0.02 0.02 0.02 0.02 0.02 0.02 
0.02 0.02 0.02 0.02 0.02 0.02 0.02 0.02 0.02 
0.02 0.02 0.02 0.02 0.02 0.02 0.02 0.02 0.02 
0.02 0.02 0.02 0.02 0.02 0.02 0.02 0.02 0.02 
0.02 0.02 0.02 0.02 0.02 0.02 0.02 0.02 0.02 
0.02 0.02 0.02 0.02 0.02 0.02 0.02 0.02 0.02 
0.02 0.02 0.02 0.02 0.02 0.02 0.02 0.02 0.02 
0.02 0.02 0.02 0.02 0.02 0.02 0.02 0.02 0.02 
0.02 0.02 0.02 0.02 0.02 0.02 0.02 0.02 0.02 
0.02 0.02 0.02 0.02 0.02 0.02 0.02 0.02 0.02 
0.02 0.02 0.02 0.02 0.02 0.02 0.02 0.02 0.02 
0.02 0.02 0.02 0.02 0.02 0.02 0.02 0.02 0.02 
0.02 0.02 0.02 0.02 0.02 0.02 0.02 0.02 0.02 
0.02 0.02 0.02 0.02 0.02 0.02 0.02 0.02 0.02 
0.02 0.02 0.02 0.02 0.02 0.02 0.02 0.02 0.02 
0.02 0.02 0.02 0.02 0.02 0.02 0.02 0.02 0.02 
0.02 0.02 0.02 0.02 0.02 0.02 0.02 0.02 0.02 
0.02 0.02 0.02 0.02 0.02 0.02 0.02 0.02 0.02 
0.02 0.02 0.02 0.02 0.02 0.02 0.02 0.02 0.02 
0.02 0.02 0.02 0.02 0.02 0.02 0.02 0.02 0.02 
0.02 0.02 0.02 0.02 0.02 0.02 0.02 0.02 0.02 
0.02 0.02 0.02 0.02 0.02 0.02 0.02 0.02 0.02 
0.02 0.02 0.02 0.02 0.02 0.02 0.02 0.02 0.02 
0.02 0.02 0.02 0.02 0.02 0.02 0.02 0.02 0.02 
0.02 0.02 0.02 0.02 0.02 0.02 0.02 0.02 0.02 
0.02 0.02 0.02 0.02 0.02 0.02 0.02 0.02 0.02 
0.02 0.02 0.02 0.02 0.02 0.02 0.02 0.02 0.02 
0.02 0.02 0.02 0.02 0.02 0.02 0.02 0.02 0.02 
0.02 0.02 0.02 0.02 0.02 0.02 0.02 0.02 0.02 
0.02 0.02 0.02 0.02 0.02 0.02 0.02 0.02 0.02 
0.02 0.02 0.02 0.02 0.02 0.02 0.02 0.02 0.02 
0.02 0.02 0.02 0.02 0.02 0.02 0.02 0.02 0.02 
0.02 0.02 0.02 0.02 0.02 0.02 0.02 0.02 0.02 
0.02 0.02 0.02 0.02 0.02 0.02 0.02 0.02 0.02 
0.02 0.02 0.02 0.02 0.02 0.02 0.02 0.02 0.02 
0.02 0.02 0.02 0.02 0.02 0.02 0.02 0.02 0.02 
0.02 0.02 0.02 0.02 0.02 0.02 0.02 0.02 0.02 
0.02 0.02 0.02 0.02 0.02 0.02 0.02 0.02 0.02 
0.02 0.02 0.02 0.02 0.02 0.02 0.02 0.02 0.02 
0.02 0.02 0.02 0.02 0.02 0.02 0.02 0.02 0.02 
0.02 0.02 0.02 0.02 0.02 0.02 0.02 0.02 0.02 
0.02 0.02 0.02 0.02 0.02 0.02 0.02 0.02 0.02 
0.02 0.02 0.02 0.02 0.02 0.02 0.02 0.02 0.02 
0.02 0.02 0.02 0.02 0.02 0.02 0.02 0.02 0.02 
0.02 0.02 0.02 0.02 0.02 0.02 0.02 0.02 0.02 
0.02 0.02 0.02 0.02 0.02 0.02 0.02 0.02 0.02 
0.02 0.02 0.02 0.02 0.02 0.02 0.02 0.02 0.02 
0.02 0.02 0.02 0.02 0.02 0.02 0.02 0.02 0.02 
0.02 0.02 0.02 0.02 0.02 0.02 0.02 0.02 0.02 
0.02 0.02 0.02 0.02 0.02 0.02 0.02 0.02 0.02 
0.02 0.02 0.02 0.02 0.02 0.02 0.02 0.02 0.02 
0.02 0.02 0.02 0.02 0.02 0.02 0.02 0.02 0.02 
0.02 0.02 0.02 0.02 0.02 0.02 0.02 0.02 0.02 
0.02 0.02 0.02 0.02 0.02 0.02 0.02 0.02 0.02 
0.02 0.02 0.02 0.02 0.02 0.02 0.02 0.02 0.02 
0.02 0.02 0.02 0.02 0.02 0.02 0.02 0.02 0.02 
0.02 0.02 0.02 0.02 0.02 0.02 0.02 0.02 0.02 
0.02 0.02 0.02 0.02 0.02 0.02 0.02 0.02 0.02 
0.02 0.02 0.02 0.02 0.02 0.02 0.02 0.02 0.02 
0.02 0.02 0.02 0.02 0.02 0.02 0.02 0.02 0.02 
0.02 0.02 0.02 0.02 0.02 0.02 0.02 0.02 0.02 
0.02 0.02 0.02 0.02 0.02 0.02 0.02 0.02 0.02 
0.02 0.02 0.02 0.02 0.02 0.02 0.02 0.02 0.02 
0.02 0.02 0.02 0.02 0.02 0.02 0.02 0.02 0.02 
0.02 0.02 0.02 0.02 0.02 0.02 0.02 0.02 0.02 
0.02 0.02 0.02 0.02 0.02 0.02 0.02 0.02 0.02 
0.02 0.02 0.02 0.02 0.02 0.02 0.02 0.02 0.02 
0.02 0.02 0.02 0.02 0.02 0.02 0.02 0.02 0.02 
0.02 0.02 0.02 0.02 0.02 0.02 0.02 0.02 0.02 
0.02 0.02 0.02 0.02 0.02 0.02 0.02 0.02 0.02 
0.02 0.02 0.02 0.02 0.02 0.02 0.02 0.02 0.02 
0.02 0.02 0.02 0.02 0.02 0.02 0.02 0.02 0.02 
0.02 0.02 0.02 0.02 0.02 0.02 0.02 0.02 0.02 
0.02 0.02 0.02 0.02 0.02 0.02 0.02 0.02 0.02 
0.02 0.02 0.02 0.02 0.02 0.02 0.02 0.02 0.02 
0.02 0.02 0.02 0.02 0.02 0.02 0.02 0.02 0.02 
0.02 0.02 0.02 0.02 0.02 0.02 0.02 0.02 0.02 
0.02 0.02 0.02 0.02 0.02 0.02 0.02 0.02 0.02 
0.02 0.02 0.02 0.02 0.02 0.02 0.02 0.02 0.02 
0.02 0.02 0.02 0.02 0.02 0.02 0.02 0.02 0.02 
0.02 0.02 0.02 0.02 0.02 0.02 0.02 0.02 0.02 
0.02 0.02 0.02 0.02 0.02 0.02 0.02 0.02 0.02 
0.02 0.02 0.02 0.02 0.02 0.02 0.02 0.02 0.02 
0.02 0.02 0.02 0.02 0.02 0.02 0.02 0.02 0.02 
0.02 0.02 0.02 0.02 0.02 0.02 0.02 0.02 0.02 
0.02 0.02 0.02 0.02 0.02 0.02 0.02 0.02 0.02 
0.02 0.02 0.02 0.02 0.02 0.02 0.02 0.02 0.02 
0.02 0.02 0.02 0.02 0.02 0.02 0.02 0.02 0.02 
0.02 0.02 0.02 0.02 0.02 0.02 0.02 0.02 0.02 
0.02 0.02 0.02 0.02 0.02 0.02 0.02 0.02 0.02 
0.02 0.02 0.02 0.02 0.02 0.02 0.02 0.02 0.02 
0.02 0.02 0.02 0.02 0.02 0.02 0.02 0.02 0.02 
0.02 0.02 0.02 0.02 0.02 0.02 0.02 0.02 0.02 
0.02 0.02 0.02 0.02 0.02 0.02 0.02 0.02 0.02 
0.02 0.02 0.02 0.02 0.02 0.02 0.02 0.02 0.02 
0.02 0.02 0.02 0.02 0.02 0.02 0.02 0.02 0.02 
0.02 0.02 0.02 0.02 0.02 0.02 0.02 0.02 0.02 
0.02 0.02 0.02 0.02 0.02 0.02 0.02 0.02 0.02 
0.02 0.02 0.02 0.02 0.02 0.02 0.02 0.02 0.02 
0.02 0.02 0.02 0.02 0.02 0.02 0.02 0.02 0.02 
0.02 0.02 0.02 0.02 0.02 0.02 0.02 0.02 0.02 
0.02 0.02 0.02 0.02 0.02 0.02 0.02 0.02 0.02 
0.02 0.02 0.02 0.02 0.02 0.02 0.02 0.02 0.02 
0.02 0.02 0.02 0.02 0.02 0.02 0.02 0.02 0.02 
0.02 0.02 0.02 0.02 0.02 0.02 0.02 0.02 0.02 
0.02 0.02 0.02 0.02 0.02 0.02 0.02 0.02 0.02 
0.02 0.02 0.02 0.02 0.02 0.02 0.02 0.02 0.02 
0.02 0.02 0.02 0.02 0.02 0.02 0.02 0.02 0.02 
0.02 0.02 0.02 0.02 0.02 0.02 0.02 0.02 0.02 
0.02 0.02 0.02 0.02 0.02 0.02 0.02 0.02 0.02 
0.02 0.02 0.02 0.02 0.02 0.02 0.02 0.02 0.02 
0.02 0.02 0.02 0.02 0.02 0.02 0.02 0.02 0.02 
0.02 0.02 0.02 0.02 0.02 0.02 0.02 0.02 0.02 
0.02 0.02 0.02 0.02 0.02 0.02 0.02 0.02 0.02 
0.02 0.02 0.02 0.02 0.02 0.02 0.02 0.02 0.02 
0.02 0.02 0.02 0.02 0.02 0.02 0.02 0.02 0.02 
0.02 0.02 0.02 0.02 0.02 0.02 0.02 0.02 0.02 
0.02 0.02 0.02 0.02 0.02 0.02 0.02 0.02 0.02 
0.02 0.02 0.02 0.02 0.02 0.02 0.02 0.02 0.02 
0.02 0.02 0.02 0.02 0.02 0.02 0.02 0.02 0.02 
0.02 0.02 0.02 0.02 0.02 0.02 0.02 0.02 0.02 
0.02 0.02 0.02 0.02 0.02 0.02 0.02 0.02 0.02 
0.02 0.02 0.02 0.02 0.02 0.02 0.02 0.02 0.02 
0.02 0.02 0.02 0.02 0.02 0.02 0.02 0.02 0.02 
0.02 0.02 0.02 0.02 0.02 0.02 0.02 0.02 0.02 
0.02 0.02 0.02 0.02 0.02 0.02 0.02 0.02 0.02 
0.02 0.02 0.02 0.02 0.02 0.02 0.02 0.02 0.02 
0.02 0.02 0.02 0.02 0.02 0.02 0.02 0.02 0.02 
0.02 0.02 0.02 0.02 0.02 0.02 0.02 0.02 0.02 
0.02 0.02 0.02 0.02 0.02 0.02 0.02 0.02 0.02 
0.02 0.02 0.02 0.02 0.02 0.02 0.02 0.02 0.02 
0.02 0.02 0.02 0.02 0.02 0.02 0.02 0.02 0.02 
0.02 0.02 0.02 0.02 0.02 0.02 0.02 0.02 0.02 
0.02 0.02 0.02 0.02 0.02 0.02 0.02 0.02 0.02 
0.02 0.02 0.02 0.02 0.02 0.02 0.02 0.02 0.02 
0.02 0.02 0.02 0.02 0.02 0.02 0.02 0.02 0.02 
0.02 0.02 0.02 0.02 0.02 0.02 0.02 0.02 0.02 
0.02 0.02 0.02 0.02 0.02 0.02 0.02 0.02 0.02 
0.02 0.02 0.02 0.02 0.02 0.02 0.02 0.02 0.02 
0.02 0.02 0.02 0.02 0.02 0.02 0.02 0.02 0.02 
0.02 0.02 0.02 0.02 0.02 0.02 0.02 0.02 0.02 
0.02 0.02 0.02 0.02 0.02 0.02 0.02 0.02 0.02 
0.02 0.02 0.02 0.02 0.02 0.02 0.02 0.02 0.02 
0.02 0.02 0.02 0.02 0.02 0.02 0.02 0.02 0.02 
0.02 0.02 0.02 0.02 0.02 0.02 0.02 0.02 0.02 
0.02 0.02 0.02 0.02 0.02 0.02 0.02 0.02 0.02 
0.02 0.02 0.02 0.02 0.02 0.02 0.02 0.02 0.02 
0.02 0.02 0.02 0.02 0.02 0.02 0.02 0.02 0.02 
0.02 0.02 0.02 0.02 0.02 0.02 0.02 0.02 0.02 
0.02 0.02 0.02 0.02 0.02 0.02 0.02 0.02 0.02 
0.02 0.02 0.02 0.02 0.02 0.02 0.02 0.02 0.02 
0.02 0.02 0.02 0.02 0.02 0.02 0.02 0.02 0.02 
0.02 0.02 0.02 0.02 0.02 0.02 0.02 0.02 0.02 
0.02 0.02 0.02 0.02 0.02 0.02 0.02 0.02 0.02 
0.02 0.02 0.02 0.02 0.02 0.02 0.02 0.02 0.02 
0.02 0.02 0.02 0.02 0.02 0.02 0.02 0.02 0.02 
0.02 0.02 0.02 0.02 0.02 0.02 0.02 0.02 0.02 
0.02 0.02 0.02 0.02 0.02 0.02 0.02 0.02 0.02 
0.02 0.02 0.02 0.02 0.02 0.02 0.02 0.02 0.02 
0.02 0.02 0.02 0.02 0.02 0.02 0.02 0.02 0.02 
0.02 0.02 0.02 0.02 0.02 0.02 0.02 0.02 0.02 
0.02 0.02 0.02 0.02 0.02 0.02 0.02 0.02 0.02 
0.02 0.02 0.02 0.02 0.02 0.02 0.02 0.02 0.02 
0.02 0.02 0.02 0.02 0.02 0.02 0.02 0.02 0.02 
0.02 0.02 0.02 0.02 0.02 0.02 0.02 0.02 0.02 
0.02 0.02 0.02 0.02 0.02 0.02 0.02 0.02 0.02 
0.02 0.02 0.02 0.02 0.02 0.02 0.02 0.02 0.02 
0.02 0.02 0.02 0.02 0.02 0.02 0.02 0.02 0.02 
0.02 0.02 0.02 0.02 0.02 0.02 0.02 0.02 0.02 
0.02 0.02 0.02 0.02 0.02 0.02 0.02 0.02 0.02 
0.02 0.02 0.02 0.02 0.02 0.02 0.02 0.02 0.02 
0.02 0.02 0.02 0.02 0.02 0.02 0.02 0.02 0.02 
0.02 0.02 0.02 0.02 0.02 0.02 0.02 0.02 0.02 
0.02 0.02 0.02 0.02 0.02 0.02 0.02 0.02 0.02 
0.02 0.02 0.02 0.02 0.02 0.02 0.02 0.02 0.02 
0.02 0.02 0.02 0.02 0.02 0.02 0.02 0.02 0.02 
0.02 0.02 0.02 0.02 0.02 0.02 0.02 0.02 0.02 
0.02 0.02 0.02 0.02 0.02 0.02 0.02 0.02 0.02 
0.02 0.02 0.02 0.02 0.02 0.02 0.02 0.02 0.02 
0.02 0.02 0.02 0.02 0.02 0.02 0.02 0.02 0.02 
0.02 0.02 0.02 0.02 0.02 0.02 0.02 0.02 0.02 
0.02 0.02 0.02 0.02 0.02 0.02 0.02 0.02 0.02 
0.02 0.02 0.02 0.02 0.02 0.02 0.02 0.02 0.02 
0.02 0.02 0.02 0.02 0.02 0.02 0.02 0.02 0.02 
0.02 0.02 0.02 0.02 0.02 0.02 0.02 0.02 0.02 
0.02 0.02 0.02 0.02 0.02 0.02 0.02 0.02 0.02 
0.02 0.02 0.02 0.02 0.02 0.02 0.02 0.02 0.02 
0.02 0.02 0.02 0.02 0.02 0.02 0.02 0.02 0.02 
0.02 0.02 0.02 0.02 0.02 0.02 0.02 0.02 0.02 
0.02 0.02 0.02 0.02 0.02 0.02 0.02 0.02 0.02 
0.02 0.02 0.02 0.02 0.02 0.02 0.02 0.02 0.02 
0.02 0.02 0.02 0.02 0.02 0.02 0.02 0.02 0.02 
0.02 0.02 0.02 0.02 0.02 0.02 0.02 0.02 0.02 
0.02 0.02 0.02 0.02 0.02 0.02 0.02 0.02 0.02 
0.02 0.02 0.02 0.02 0.02 0.02 0.02 0.02 0.02 
0.02 0.02 0.02 0.02 0.02 0.02 0.02 0.02 0.02 
0.02 0.02 0.02 0.02 0.02 0.02 0.02 0.02 0.02 
0.02 0.02 0.02 0.02 0.02 0.02 0.02 0.02 0.02 
0.02 0.02 0.02 0.02 0.02 0.02 
POINT_DATA 4929
FIELD FieldData 1
Bed_Elev_m 1 4929 double
0 5.1584879698e-20 8.2585350466e-20 0 0 7.633537409e-20 -1.0472138867e-19 -1.0474616531e-19 0 
0 7.6430874677e-20 -1.047413444e-19 7.6430971612e-20 1.9900855048e-18 -1.0474130562e-19 7.6430325377e-20 2.0948253887e-18 0 
1.9900857116e-18 0 -1.0474154473e-19 0 -1.0474482114e-19 0 0 0 7.5297934506e-20 
-9.0429310344e-20 -9.209014038e-20 -7.6045124168e-20 0 0.28700000048 0.28700000048 0.28700000048 0.28700000048 0.28700000048 
0.28700000048 0.28700000048 0.28700000048 0.28700000048 0.28700000048 0.28700000048 0.28700000048 0.28700000048 0.28700000048 
0.28700000048 0.28700000048 0.28700000048 0.28700000048 0.28700000048 0.28700000048 0.28700000048 0.28700000048 0.28700000048 
0.28700000048 0.28700000048 0.28700000048 0.28700000048 0.28700000048 0.28700000048 0.28700000048 0.28700000048 0.0088206361979 
0.0084257312119 0.0085216797888 0.0085016461089 0.0085061937571 0.008505162783 0.0085054002702 0.0085053443909 0.0085053574294 0.0085053546354 
0.0085053555667 0.0085053546354 0.0085053546354 0.0085053546354 0.0085053546354 0.0085053555667 0.0085053555667 0.0085053555667 0.0085053555667 
0.0085053555667 0.0085053555667 0.0085053546354 0.0085053574294 0.0085053471848 0.0085053918883 0.0085051963106 0.0085060643032 0.0085021760315 
0.0085194725543 0.0084366155788 0.0088125346228 0.02315544337 0.023171309382 0.023177724332 0.023176256567 0.023176565766 0.023176498711 
0.023176513612 0.023176509887 0.02317651175 0.023176509887 0.023176509887 0.023176509887 0.023176509887 0.023176509887 0.023176509887 
0.023176509887 0.023176509887 0.023176509887 0.023176509887 0.023176509887 0.023176509887 0.023176509887 0.02317651175 0.023176509887 
0.023176513612 0.023176500574 0.023176558316 0.02317628637 0.023177588359 0.023171856999 0.023155016825 0.039393652231 0.039554331452 
0.03961930424 0.039604440331 0.03960756585 0.039606891572 0.039607036859 0.039607003331 0.039607010782 0.039607007056 0.039607007056 
0.039607007056 0.039607007056 0.039607007056 0.039607007056 0.039607007056 0.039607007056 0.039607007056 0.039607007056 0.039607007056 
0.039607007056 0.039607007056 0.039607010782 0.039607007056 0.039607033134 0.039606906474 0.03960749507 0.03960474208 0.039617925882 
0.039559889585 0.039389334619 0.056150559336 0.055902633816 0.055933699012 0.055928990245 0.055929873139 0.055929701775 0.055929739028 
0.055929727852 0.055929731578 0.055929731578 0.055929731578 0.055929731578 0.055929731578 0.055929731578 0.055929731578 0.055929731578 
0.055929731578 0.055929731578 0.055929731578 0.055929731578 0.055929731578 0.055929731578 0.055929731578 0.055929731578 0.055929739028 
0.055929705501 0.055929850787 0.055929102004 0.055933218449 0.055904746056 0.056148931384 0.077544353902 0.077273264527 0.077307231724 
0.077302083373 0.077303051949 0.077302858233 0.077302902937 0.077302888036 0.077302895486 0.077302895486 0.077302895486 0.077302895486 
0.077302895486 0.077302895486 0.077302895486 0.077302895486 0.077302895486 0.077302895486 0.077302895486 0.077302895486 0.077302895486 
0.077302895486 0.077302895486 0.077302895486 0.077302902937 0.077302865684 0.077303022146 0.077302202582 0.077306702733 0.077275574207 
0.077542573214 0.1177598536 0.11818488687 0.11812788248 0.11813484877 0.1181339249 0.11813402921 0.11813402176 0.11813402176 
0.11813402176 0.11813402176 0.11813402176 0.11813402176 0.11813402176 0.11813402176 0.11813402176 0.11813402176 0.11813402176 
0.11813402176 0.11813402176 0.11813402176 0.11813402176 0.11813402176 0.11813402176 0.11813402176 0.11813402176 0.11813403666 
0.1181338802 0.11813506484 0.11812691391 0.11818906665 0.11775659025 0.1529057622 0.15299530327 0.15298101306 0.15298298001 
0.15298268199 0.15298272669 0.15298272669 0.15298272669 0.15298272669 0.15298272669 0.15298272669 0.15298272669 0.15298272669 
0.15298272669 0.15298272669 0.15298272669 0.15298272669 0.15298272669 0.15298272669 0.15298272669 0.15298272669 0.15298272669 
0.15298272669 0.15298272669 0.15298272669 0.15298272669 0.15298266709 0.15298302472 0.15298080444 0.15299625695 0.15290501714 
0.15526036918 0.15538688004 0.15536668897 0.15536946058 0.15536904335 0.15536910295 0.15536910295 0.15536910295 0.15536910295 
0.15536910295 0.15536910295 0.15536910295 0.15536910295 0.15536910295 0.15536910295 0.15536910295 0.15536910295 0.15536910295 
0.15536910295 0.15536910295 0.15536910295 0.15536910295 0.15536910295 0.15536910295 0.15536910295 0.15536910295 0.15536902845 
0.15536953509 0.15536637604 0.15538823605 0.1552593112 0.17458346486 0.17403116822 0.17408725619 0.17408081889 0.17408159375 
0.17408151925 0.17408151925 0.17408151925 0.17408151925 0.17408151925 0.17408151925 0.17408151925 0.17408151925 0.17408151925 
0.17408151925 0.17408151925 0.17408151925 0.17408151925 0.17408151925 0.17408151925 0.17408151925 0.17408151925 0.17408151925 
0.17408151925 0.17408151925 0.17408153415 0.17408156395 0.1740809828 0.17408658564 0.17403407395 0.17458117008 0.20791427791 
0.20812185109 0.20813266933 0.20813165605 0.20813168585 0.20813173056 0.20813171566 0.20813171566 0.20813171566 0.20813171566 
0.20813171566 0.20813171566 0.20813171566 0.20813171566 0.20813171566 0.20813171566 0.20813171566 0.20813171566 0.20813171566 
0.20813171566 0.20813171566 0.20813171566 0.20813171566 0.20813173056 0.20813171566 0.20813173056 0.20813167095 0.20813176036 
0.20813216269 0.20812395215 0.20791260898 0.23703016341 0.23698055744 0.23695702851 0.23696154356 0.23696051538 0.2369607538 
0.23696069419 0.2369607091 0.2369607091 0.2369607091 0.2369607091 0.2369607091 0.2369607091 0.2369607091 0.2369607091 
0.2369607091 0.2369607091 0.2369607091 0.2369607091 0.2369607091 0.2369607091 0.2369607091 0.2369607091 0.2369607091 
0.23696069419 0.2369607538 0.23696050048 0.23696158826 0.23695681989 0.23698160052 0.23702934384 0.26729035378 0.26729035378 
0.26729035378 0.26729035378 0.26729035378 0.26729035378 0.26729035378 0.26729035378 0.26729035378 0.26729035378 0.26729035378 
0.26729035378 0.26729035378 0.26729035378 0.26729035378 0.26729035378 0.26729035378 0.26729035378 0.26729035378 0.26729035378 
0.26729035378 0.26729035378 0.26729035378 0.26729035378 0.26729035378 0.26729035378 0.26729035378 0.26729035378 0.26729035378 
0.26729035378 0.26729035378 0.28662857413 0.28662857413 0.28662857413 0.28662857413 0.28662857413 0.28662857413 0.28662857413 
0.28662857413 0.28662857413 0.28662857413 0.28662857413 0.28662857413 0.28662857413 0.28662857413 0.28662857413 0.28662857413 
0.28662857413 0.28662857413 0.28662857413 0.28662857413 0.28662857413 0.28662857413 0.28662857413 0.28662857413 0.28662857413 
0.28662857413 0.28662857413 0.28662857413 0.28662857413 0.28662857413 0.28662857413 0.28700000048 0.28700000048 0.28700000048 
0.28700000048 0.28700000048 0.28700000048 0.28700000048 0.28700000048 0.28700000048 0.28700000048 0.28700000048 0.28700000048 
0.28700000048 0.28700000048 0.28700000048 0.28700000048 0.28700000048 0.28700000048 0.28700000048 0.28700000048 0.28700000048 
0.28700000048 0.28700000048 0.28700000048 0.28700000048 0.28700000048 0.28700000048 0.28700000048 0.28700000048 0.28700000048 
0.28700000048 0.28700000048 0.28700000048 0.28700000048 0.28700000048 0.28700000048 0.28700000048 0.28700000048 0.28700000048 
0.28700000048 0.28700000048 0.28700000048 0.28700000048 0.28700000048 0.28700000048 0.28700000048 0.28700000048 0.28700000048 
0.28700000048 0.28700000048 0.28700000048 0.28700000048 0.28700000048 0.28700000048 0.28700000048 0.28700000048 0.28700000048 
0.28700000048 0.28700000048 0.28700000048 0.28700000048 0.28700000048 0.28700000048 0.28700000048 0.28700000048 0.28700000048 
0.28700000048 0.28700000048 0.28700000048 0.28700000048 0.28700000048 0.28700000048 0.28700000048 0.28700000048 0.28700000048 
0.28700000048 0.28700000048 0.28700000048 0.28700000048 0.28700000048 0.28700000048 0.28700000048 0.28700000048 0.28700000048 
0.28700000048 0.28700000048 0.28700000048 0.28700000048 0.28700000048 0.28700000048 0.28700000048 0.28700000048 0.28700000048 
0.28700000048 0.28700000048 0.28700000048 0.28700000048 0.28700000048 0.28700000048 0.28700000048 0.28700000048 0.28700000048 
0.28700000048 0.28700000048 0.28700000048 0.28700000048 0.28700000048 0.28700000048 0.28700000048 0.28700000048 0.28700000048 
0.28700000048 0.28700000048 0.28700000048 0.28700000048 0.28700000048 0.28700000048 0.28700000048 0.28700000048 0.28700000048 
0.28700000048 0.28700000048 0.28700000048 0.28700000048 0.28700000048 0.28700000048 0.28700000048 0.28700000048 0.28700000048 
0.28700000048 0.28700000048 0.28700000048 0.28700000048 0.28700000048 0.28700000048 0.28700000048 0.28700000048 0.28700000048 
0.28700000048 0.28700000048 0.28700000048 0.28700000048 0.28700000048 0.28700000048 0.28700000048 0.28700000048 0.28700000048 
0.28700000048 0.28700000048 0.28700000048 0.28700000048 0.28700000048 0.28700000048 0.28700000048 0.28700000048 0.28700000048 
0.28700000048 0.28700000048 0.28700000048 0.28700000048 0.28700000048 0.28700000048 0.28700000048 0.28700000048 0.28700000048 
0.28700000048 0.28700000048 0.28700000048 0.28700000048 0.28700000048 0.28700000048 0.28700000048 0.28700000048 0.28700000048 
0.28700000048 0.28700000048 0.28700000048 0.28700000048 0.28700000048 0.28700000048 0.28700000048 0.28700000048 0.28700000048 
0.28700000048 0.28700000048 0.28700000048 0.28700000048 0.28700000048 0.28700000048 0.28700000048 0.28700000048 0.28700000048 
0.28700000048 0.28700000048 0.28700000048 0.28700000048 0.28700000048 0.28700000048 0.28700000048 0.28700000048 0.28700000048 
0.28700000048 0.28700000048 0.28700000048 0.28700000048 0.28700000048 0.28700000048 0.28700000048 0.28700000048 0.28700000048 
0.28700000048 0.28700000048 0.28700000048 0.28700000048 0.28700000048 0.28700000048 0.28700000048 0.28700000048 0.28700000048 
0.28700000048 0.28700000048 0.28700000048 0.28700000048 0.28700000048 0.28700000048 0.28700000048 0.28700000048 0.28700000048 
0.28700000048 0.28700000048 0.28700000048 0.28700000048 0.28700000048 0.28700000048 0.28700000048 0.28700000048 0.28700000048 
0.28700000048 0.28700000048 0.28700000048 0.28700000048 0.28700000048 0.28700000048 0.28700000048 0.28700000048 0.28700000048 
0.28700000048 0.28700000048 0.28700000048 0.28700000048 0.28700000048 0.28700000048 0.28700000048 0.28700000048 0.28700000048 
0.28700000048 0.28700000048 0.28700000048 0.28700000048 0.28700000048 0.28700000048 0.28700000048 0.28700000048 0.28700000048 
0.28700000048 0.28700000048 0.28700000048 0.28700000048 0.28700000048 0.28700000048 0.28700000048 0.28700000048 0.28700000048 
0.28700000048 0.28700000048 0.28700000048 0.28700000048 0.28700000048 0.28700000048 0.28700000048 0.28700000048 0.28700000048 
0.28700000048 0.28700000048 0.28700000048 0.28700000048 0.28700000048 0.28700000048 0.28700000048 0.28700000048 0.28700000048 
0.28700000048 0.28700000048 0.28700000048 0.28700000048 0.28700000048 0.28700000048 0.28700000048 0.28700000048 0.28700000048 
0.28700000048 0.28700000048 0.28700000048 0.28700000048 0.28700000048 0.28700000048 0.28700000048 0.28700000048 0.28700000048 
0.28700000048 0.28700000048 0.28700000048 0.28700000048 0.28700000048 0.28700000048 0.28700000048 0.28700000048 0.28700000048 
0.28700000048 0.28700000048 0.28700000048 0.28700000048 0.28700000048 0.28700000048 0.28700000048 0.28700000048 0.28700000048 
0.28700000048 0.28700000048 0.28700000048 0.28700000048 0.28700000048 0.28700000048 0.28700000048 0.28700000048 0.28700000048 
0.28700000048 0.28700000048 0.28700000048 0.28700000048 0.28700000048 0.28700000048 0.28700000048 0.28700000048 0.28700000048 
0.28700000048 0.28700000048 0.28700000048 0.28700000048 0.28700000048 0.28700000048 0.28700000048 0.28700000048 0.28700000048 
0.28700000048 0.28700000048 0.28700000048 0.28700000048 0.28700000048 0.28700000048 0.28700000048 0.28700000048 0.28700000048 
0.28700000048 0.28700000048 0.28700000048 0.28700000048 0.28700000048 0.28700000048 0.28700000048 0.28700000048 0.28700000048 
0.28700000048 0.28700000048 0.28700000048 0.28700000048 0.28700000048 0.28700000048 0.28700000048 0.28700000048 0.28700000048 
0.28700000048 0.28700000048 0.28700000048 0.28700000048 0.28700000048 0.28700000048 0.28700000048 0.28700000048 0.28700000048 
0.28700000048 0.28700000048 0.28700000048 0.28700000048 0.28700000048 0.28700000048 0.28700000048 0.28700000048 0.28700000048 
0.28700000048 0.28700000048 0.28700000048 0.28700000048 0.28700000048 0.28700000048 0.28700000048 0.28700000048 0.28700000048 
0.28700000048 0.28700000048 0.28700000048 0.28700000048 0.28700000048 0.28700000048 0.28700000048 0.28700000048 0.28700000048 
0.28700000048 0.28700000048 0.28700000048 0.28700000048 0.28700000048 0.28700000048 0.28700000048 0.28700000048 0.28700000048 
0.28700000048 0.28700000048 0.28700000048 0.28700000048 0.28700000048 0.28700000048 0.28700000048 0.28700000048 0.28700000048 
0.28700000048 0.28700000048 0.28700000048 0.28700000048 0.28700000048 0.28700000048 0.28700000048 0.28700000048 0.28700000048 
0.28700000048 0.28700000048 0.28700000048 0.28700000048 0.28700000048 0.28700000048 0.28700000048 0.28700000048 0.28700000048 
0.28700000048 0.28700000048 0.28700000048 0.28700000048 0.28700000048 0.28700000048 0.28700000048 0.28700000048 0.28700000048 
0.28700000048 0.28700000048 0.28700000048 0.28700000048 0.28700000048 0.28700000048 0.28700000048 0.28700000048 0.28700000048 
0.28700000048 0.28700000048 0.28700000048 0.28700000048 0.28700000048 0.28700000048 0.28700000048 0.28700000048 0.28700000048 
0.28700000048 0.28700000048 0.28700000048 0.28700000048 0.28700000048 0.28700000048 0.28700000048 0.28700000048 0.28700000048 
0.28700000048 0.28700000048 0.28700000048 0.28700000048 0.28700000048 0.28700000048 0.28700000048 0.28700000048 0.28700000048 
0.28700000048 0.28700000048 0.28700000048 0.28700000048 0.28700000048 0.28700000048 0.28700000048 0.28700000048 0.28700000048 
0.28700000048 0.28700000048 0.28700000048 0.28700000048 0.28700000048 0.28700000048 0.28700000048 0.28700000048 0.28700000048 
0.28700000048 0.28700000048 0.28700000048 0.28700000048 0.28700000048 0.28700000048 0.28700000048 0.28700000048 0.28700000048 
0.28700000048 0.28700000048 0.28700000048 0.28700000048 0.28700000048 0.28700000048 0.28700000048 0.28700000048 0.28700000048 
0.28700000048 0.28700000048 0.28700000048 0.28700000048 0.28700000048 0.28700000048 0.28700000048 0.28700000048 0.28700000048 
0.28700000048 0.28700000048 0.28700000048 0.28700000048 0.28700000048 0.28700000048 0.28700000048 0.28700000048 0.28700000048 
0.28700000048 0.28700000048 0.28700000048 0.28700000048 0.28700000048 0.28700000048 0.28700000048 0.28700000048 0.28700000048 
0.28700000048 0.28700000048 0.28700000048 0.28700000048 0.28700000048 0.28700000048 0.28700000048 0.28700000048 0.28700000048 
0.28700000048 0.28700000048 0.28700000048 0.28700000048 0.28700000048 0.28700000048 0.28700000048 0.28700000048 0.28700000048 
0.28700000048 0.28700000048 0.28700000048 0.28700000048 0.28700000048 0.28700000048 0.28700000048 0.28700000048 0.28700000048 
0.28700000048 0.28700000048 0.28700000048 0.28700000048 0.28700000048 0.28700000048 0.28700000048 0.28700000048 0.28700000048 
0.28700000048 0.28700000048 0.28700000048 0.28700000048 0.28700000048 0.28700000048 0.28700000048 0.28700000048 0.28700000048 
0.28700000048 0.28700000048 0.28700000048 0.28700000048 0.28700000048 0.28700000048 0.28700000048 0.28700000048 0.28700000048 
0.28700000048 0.28700000048 0.28700000048 0.28700000048 0.28700000048 0.28700000048 0.28700000048 0.28700000048 0.28700000048 
0.28700000048 0.28700000048 0.28700000048 0.28700000048 0.28700000048 0.28700000048 0.28700000048 0.28700000048 0.28700000048 
0.28700000048 0.28700000048 0.28700000048 0.28700000048 0.28700000048 0.28700000048 0.28700000048 0.28700000048 0.28700000048 
0.28700000048 0.28700000048 0.28700000048 0.28700000048 0.28700000048 0.28700000048 0.28700000048 0.28700000048 0.28700000048 
0.28700000048 0.28700000048 0.28700000048 0.28700000048 0.28700000048 0.28700000048 0.28700000048 0.28700000048 0.28700000048 
0.28700000048 0.28700000048 0.28700000048 0.28700000048 0.28700000048 0.28700000048 0.28700000048 0.28700000048 0.28700000048 
0.28700000048 0.28700000048 0.28700000048 0.28700000048 0.28700000048 0.28700000048 0.28700000048 0.28700000048 0.28700000048 
0.28700000048 0.28700000048 0.28700000048 0.28700000048 0.28700000048 0.28700000048 0.28700000048 0.28700000048 0.28700000048 
0.28700000048 0.28700000048 0.28700000048 0.28700000048 0.28700000048 0.28700000048 0.28700000048 0.28700000048 0.28700000048 
0.28700000048 0.28700000048 0.28700000048 0.28700000048 0.28700000048 0.28700000048 0.28700000048 0.28700000048 0.28700000048 
0.28700000048 0.28700000048 0.28700000048 0.28700000048 0.28700000048 0.28700000048 0.28700000048 0.28700000048 0.28700000048 
0.28700000048 0.28700000048 0.28700000048 0.28700000048 0.28700000048 0.28700000048 0.28700000048 0.28700000048 0.28700000048 
0.28700000048 0.28700000048 0.28700000048 0.28700000048 0.28700000048 0.28700000048 0.28700000048 0.28700000048 0.28700000048 
0.28700000048 0.28700000048 0.28700000048 0.28700000048 0.28700000048 0.28700000048 0.28700000048 0.28700000048 0.28700000048 
0.28700000048 0.28700000048 0.28700000048 0.28700000048 0.28700000048 0.28700000048 0.28700000048 0.28700000048 0.28700000048 
0.28700000048 0.28700000048 0.28700000048 0.28700000048 0.28700000048 0.28700000048 0.28700000048 0.28700000048 0.28700000048 
0.28700000048 0.28700000048 0.28700000048 0.28700000048 0.28700000048 0.28700000048 0.28700000048 0.28700000048 0.28700000048 
0.28700000048 0.28700000048 0.28700000048 0.28700000048 0.28700000048 0.28700000048 0.28700000048 0.28700000048 0.28700000048 
0.28700000048 0.28700000048 0.28700000048 0.28700000048 0.28700000048 0.28700000048 0.28700000048 0.28700000048 0.28700000048 
0.28700000048 0.28700000048 0.28700000048 0.28700000048 0.28700000048 0.28700000048 0.28700000048 0.28700000048 0.28700000048 
0.28700000048 0.28700000048 0.28700000048 0.28700000048 0.28700000048 0.28700000048 0.28700000048 0.28700000048 0.28700000048 
0.28700000048 0.28700000048 0.28700000048 0.28700000048 0.28700000048 0.28700000048 0.28700000048 0.28700000048 0.28700000048 
0.28700000048 0.28700000048 0.28700000048 0.28700000048 0.28700000048 0.28700000048 0.28700000048 0.28700000048 0.28700000048 
0.28700000048 0.28700000048 0.28700000048 0.28700000048 0.28700000048 0.28700000048 0.28700000048 0.28700000048 0.28700000048 
0.28700000048 0.28700000048 0.28700000048 0.28700000048 0.28700000048 0.28700000048 0.28700000048 0.28700000048 0.28700000048 
0.28700000048 0.28700000048 0.28700000048 0.28700000048 0.28700000048 0.28700000048 0.28700000048 0.28700000048 0.28700000048 
0.28700000048 0.28700000048 0.28700000048 0.28700000048 0.28700000048 0.28700000048 0.28700000048 0.28700000048 0.28700000048 
0.28700000048 0.28700000048 0.28700000048 0.28700000048 0.28700000048 0.28700000048 0.28700000048 0.28700000048 0.28700000048 
0.28700000048 0.28700000048 0.28700000048 0.28700000048 0.28700000048 0.28700000048 0.28700000048 0.28700000048 0.28700000048 
0.28700000048 0.28700000048 0.28700000048 0.28700000048 0.28700000048 0.28700000048 0.28700000048 0.28700000048 0.28700000048 
0.28700000048 0.28700000048 0.28700000048 0.28700000048 0.28700000048 0.28700000048 0.28700000048 0.28700000048 0.28700000048 
0.28700000048 0.28700000048 0.28700000048 0.28700000048 0.28700000048 0.28700000048 0.28700000048 0.28700000048 0.28700000048 
0.28700000048 0.28700000048 0.28700000048 0.28700000048 0.28700000048 0.28700000048 0.28700000048 0.28700000048 0.28700000048 
0.28700000048 0.28700000048 0.28700000048 0.28700000048 0.28700000048 0.28700000048 0.28700000048 0.28700000048 0.28700000048 
0.28700000048 0.28700000048 0.28700000048 0.28700000048 0.28700000048 0.28700000048 0.28700000048 0.28700000048 0.28700000048 
0.28700000048 0.28700000048 0.28700000048 0.28700000048 0.28700000048 0.28700000048 0.28700000048 0.28700000048 0.28700000048 
0.28700000048 0.28700000048 0.28700000048 0.28700000048 0.28700000048 0.28700000048 0.28700000048 0.28700000048 0.28700000048 
0.28700000048 0.28700000048 0.28700000048 0.28700000048 0.28700000048 0.28700000048 0.28700000048 0.28700000048 0.28700000048 
0.28700000048 0.28700000048 0.28700000048 0.28700000048 0.28700000048 0.28700000048 0.28700000048 0.28700000048 0.28700000048 
0.28700000048 0.28700000048 0.28700000048 0.28700000048 0.28700000048 0.28700000048 0.28700000048 0.28700000048 0.28700000048 
0.28700000048 0.28700000048 0.28700000048 0.28700000048 0.28700000048 0.28700000048 0.28700000048 0.28700000048 0.28700000048 
0.28700000048 0.28700000048 0.28700000048 0.28700000048 0.28700000048 0.28700000048 0.28700000048 0.28700000048 0.28700000048 
0.28700000048 0.28700000048 0.28700000048 0.28700000048 0.28700000048 0.28700000048 0.28700000048 0.28700000048 0.28700000048 
0.28700000048 0.28700000048 0.28700000048 0.28700000048 0.28700000048 0.28700000048 0.28700000048 0.28700000048 0.28700000048 
0.28700000048 0.28700000048 0.28700000048 0.28700000048 0.28700000048 0.28700000048 0.28700000048 0.28700000048 0.28700000048 
0.28700000048 0.28700000048 0.28700000048 0.28700000048 0.28700000048 0.28700000048 0.28700000048 0.28700000048 0.28700000048 
0.28700000048 0.28700000048 0.28700000048 0.28700000048 0.28700000048 0.28700000048 0.28700000048 0.28700000048 0.28700000048 
0.28700000048 0.28700000048 0.28700000048 0.28700000048 0.28700000048 0.28700000048 0.28700000048 0.28700000048 0.28700000048 
0.28700000048 0.28700000048 0.28700000048 0.28700000048 0.28700000048 0.28700000048 0.28700000048 0.28700000048 0.28700000048 
0.28700000048 0.28700000048 0.28700000048 0.28700000048 0.28700000048 0.28700000048 0.28700000048 0.28700000048 0.28700000048 
0.28700000048 0.28700000048 0.28700000048 0.28700000048 0.28700000048 0.28700000048 0.28700000048 0.28700000048 0.28700000048 
0.28700000048 0.28700000048 0.28700000048 0.28700000048 0.28700000048 0.28700000048 0.28700000048 0.28700000048 0.28700000048 
0.28700000048 0.28700000048 8.626563857e-20 -2.792176075e-19 -3.4507974413e-19 -2.7544216132e-20 0 -2.9697932722e-20 -3.7510316919e-19 
-4.0906834251e-19 0 0 -3.6529477168e-19 -3.8071887252e-19 -3.7288660949e-19 6.3184215905e-18 -2.1184560777e-19 -1.5175134016e-20 
1.1197501559e-18 -1.6109846493e-19 3.0736596404e-18 -8.7455350473e-20 -1.8331800636e-20 -1.3254787372e-19 -1.1761625554e-19 0 0 
0 -8.3520833577e-20 0 0 0 -3.213069029e-20 0 0 0 
0 0 0 7.7203132306e-18 0 0 6.2368764714e-18 0 3.7692866891e-18 
3.6630030794e-18 0 -2.1464056834e-18 1.3748987721e-18 -1.0958315047e-18 -1.4056626531e-18 -1.5481993143e-18 0 0 
5.5371578772e-19 0 -8.0508020774e-19 -4.722080989e-22 8.3734562831e-20 0 4.4392731034e-19 0 -6.426138058e-20 
-3.8127791736e-21 -1.1092208963e-19 2.8469569512e-20 -1.1985989248e-20 -7.0741830154e-20 1.2797675733e-19 -5.4661031918e-21 2.2934109811e-19 -4.719095283e-21 
-1.2894719529e-19 7.8701026632e-20 -4.4115404032e-21 -5.8480461656e-21 1.0519851678e-19 -2.2531725217e-19 4.0125158266e-20 -7.6169884653e-21 1.3628264265e-20 
4.5659361687e-20 -1.3844397835e-19 -7.5461530474e-22 -1.2262354006e-20 1.9545888518e-20 -5.0017997064e-22 -2.6443653942e-20 -3.2032000534e-20 -3.0131604776e-20 
6.5202688489e-22 1.7990052259e-20 -1.5679641488e-20 4.8803575361e-20 -2.4687528499e-21 -7.0398272319e-20 2.1053619055e-20 -6.5994646273e-21 0 
0 -2.9632336855e-22 1.3633350134e-20 -4.6009427511e-22 0 1.0135534518e-20 -1.8942066209e-22 -8.4500829346e-21 1.0752728386e-20 
-2.6902269753e-22 -8.9220988796e-23 -8.6672606584e-21 6.6957709881e-21 -6.541086194e-21 -8.8926407182e-21 -3.1441613701e-21 2.5428675058e-22 1.949116212e-21 
6.7371306245e-22 9.3164188917e-23 -4.1960266331e-22 4.0322073599e-22 4.9103945321e-21 8.3491297413e-21 -8.1350547526e-21 -6.5833406638e-21 -1.645835166e-21 
-5.4257199758e-20 6.780490471e-19 -1.8062394696e-19 -7.5353194048e-20 -3.6496868642e-21 6.035345322e-22 -2.1118449335e-20 4.7245235548e-22 0 
-1.9973421341e-20 4.5928380572e-22 5.3107479291e-22 5.5535343246e-22 4.348927314e-22 1.4388050661e-20 3.0681923231e-22 5.5987521851e-21 5.5655635825e-21 
1.3681199533e-22 -1.1464421983e-20 1.4478356731e-22 -1.884135076e-21 3.1526599643e-21 6.9595390137e-21 -3.2944893295e-21 -1.5206260776e-22 4.3304908395e-21 
7.0784478423e-21 0 -6.5375670414e-21 5.1542443879e-21 -5.2049777821e-20 -6.0489112577e-19 -6.9263144643e-21 0 0 
7.7036419959e-23 1.305751348e-21 8.188836891e-23 0 7.4318108778e-22 -2.706042816e-23 2.961085207e-22 4.0683298687e-22 -1.8122646726e-23 
3.3670196195e-20 5.4130928497e-22 -1.5834719754e-23 -2.4056720988e-22 -1.9818591649e-22 2.2588942406e-22 -4.5286473252e-24 -2.347717896e-23 -7.7052815644e-23 
-1.65579468e-22 1.505876619e-23 1.8486493357e-22 3.3418928775e-21 1.2812774041e-20 1.7080778817e-20 -4.8672106958e-22 6.5008120302e-21 0 
-6.869360171e-19 0 0 -8.381724858e-20 0 6.9878079111e-20 0 0 6.8992252686e-20 
0 0 1.5286194322e-18 1.5286130216e-18 0 3.0572130151e-18 -3.4525484792e-20 -1.5286048532e-18 -6.8942583075e-20 
1.5286153997e-18 0 0 0 0 -1.5830589025e-20 7.6705162598e-20 0 3.0384117814e-20 
0 -2.080259882e-20 2.8846046551e-20 1.7428364634e-19 5.1584879698e-20 3.3859993174e-18 -2.9961313103e-18 0 7.633537409e-20 
3.1346371204e-18 3.1334300571e-18 -3.0572810507e-18 3.0572202529e-18 7.6430874677e-20 -1.4521845315e-18 1.6050504039e-18 -1.047413444e-19 4.0849111003e-18 
1.6050368588e-18 4.0849098595e-18 1.9900846776e-18 -1.0474135086e-19 -1.0474116345e-19 -1.0474154473e-19 -1.0474043967e-19 -1.0474482114e-19 2.0421668641e-18 
-1.0480382497e-18 0 7.5297934506e-20 0 1.1421999411e-19 3.0769115459e-19 3.8397868933e-22 -3.035811918e-23 -1.2203765767e-23 
-1.5645167522e-23 0 0 -1.3057401619e-23 -1.2810620684e-23 -1.261654828e-23 1.4636993819e-23 0 0 
-2.4504870659e-23 0 -4.9031549852e-22 0 -1.2382490094e-23 -4.9942740996e-22 0 -5.8749261024e-22 0 
0 0 0 -1.4457710979e-23 -1.5225316816e-23 0 0 1.5146582186e-23 -1.4030208006e-22 
0 0 -5.0088073156e-23 1.0615386919e-21 -3.4303194423e-24 0 0 -2.2963955423e-25 1.4377674334e-24 
-1.4167091367e-25 0 2.604325671e-25 0 -3.053458697e-27 0 0 1.0404385087e-25 -1.1357575579e-26 
1.4443352921e-25 -3.4024261095e-25 7.1828965516e-26 -2.1713495024e-25 0 1.1212178654e-25 0 7.9254242046e-25 -1.0221011904e-25 
0 0 -1.1928149916e-22 -4.1121990547e-23 0 0 1.0140924319e-22 -2.6540414207e-23 6.9539390416e-24 
0 -1.8645814545e-23 -1.1829329192e-25 1.0949318367e-24 0 0 6.3201760789e-25 0 -1.408792178e-26 
1.1406041221e-25 0 4.7498301179e-26 8.6078381914e-26 5.8871999103e-25 1.6058940055e-25 5.3120512851e-25 0 0 
0 -8.5302980948e-26 5.7754010637e-25 -1.0727822002e-24 2.8411714942e-24 0 -3.9795710262e-23 3.0175579922e-23 5.7658663978e-23 
0 1.0260760495e-22 -2.6862319944e-23 7.0690496249e-24 7.4234285049e-23 -4.6426722387e-25 -1.138504273e-25 4.9727770009e-26 0 
0 -4.6528988342e-26 0 6.4394079674e-25 3.0793086828e-25 0 1.6058940055e-25 3.4945108291e-26 -2.1907357591e-25 
1.201997222e-25 3.4638192095e-25 4.1358991185e-26 0 0 0 -3.6431692015e-27 6.505161496e-26 2.8385865449e-26 
0 -9.0172386602e-24 2.6355525721e-23 5.033641919e-23 0 1.0451931784e-22 -2.7341341529e-23 -2.8071780658e-22 7.5510598885e-23 
0 0 1.409567431e-24 2.1863748374e-25 -4.0583540915e-25 0 2.4944669292e-25 -4.1391383786e-26 1.6252802623e-25 
0 0 -2.4495536266e-25 -6.3654172518e-26 -1.7125184176e-26 -9.6931283729e-28 0 1.8482320756e-25 0 
1.4184853063e-25 -2.1577783831e-25 5.4146401806e-26 4.5473930269e-24 -8.5668937466e-24 0 2.4743169762e-23 4.7207834706e-23 0 
-1.0714942428e-22 2.8044929726e-23 -7.378434561e-24 0 0 6.017714975e-24 1.1984585892e-24 4.2166834055e-27 -2.1196495308e-25 
6.656211103e-26 0 -1.6640527758e-27 0 1.2730834504e-25 1.4443352921e-25 -3.6593038722e-27 1.4637215489e-25 -2.8175843559e-25 
-1.796532104e-25 -2.8983637126e-25 1.567121492e-26 6.0099861102e-26 0 1.16887739e-26 -1.0989062165e-24 1.949997499e-24 0 
-3.7661469171e-23 -2.3919220323e-23 0 0 1.1049045847e-22 -1.1851972458e-21 7.5864414045e-24 0 0 
-1.4777775711e-25 1.3930076629e-24 8.014605423e-25 0 -5.7967274253e-25 0 -5.2021925433e-27 0 5.7870342969e-25 
4.2716127764e-25 6.9147109609e-27 2.2424357307e-25 6.927638419e-25 6.119844852e-25 0 7.9024141181e-26 -5.5576236849e-26 0 
-9.265393199e-27 -1.0909575555e-24 2.1989756085e-24 -8.0862565743e-24 -3.0891802515e-23 2.3601757452e-23 1.8034869858e-22 0 1.145552757e-22 
-1.2291799899e-21 7.861495114e-24 0 0 5.9208523221e-24 1.409567431e-24 2.8164538197e-25 0 3.5736779513e-25 
0 -4.3155567662e-25 -1.6866733622e-25 0 -5.1601857001e-25 -8.0294700276e-27 -3.806322893e-25 -7.3670733862e-26 2.3264494171e-26 
0 7.5932792508e-27 -2.7788118424e-26 -3.5543114161e-27 6.9214182508e-25 5.0915227539e-26 4.3414056673e-24 0 -3.1043263809e-23 
1.4220426983e-22 -1.8088103454e-22 0 -1.1879659582e-22 3.1101216686e-23 -8.1369527204e-24 0 0 7.4292775338e-26 
1.4058595876e-24 2.3991478799e-27 0 -4.9889338583e-25 0 1.1260644295e-26 5.5026893836e-25 0 -4.4525577466e-25 
-1.8761809244e-25 -2.756191256e-25 9.5965915196e-26 2.8175843559e-25 1.0598247654e-25 9.0472485068e-27 1.1632247086e-26 -1.0145885229e-25 1.7760959227e-25 
-6.7676944053e-26 -4.1515742777e-25 0 -3.7709936785e-23 -2.3995960712e-23 -1.8323252161e-22 0 -6.2149844749e-23 1.6267727082e-23 
-4.2607312291e-24 0 0 8.0755123874e-26 2.2195096579e-24 1.4112154601e-26 0 -1.4682456662e-24 0 
3.9762834681e-25 2.3522944725e-25 0 -4.0486609631e-25 3.1555644152e-25 -7.3670733862e-26 -3.2408673962e-25 1.2730834504e-25 -1.8482320756e-25 
1.2467946607e-25 0 0 2.0305508963e-25 -5.5560040548e-26 -4.7089032253e-24 8.4194714207e-24 -3.8856195856e-23 -1.47380611e-22 
1.8781432672e-22 -1.1776715127e-23 0 -1.3605163187e-21 0 0 0 0 1.2459407188e-24 
0 0 0 -1.0582076005e-27 0 2.9160544115e-25 -2.5038361315e-25 -2.3850908716e-25 -2.8579740343e-25 
-9.4317935461e-26 3.5392663595e-25 -3.0636374678e-25 1.620756638e-25 -1.4184853063e-26 -7.8283252879e-26 -2.1253046774e-26 1.0477083549e-26 -6.2325311672e-26 
-4.5857633199e-25 -1.7442767744e-24 -3.9907943081e-23 0 4.8354598648e-23 0 1.3623362776e-22 -3.5658586042e-23 9.348239174e-24 
-9.9203184203e-23 0 0 1.2853691701e-24 -3.8119780396e-26 0 -5.3928306418e-25 0 -7.1836282201e-25 
3.2214811394e-25 -2.130959824e-25 2.7303462006e-26 -4.9873216238e-26 7.5771076023e-26 -7.3670733862e-26 1.1147590667e-26 -1.2310766072e-25 0 
0 0 2.7004944713e-25 0 0 0 -3.4524857238e-23 2.6230317718e-23 5.013426885e-23 
1.2533567213e-23 -1.4247161163e-22 3.7287905667e-23 -4.0094707478e-22 1.0351680185e-22 -2.6594501666e-23 9.1054491852e-26 1.6451684318e-24 1.1890722292e-26 
2.8078912276e-25 -4.7465957882e-25 0 -3.0918710462e-25 -1.4847249705e-25 2.4847738008e-25 7.5771076023e-26 7.7661236055e-26 -2.4540772508e-25 
2.7303462006e-26 -2.0388701741e-25 0 -1.948397689e-25 1.2617731571e-25 0 -2.7416515634e-25 -1.5738888339e-24 4.4946079771e-24 
0 -4.2814788231e-23 -2.7222488589e-23 0 0 0 0 -4.13188328e-22 0 
0 0 1.9810328647e-24 0 0 -3.8451052673e-26 2.7040086001e-25 -3.8451052673e-26 -2.2930031938e-25 
4.5963473681e-27 -9.7662212662e-27 4.9436926854e-26 5.078921687e-25 1.3893245699e-25 2.1328989427e-25 -5.2797425007e-26 1.0924604341e-25 -1.0679840524e-25 
-1.4492622215e-25 1.0339919373e-24 -1.4593840958e-24 4.8648803534e-24 -1.1845775955e-23 -7.5031424261e-24 0 5.4526444422e-23 0 
0 1.6571865841e-21 0 0 0 0 1.779084473e-24 0 0 
-2.5655531575e-25 1.6861887058e-25 6.9631766028e-26 -4.325410625e-25 1.567121492e-27 1.222111696e-25 -4.7498301179e-26 -5.2586947056e-27 7.9559629824e-26 
-3.7458187407e-25 5.0802099954e-26 2.6517559329e-27 -1.6427283864e-25 1.1675846442e-25 3.6845082246e-25 -1.6438639516e-24 -5.3188359819e-25 8.3640886519e-24 
-4.7092055168e-23 0 5.7113504294e-23 0 -8.4222097146e-23 1.7858631516e-21 -5.7839269738e-24 0 0 
1.0811913095e-25 2.0519934669e-24 1.461702558e-26 0 0 0 5.6060893268e-27 -7.1732108188e-26 0 
0 -1.538845759e-27 2.6463325142e-25 -1.7125184176e-26 -5.9970586521e-25 -6.7693140353e-26 0 1.7125184176e-26 0 
8.2285489378e-25 -1.5293592135e-24 -5.7893757347e-25 -7.2518657977e-26 -4.9889848187e-23 -3.1693625982e-23 0 -1.5255907264e-23 0 
3.7369463409e-21 0 0 0 -9.2069076431e-24 2.0052666717e-24 0 0 3.4250368352e-26 
9.6127631682e-28 -4.3459333345e-26 -1.5255993052e-25 3.6660915272e-25 4.0372722768e-25 -3.7772435079e-25 3.5946010077e-25 -1.7981443385e-26 3.9905021929e-27 
8.5948860814e-27 5.5002685667e-26 1.9406436794e-25 -2.6737947344e-27 5.8473752536e-25 -8.2217228258e-26 2.750621898e-24 9.2946668411e-24 -9.6840589968e-23 
-8.3793556348e-23 2.5609994421e-22 0 0 -4.0095282021e-21 0 0 0 0 
2.3930075838e-24 0 -1.2310766072e-25 -2.0808770173e-25 1.3651731003e-27 -1.3538628071e-25 9.2084719543e-28 -3.9186024517e-26 6.2595964918e-26 
0 -1.0177784792e-27 1.7690698838e-27 -1.960999249e-25 -1.6608233764e-26 -7.3186077444e-27 2.406415261e-26 -1.3579007888e-26 1.9564761178e-26 
-8.5650350917e-26 -6.4961951057e-25 -2.4597799263e-24 -5.6053717e-23 -1.7809549726e-22 0 0 -1.0031970637e-22 2.6253974079e-23 
-6.8939367034e-24 0 -3.8089407279e-23 1.2144772481e-25 2.4189336947e-24 7.5049682446e-25 0 -2.3232150874e-25 1.4039456138e-25 
9.241160378e-27 0 0 2.5752462859e-25 1.1058695904e-26 2.2295181334e-26 -5.1537269014e-26 6.7693140353e-26 0 
-2.1971994882e-27 0 -2.7513446918e-25 2.0271580549e-26 -1.904680201e-24 -6.8294099521e-25 0 -6.4933261567e-23 -1.9008920909e-23 
-7.2604359579e-23 0 -1.074695251e-22 -2.2220844005e-21 -7.3873975986e-24 0 4.0771281922e-23 1.3447339608e-25 2.7140812692e-24 
1.1587799704e-26 1.9580908174e-25 -5.3928306418e-25 0 5.8355048691e-26 -1.888621754e-25 -2.1503460808e-25 6.3654172518e-26 7.4236248524e-27 
2.1245010254e-26 -2.5203119846e-26 0 -9.4996602359e-26 -1.4443352921e-25 -5.8080377185e-26 0 4.4054637366e-25 -9.6757512463e-26 
-8.0432731213e-24 0 -6.3579525766e-23 -4.0357211988e-23 0 0 -1.1443115317e-22 -2.3658530761e-21 -7.8667725935e-24 
0 0 1.4189499947e-25 3.1328717466e-24 9.7702641783e-27 0 -2.2688287979e-25 0 -2.0101901498e-26 
2.9887967547e-27 0 5.8645891846e-26 9.3563094183e-27 -1.1809938004e-25 -1.5445009056e-25 -2.2513202766e-25 0 0 
-3.2836828218e-26 0 9.470531547e-25 -2.1230873866e-24 -7.7472653926e-25 0 -6.7693820351e-23 -1.5043429788e-22 0 
0 -1.2372697648e-22 2.653215944e-21 -8.6030764298e-24 0 0 1.5431482556e-25 3.2365722457e-24 1.1941209389e-26 
0 -3.8451052673e-26 0 -9.943936837e-27 0 0 0 1.0622505127e-27 6.9712624271e-26 
4.9081545016e-25 2.4039944441e-25 -2.1915443416e-25 0 0 0 1.19280009e-24 -2.2390825788e-25 -8.4318699475e-25 
0 -7.3256084905e-23 -4.6500179142e-23 0 0 0 -2.7830204943e-21 -1.4616660077e-21 0 
5.0303246012e-23 0 1.3516486323e-23 0 0 -1.4346421638e-25 -5.4000980229e-27 0 1.7690698838e-27 
5.1012183474e-27 7.6255732441e-27 0 3.2909551333e-26 4.7752758125e-26 2.6296919864e-25 1.3651731003e-27 -2.9411742079e-26 2.5445694574e-28 
-1.7517001527e-26 3.1277767898e-26 -1.2003206461e-25 -9.0144910577e-25 -3.4463987941e-24 -7.8709297327e-23 0 9.538721788e-23 0 
0 0 0 0 1.0921757776e-22 0 3.8712698113e-24 0 0 
0 -1.1620069045e-26 -1.8385389472e-25 -6.4308483335e-26 3.0817344301e-27 -3.9246569592e-26 0 1.1026796341e-27 -2.9775308349e-26 
-1.1976343282e-25 -9.4390658576e-27 -1.1591817964e-27 -1.3913036247e-25 -2.3272530692e-26 1.4873155897e-24 -2.654262144e-24 -9.7273688805e-25 -3.7225632198e-24 
-8.4857414165e-23 0 1.0286132786e-22 0 0 -3.2637101732e-21 0 0 0 
0 3.8914646505e-24 0 0 -6.6723827516e-26 4.6973215639e-27 0 1.4350415246e-26 -9.9766252607e-28 
5.6234590578e-26 0 -1.7172471457e-25 1.1026796341e-27 2.7788118424e-27 -7.1982522221e-26 -3.0809357084e-26 -1.8647932242e-26 -2.5594937197e-26 
0 2.8287719813e-24 4.2181043412e-24 -4.0236682719e-24 -9.1930656586e-23 0 1.113572967e-22 -5.6443199717e-23 0 
3.5699810651e-21 0 0 6.5037397517e-23 0 4.5215436327e-24 0 0 5.9775935093e-27 
-2.0679495592e-27 0 1.0643888188e-25 -1.1591817964e-27 -8.3715644895e-26 1.7157527473e-25 -1.006793098e-25 -8.1595186782e-26 -3.0420285955e-25 
-3.169381807e-26 -8.9341948783e-27 1.2641989044e-27 -2.428227265e-26 0 -3.0589931479e-24 -1.1397483066e-24 -4.3731399638e-24 -9.9861775774e-23 
0 1.2102688862e-22 -6.0513444309e-23 0 -3.872120093e-21 0 0 0 0 
4.8527389952e-24 0 0 7.46400467e-26 -2.269897951e-27 -7.0277645894e-27 -4.766785697e-26 -2.4718463427e-27 -1.4688506239e-25 
0 -7.2366105837e-26 -9.8558851688e-26 -5.9946279745e-26 1.0821598828e-25 -2.7747689303e-27 -1.2570079442e-25 -1.8728691877e-26 4.1274213289e-26 
-1.6390535272e-25 -1.8692625157e-24 -4.7720890117e-24 -9.9812014428e-23 -1.7029689408e-22 5.203247771e-22 0 0 -4.3093585559e-21 
-1.1320640181e-21 0 7.8228672776e-23 0 5.297025457e-24 0 0 1.5945837123e-25 -2.3679139184e-27 
0 -4.0874334766e-27 1.4661472962e-27 -2.5452355518e-25 0 5.4114132465e-26 -4.766785697e-26 -8.6312722907e-27 2.2241780381e-25 
-2.5728205386e-27 -3.5005751973e-26 -3.0598006456e-25 1.8247208652e-24 3.5487179978e-24 -1.3472501805e-24 -3.0836598029e-23 -1.1735252598e-22 0 
1.422348019e-22 3.6099303698e-23 -4.5450217268e-22 4.8772616673e-21 1.218942822e-21 -3.2849339394e-22 8.6431816449e-23 5.6066124401e-25 6.1322094579e-24 
2.0120119255e-26 0 -5.6626407929e-26 0 -4.8728086027e-26 2.217389397e-26 0 -9.8873853708e-26 6.6158312854e-27 
1.0000488303e-25 -9.3865573036e-26 -3.028215148e-27 -1.0137848708e-26 6.969240971e-26 8.7867764966e-26 0 2.0172281696e-24 3.8344749721e-24 
6.5442725294e-24 0 -1.2658409184e-22 -8.033789751e-23 0 0 -2.5379541014e-22 2.0791160463e-20 -1.7458462131e-23 
0 9.6470671002e-23 6.3336266504e-25 6.5709423389e-24 1.7708158302e-24 0 3.8289336187e-26 0 -6.7632496671e-27 
-4.5397959019e-26 -3.3361913758e-26 0 -1.0582076005e-27 -4.4347787939e-26 2.0599130388e-27 -1.5445009056e-25 0 -4.5923044559e-26 
0 3.8065250386e-25 0 0 7.0465939103e-24 0 -3.0345765618e-23 -8.6637324181e-23 0 
0 -2.955698991e-22 -6.113094544e-21 -2.0337160725e-23 0 -1.1258009421e-22 7.1446244717e-25 7.3364032631e-24 5.0943503272e-26 
-6.8452418974e-25 -4.047053659e-26 0 -7.3442531194e-26 0 0 -2.5437411535e-25 1.694305838e-25 0 
-1.8134926135e-26 0 1.0194350871e-25 0 3.3846570177e-26 -3.0037801815e-25 5.8162147548e-26 4.4827293096e-24 -1.6823835366e-24 
0 -1.466490782e-22 -9.3134559301e-23 -7.1144843211e-22 0 0 0 0 0 
0 0 8.7846745767e-24 0 0 -1.0378034667e-25 -1.3455514179e-25 -1.1601925245e-27 -6.3304682485e-26 
-4.446293698e-26 -3.8253023934e-26 2.3215979225e-25 -8.7322464865e-27 -3.7340237911e-27 -1.1587693701e-25 -5.0971754353e-27 -6.0059431981e-27 2.5204377093e-25 
-3.8014763288e-26 6.0459310504e-26 -2.3834857862e-25 -1.8064303362e-24 -6.8395857648e-24 -1.562795931e-22 0 1.8952722774e-22 0 
0 -8.4812047973e-21 2.2592208922e-21 0 0 5.1075371233e-25 1.0988184755e-23 5.4136924629e-24 0 
-1.0913298978e-25 -1.9669753634e-27 6.4583056234e-26 -6.7632496671e-27 -9.7419884452e-27 -8.2273755072e-27 1.7763372649e-25 -5.6149689423e-26 -3.9186024517e-26 
-8.6312722907e-27 2.7361172111e-25 -9.5905271514e-27 1.6883102486e-27 -3.3067027691e-26 6.3311831537e-26 4.9709395466e-24 -1.8622185795e-24 2.8551252209e-23 
-1.6298146505e-22 2.0707707309e-22 1.9783664675e-22 0 -4.8583971631e-22 1.2733171741e-22 -2.714424684e-21 -7.0530076966e-22 1.8589341886e-22 
6.0960745008e-25 1.2932569114e-23 4.0213984233e-26 -2.1122184611e-24 -2.4645789616e-25 0 -1.4378715631e-27 0 -8.5787637367e-26 
0 -8.4798109969e-27 -3.6310281391e-26 -5.4485636647e-26 -9.2855831077e-26 0 0 0 0 
5.9853465329e-26 -2.4577018202e-25 -1.8459617339e-24 0 -1.6157863055e-22 -3.5980039288e-22 -7.8646973529e-22 0 -6.3190277814e-22 
1.6579894804e-22 -3.5386564462e-21 0 -9.8010815265e-22 7.9817676087e-25 6.8139482586e-23 5.1750286111e-26 0 -3.0502292977e-25 
0 -1.1097054265e-27 -1.1502972505e-25 0 0 1.4665084465e-25 -1.1607989613e-25 -1.4031370314e-25 0 
0 0 1.0806260414e-25 0 5.20027216e-26 4.1273001402e-24 -1.5737353019e-24 0 -1.3893545743e-22 
-8.8804987731e-23 0 0 -8.2650635736e-22 0 -5.733930784e-23 4.965953362e-21 3.1989624896e-22 1.0528336828e-24 
2.2100091299e-23 7.1238305913e-26 0 -2.0000976606e-25 0 5.2138997322e-26 -4.8932055875e-26 -2.13984437e-25 0 
7.094645203e-26 -7.0641507986e-26 -1.1809938004e-25 -1.3724404814e-25 -3.523989575e-28 -1.3621409162e-27 3.8350990597e-26 -7.9254636476e-27 1.127140633e-24 
-2.4252526678e-24 -8.8670697178e-25 0 -5.3264405813e-23 -5.3864280889e-23 7.6870998982e-23 0 0 -2.7403013816e-20 
0 0 0 3.6098460405e-24 1.5345157093e-22 0 0 -5.3423435439e-25 -8.0001835665e-27 
0 -1.1923331829e-25 1.0979627389e-25 1.4081857411e-25 9.4370444015e-26 1.0897127329e-25 -5.9806996491e-27 -1.9344935226e-25 1.889347999e-25 
-2.6737947344e-27 -1.45130192e-26 5.4079250022e-27 -4.9908517764e-25 2.1411377074e-24 1.6516077061e-24 5.8557985131e-24 1.2494934485e-22 1.8482348366e-22 
-1.8622741626e-22 1.1263504942e-22 0 0 0 0 9.0242749208e-22 2.4358113817e-22 6.6530812185e-23 
0 0 -1.12998211e-24 -1.2165369146e-26 0 -1.324861815e-25 -9.6438393575e-26 -9.5378164518e-26 0 
-8.9846819762e-27 -1.7436522924e-25 -7.3643468857e-26 7.2385334321e-26 3.809754438e-26 6.8360235647e-25 2.8972223295e-25 -3.3730329057e-25 2.4743646234e-23 
8.430636169e-24 1.8095159026e-22 1.5079298347e-22 0 -2.8551693845e-21 0 0 0 0 
0 -2.5776399896e-21 0 2.5508497684e-22 0 0 5.5275218572e-23 0 0 
-1.3048815562e-21 0 -2.6078566124e-23 0 -2.5843296247e-23 -2.6050293349e-23 -2.6309797032e-23 2.7222605341e-23 -1.315918992e-23 
-3.338808974e-23 5.475305655e-24 -7.1937000924e-22 0 -2.7496737661e-22 -7.2008384632e-22 2.4660075635e-21 -3.3100876213e-21 3.9852229053e-21 
0 0.00052153290017 0.00034961747588 0.00032431617728 0.00031164631946 0.00030571952811 0.00030095301918 0.0002959909034 0.00029006201657 
0.0002829504956 0.00027473669616 0.00026574151707 0.00025646921131 0.00024755005143 0.00023966337903 0.0002334456949 0.00022940139752 0.00022783818713 
0.00022884186183 0.0002322904038 0.00023789267289 0.00024523364846 0.00025381258456 0.00026307458756 0.00027244767989 0.00028141372604 0.00028961815406 
0.00029718849692 0.00030488203629 0.00031737642712 0.00034005680936 0.00049190089339 0.031998805702 0.028425060213 0.026642274112 0.025727441534 
0.025174865499 0.024740932509 0.024306260049 0.023813638836 0.023242080584 0.022595204413 0.021895259619 0.021178934723 0.020492848009 
0.019887680188 0.019411129877 0.019101031125 0.018980398774 0.019055541605 0.019317192957 0.019743543118 0.020303729922 0.020960789174 
0.02167410776 0.022402374074 0.023108769208 0.023770501837 0.024395627901 0.025053430349 0.025935146958 0.027476679534 0.030485184863 
0.087743222713 0.084429726005 0.082121774554 0.080507025123 0.079246804118 0.07806840539 0.076785750687 0.07529246062 0.073549896479 
0.07157626003 0.069438405335 0.06724537909 0.065139293671 0.063278831542 0.061815146357 0.060866698623 0.060501679778 0.060733232647 
0.061526354402 0.062810957432 0.06449469924 0.066471390426 0.068624898791 0.070832714438 0.07297475636 0.074952565134 0.076719596982 
0.078317560256 0.079905204475 0.081750668585 0.084144741297 0.15496741235 0.15325006843 0.15180681646 0.15049901605 0.14913059771 
0.1474942863 0.14541968703 0.14280860126 0.1396458745 0.13599008322 0.13196504116 0.12776778638 0.12367815524 0.12003598362 
0.11717603356 0.11535113305 0.11468521506 0.11517198384 0.11670713872 0.11913258582 0.12227211893 0.12594506145 0.12995824218 
0.13409002125 0.13808494806 0.14167448878 0.14462685585 0.14680805802 0.14822249115 0.14900812507 0.14938347042 0.22485722601 
0.22513440251 0.22510781884 0.2247299403 0.22385376692 0.22224168479 0.21966777742 0.2160435766 0.21144782007 0.20603168011 
0.19992770255 0.19332294166 0.18664132059 0.18057577312 0.17585965991 0.17298476398 0.17209880054 0.17307239771 0.1756118983 
0.17938174307 0.18410784006 0.18959003687 0.19563621283 0.201979056 0.2082067132 0.21375717223 0.21803481877 0.22059875727 
0.22128936648 0.22024208307 0.21781948209 0.28992536664 0.29189270735 0.29313868284 0.29385110736 0.29400873184 0.2930637002 
0.29035112262 0.28569442034 0.27961167693 0.27277639508 0.26512885094 0.25606420636 0.24585002661 0.23622217774 0.22910483181 
0.2252946496 0.22459813952 0.22657981515 0.23056599498 0.23573182523 0.24176099896 0.2486821115 0.25647717714 0.26505234838 
0.27401039004 0.28229480982 0.28844302893 0.29148992896 0.29117780924 0.28777202964 0.28199276328 0.34366247058 0.34615176916 
0.34814569354 0.3488560915 0.35113883018 0.3519526124 0.34975364804 0.34336280823 0.33457246423 0.32714530826 0.32103657722 
0.3109844625 0.2949077189 0.27932581306 0.2699547708 0.26678904891 0.26655596495 0.26976490021 0.2767021656 0.28244194388 
0.28860387206 0.29630094767 0.30472636223 0.31460559368 0.32638776302 0.33938935399 0.34773537517 0.35124880075 0.34996861219 
0.34412190318 0.33466017246 0.37898343801 0.38000735641 0.38440230489 0.38158303499 0.38768178225 0.38853317499 0.38786110282 
0.38029181957 0.36897397041 0.36113592982 0.35808596015 0.34917834401 0.32754969597 0.30792441964 0.29785194993 0.29686433077 
0.29606333375 0.29808360338 0.30989128351 0.31332573295 0.31913766265 0.32765337825 0.33516204357 0.34562349319 0.35679000616 
0.37554314733 0.3829472661 0.38746708632 0.3859141767 0.37984082103 0.36849024892 0.39172795415 0.39433348179 0.39605906606 
0.3973094523 0.39882537723 0.3993665874 0.39748522639 0.39254233241 0.38549950719 0.37804290652 0.36978051066 0.35822045803 
0.34312534332 0.32857176661 0.31863376498 0.31406584382 0.3135573864 0.31661078334 0.32219967246 0.327945292 0.33383712173 
0.34064796567 0.34860429168 0.3581444025 0.36934888363 0.38079231977 0.38936805725 0.39382499456 0.39398866892 0.39000630379 
0.38267913461 0.39164552093 0.39325779676 0.39415413141 0.39477878809 0.39523020387 0.39509868622 0.39383482933 0.39106997848 
0.38668692112 0.3804590106 0.37167486548 0.36010542512 0.34721824527 0.33546575904 0.32671117783 0.32180181146 0.32089844346 
0.32349619269 0.32810607553 0.33288404346 0.33724921942 0.34202292562 0.34818005562 0.35604175925 0.36502689123 0.37381464243 
0.38098147511 0.3856677413 0.38762050867 0.3867764771 0.38322088122 0.38520038128 0.38521084189 0.3845897615 0.38423347473 
0.38452801108 0.38458323479 0.38446357846 0.38380607963 0.38198524714 0.37914088368 0.37232813239 0.3597021997 0.34591591358 
0.33543151617 0.32785150409 0.32283824682 0.32165428996 0.3252864778 0.33193221688 0.33579471707 0.33617648482 0.33705997467 
0.34048447013 0.34685832262 0.3549464643 0.36262914538 0.36872544885 0.37290620804 0.37614288926 0.37835282087 0.37774395943 
0.37769815326 0.37672045827 0.3746765554 0.3726734519 0.37456154823 0.37478932738 0.37581339478 0.37775370479 0.37592557073 
0.37898725271 0.37804725766 0.36249417067 0.34435275197 0.33605292439 0.33024039865 0.32430204749 0.32223749161 0.32534143329 
0.33917200565 0.3410795033 0.33405798674 0.33189272881 0.33292213082 0.33888137341 0.34781834483 0.35486027598 0.36085563898 
0.36285743117 0.36468243599 0.37049385905 0.37073430419 0.37126302719 0.37150076032 0.36818435788 0.36620557308 0.36667820811 
0.37278988957 0.37290194631 0.37475940585 0.37393593788 0.37887072563 0.37821620703 0.37418225408 0.35323256254 0.33879578114 
0.33750525117 0.33187782764 0.32967361808 0.33185201883 0.34420529008 0.34219270945 0.33507999778 0.33106216788 0.33294293284 
0.33805784583 0.34594026208 0.35288998485 0.35862326622 0.3600410223 0.3572306335 0.36038404703 0.36376497149 0.36148041487 
0.36521449685 0.35797265172 0.35933741927 0.36279460788 0.37239956856 0.36990621686 0.37320971489 0.37089598179 0.37853071094 
0.37796652317 0.37508115172 0.36314204335 0.3440310657 0.34298357368 0.33877649903 0.33694458008 0.33819442987 0.3480309546 
0.34303721786 0.3347350359 0.33083280921 0.33200833201 0.33776578307 0.34450149536 0.35052394867 0.35441452265 0.35024601221 
0.34840536118 0.35581120849 0.3526443541 0.34866285324 0.35281327367 0.34864261746 0.35705950856 0.35913234949 0.36990121007 
0.36579540372 0.36912614107 0.36689564586 0.3760433495 0.37596172094 0.37585818768 0.36417394876 0.3487251997 0.34642344713 
0.34534403682 0.34478211403 0.3448638618 0.35002970695 0.34317484498 0.333563447 0.33005487919 0.3317579627 0.3357078433 
0.34068915248 0.34690308571 0.35259333253 0.34705710411 0.34353929758 0.34745687246 0.34858000278 0.34167191386 0.3412604332 
0.34422177076 0.35228165984 0.35670518875 0.36516022682 0.36209401488 0.36654436588 0.36408162117 0.37135609984 0.37379398942 
0.37583652139 0.36707869172 0.35402694345 0.35975858569 0.35355174541 0.3492769897 0.34855490923 0.35203012824 0.34439694881 
0.33797633648 0.32994893193 0.32974857092 0.33368343115 0.33874818683 0.34562465549 0.35060155392 0.34674084187 0.33773118258 
0.33601737022 0.33646079898 0.3409358561 0.33771413565 0.33946248889 0.34994971752 0.35301816463 0.36160755157 0.3611138761 
0.36567014456 0.36307859421 0.36886754632 0.37097519636 0.37570819259 0.36727440357 0.36620387435 0.36613667011 0.3557946384 
0.35109868646 0.35106179118 0.354087919 0.34629637003 0.33793267608 0.32804349065 0.32773035765 0.33067449927 0.33559945226 
0.3416223526 0.34685531259 0.34771168232 0.32811257243 0.33329796791 0.32857304811 0.34206306934 0.33521094918 0.34703111649 
0.35201126337 0.35202145576 0.35891368985 0.3599037528 0.36289057136 0.36206021905 0.36995366216 0.369043082 0.37493631244 
0.36802276969 0.36598744988 0.36703824997 0.36604386568 0.35210615396 0.35109433532 0.35701367259 0.34905308485 0.33799752593 
0.32797896862 0.32496908307 0.32691591978 0.33092847466 0.33797615767 0.34497341514 0.34802147746 0.34312778711 0.33044049144 
0.34023207426 0.3457492888 0.34360411763 0.34795707464 0.35201507807 0.35119497776 0.35610565543 0.35354349017 0.35827663541 
0.36309862137 0.36898460984 0.36913496256 0.37393540144 0.36807316542 0.36596095562 0.36798614264 0.36960712075 0.35495352745 
0.3557009995 0.35879716277 0.35090768337 0.33798405528 0.32617372274 0.32403945923 0.3232396245 0.32728928328 0.33709201217 
0.34318065643 0.34803631902 0.34776714444 0.34901148081 0.35040602088 0.34440460801 0.34508180618 0.34736737609 0.35023620725 
0.35036945343 0.35226744413 0.34901753068 0.35447070003 0.35747778416 0.36718657613 0.37005347013 0.3712310195 0.36812233925 
0.36763390899 0.36981570721 0.37277755141 0.35963562131 0.35695761442 0.35977506638 0.35273164511 0.33802321553 0.32538017631 
0.32147181034 0.3198197186 0.32371652126 0.33030682802 0.34054616094 0.34791830182 0.34844067693 0.35202404857 0.35134980083 
0.34495383501 0.34442085028 0.34395715594 0.3480489552 0.34918901324 0.34931790829 0.34667947888 0.34831061959 0.35304224491 
0.36348116398 0.37034210563 0.37038633227 0.36812734604 0.36809226871 0.37268394232 0.37615281343 0.36282289028 0.35720175505 
0.35968127847 0.35291576385 0.33737152815 0.32378715277 0.31723159552 0.31540942192 0.31980997324 0.32684752345 0.33791846037 
0.34695625305 0.34697800875 0.35146135092 0.35232302547 0.34296679497 0.34117239714 0.33930051327 0.3418995738 0.34537512064 
0.34195712209 0.34025982022 0.34031027555 0.34696024656 0.3577003777 0.36718425155 0.36808040738 0.36788347363 0.36812344193 
0.37352249026 0.37822011113 0.36470472813 0.35780158639 0.36009451747 0.35295277834 0.33705198765 0.32183760405 0.31401452422 
0.31334027648 0.31732991338 0.32443118095 0.33494356275 0.34512653947 0.34616819024 0.3532397449 0.3538556993 0.34017270803 
0.33670195937 0.33560046554 0.33667430282 0.34189364314 0.33563041687 0.33436486125 0.3342807889 0.34163033962 0.35164737701 
0.36137577891 0.36543256044 0.36773467064 0.36820757389 0.3738027215 0.3794106245 0.36667686701 0.35920727253 0.36085575819 
0.35258349776 0.33653202653 0.32080760598 0.31301030517 0.31165421009 0.31423038244 0.32119196653 0.33268591762 0.34351149201 
0.34591919184 0.35448348522 0.35426899791 0.33757203817 0.33222520351 0.33419278264 0.33404880762 0.34049737453 0.33281216025 
0.33218535781 0.33157777786 0.33775651455 0.34598016739 0.3564978838 0.36495706439 0.36789450049 0.36790412664 0.37442475557 
0.38062262535 0.36875072122 0.36076587439 0.3618709743 0.35234922171 0.33588820696 0.31991046667 0.31231859326 0.30794742703 
0.30967730284 0.31701600552 0.33144140244 0.34228393435 0.34528908134 0.35457640886 0.35432180762 0.33297634125 0.32794117928 
0.33286559582 0.33098301291 0.33785706758 0.32897761464 0.33090266585 0.32901400328 0.33490180969 0.33801367879 0.35694637895 
0.36500644684 0.36794796586 0.36601576209 0.37499573827 0.38092112541 0.3700376451 0.36207255721 0.36300495267 0.35400116444 
0.33599674702 0.31904959679 0.31098094583 0.30397805572 0.30590340495 0.31298992038 0.32996073365 0.34094265103 0.34403553605 
0.3549669683 0.35501280427 0.33292096853 0.32439374924 0.32854372263 0.32842230797 0.33412465453 0.32635673881 0.32759746909 
0.32866734266 0.33223551512 0.3376634717 0.35589724779 0.36446258426 0.36622479558 0.36557772756 0.37496313453 0.37774157524 
0.37101107836 0.363999933 0.36366197467 0.35398188233 0.33535379171 0.32081085443 0.31036201119 0.30269920826 0.30202805996 
0.31237500906 0.3290271759 0.33919930458 0.34438848495 0.35466063023 0.355099231 0.32955673337 0.32153683901 0.3248269558 
0.32511734962 0.33053728938 0.32375219464 0.32414439321 0.32312503457 0.33068796992 0.3362981379 0.35318216681 0.36254107952 
0.36504119635 0.36518970132 0.37404900789 0.37463778257 0.37043261528 0.3645439744 0.36368763447 0.35334184766 0.3348698318 
0.32034668326 0.30532824993 0.29753050208 0.29841420054 0.31013327837 0.32809725404 0.33783450723 0.34446883202 0.35407593846 
0.35582885146 0.32529884577 0.3182978034 0.32199251652 0.32167685032 0.3276771605 0.32095256448 0.31991055608 0.31804862618 
0.3288179338 0.33469611406 0.35035088658 0.36033055186 0.3643476069 0.36425256729 0.37477356195 0.37710905075 0.37123525143 
0.36478170753 0.36367169023 0.35185331106 0.3347441256 0.31828653812 0.2998419404 0.29225590825 0.29423728585 0.30720064044 
0.32705339789 0.33661028743 0.34417515993 0.35345184803 0.35562902689 0.32292163372 0.31492862105 0.31972235441 0.31794458628 
0.32577595115 0.31898730993 0.31485629082 0.31573531032 0.3245343864 0.33274656534 0.34784600139 0.35788029432 0.36374849081 
0.36207923293 0.37500065565 0.38463360071 0.37106269598 0.36506462097 0.36485344172 0.34808817506 0.33575704694 0.31366360188 
0.29681590199 0.28981265426 0.29096525908 0.30503129959 0.32682055235 0.33497700095 0.343996346 0.35296311975 0.35393178463 
0.32203525305 0.31251940131 0.31560927629 0.31558519602 0.32296717167 0.31848415732 0.31260684133 0.31003084779 0.31554508209 
0.32659134269 0.34548598528 0.35516944528 0.35918605328 0.36259180307 0.37493994832 0.37603589892 0.37130281329 0.36545094848 
0.36343726516 0.34956240654 0.33220735192 0.30597165227 0.29367634654 0.28572848439 0.28996503353 0.30490869284 0.32379686832 
0.33385556936 0.34351745248 0.35279425979 0.35252887011 0.32084897161 0.31022322178 0.31198817492 0.31392627954 0.32181024551 
0.31717529893 0.31012943387 0.30659362674 0.31123301387 0.32208243012 0.34246486425 0.35234746337 0.35625830293 0.36255985498 
0.37284252048 0.37197831273 0.37023052573 0.36512571573 0.36404410005 0.3538787365 0.33010420203 0.30320778489 0.29082784057 
0.28217282891 0.28468030691 0.30050498247 0.32050260901 0.3317039609 0.34194773436 0.35191953182 0.35194465518 0.31963190436 
0.30807581544 0.30930995941 0.31181719899 0.32123428583 0.31464445591 0.30750849843 0.30464676023 0.31021371484 0.31884145737 
0.34030550718 0.34941279888 0.35334989429 0.36189249158 0.37142068148 0.37116202712 0.37080436945 0.36417040229 0.36385023594 
0.35666489601 0.32767397165 0.30291742086 0.28954529762 0.27972045541 0.27861684561 0.29588490725 0.31864568591 0.3299601078 
0.33988201618 0.35048979521 0.35042080283 0.31821212173 0.30816301703 0.30651426315 0.3093342185 0.31834298372 0.31203943491 
0.30486485362 0.30152952671 0.30557179451 0.31639647484 0.33810955286 0.34715744853 0.35027194023 0.36179754138 0.36815237999 
0.37129792571 0.37012267113 0.36375561357 0.36305320263 0.34892532229 0.3250027895 0.30170112848 0.28689232469 0.27906295657 
0.27619880438 0.29609674215 0.31743103266 0.32946571708 0.33870860934 0.34836494923 0.346478194 0.31751656532 0.30801019073 
0.30451235175 0.30666816235 0.31543686986 0.31037345529 0.30204883218 0.29580777884 0.29985761642 0.3140822947 0.33623039722 
0.34686145186 0.3576387167 0.35972890258 0.3641346395 0.370203197 0.36811175942 0.36241561174 0.36197081208 0.34812778234 
0.32261419296 0.29931908846 0.2849740386 0.27567568421 0.27446597815 0.29141005874 0.31354504824 0.3266877234 0.33636331558 
0.34683066607 0.34227392077 0.31544312835 0.30530771613 0.30124297738 0.30269756913 0.31343856454 0.30894142389 0.29944062233 
0.2896604836 0.29579249024 0.31339722872 0.33693659306 0.34283208847 0.36355081201 0.35224193335 0.35978886485 0.36984154582 
0.36587038636 0.35994505882 0.36179879308 0.35047194362 0.32228791714 0.29854282737 0.28340691328 0.27068790793 0.27147090435 
0.283493191 0.30838814378 0.32253563404 0.33171159029 0.34501761198 0.33618053794 0.31036642194 0.29853439331 0.29430317879 
0.2991784215 0.30886825919 0.30838468671 0.29368430376 0.28611129522 0.29340827465 0.31566035748 0.33759588003 0.33868765831 
0.34091937542 0.34319221973 0.35839760303 0.36878830194 0.36479139328 0.35831597447 0.36009055376 0.3444890976 0.32358211279 
0.30339339375 0.27722191811 0.26854723692 0.26815989614 0.28081384301 0.30533885956 0.31862321496 0.32816261053 0.33736717701 
0.32855898142 0.30624905229 0.29272413254 0.28975039721 0.29090037942 0.30619648099 0.30652114749 0.28235939145 0.27953597903 
0.28349795938 0.30922648311 0.3339086771 0.33402660489 0.33019411564 0.33290097117 0.35239946842 0.36561945081 0.36241537333 
0.35536083579 0.35385042429 0.34073793888 0.31853744388 0.29708632827 0.27184423804 0.26626223326 0.26783838868 0.29375782609 
0.30484953523 0.31172502041 0.32217735052 0.33191946149 0.3247153163 0.30450156331 0.28895455599 0.28556033969 0.28934076428 
0.30551925302 0.30121123791 0.27471590042 0.27456784248 0.27685785294 0.30335178971 0.33058905602 0.33089950681 0.3274550736 
0.32530984282 0.34219571948 0.35933306813 0.35860088468 0.35211053491 0.34726902843 0.33915320039 0.31331664324 0.28783762455 
0.2688986063 0.26356723905 0.26460400224 0.29479631782 0.30169075727 0.30649915338 0.3147123456 0.32407212257 0.32176598907 
0.3010686636 0.28706222773 0.27867081761 0.29270067811 0.30502817035 0.29470863938 0.27244758606 0.26973849535 0.27820089459 
0.30027633905 0.32923200727 0.32369053364 0.32035896182 0.31951364875 0.33281809092 0.35132527351 0.35570845008 0.34673658013 
0.34479221702 0.33305084705 0.31055918336 0.28820964694 0.26672589779 0.26192426682 0.26101818681 0.2739931941 0.29856133461 
0.30263927579 0.30406814814 0.31379809976 0.31393557787 0.29264217615 0.28655675054 0.27669745684 0.28178939223 0.30468684435 
0.29491168261 0.26081937551 0.26335039735 0.27227896452 0.29459109902 0.31988447905 0.31753712893 0.3147379756 0.31772661209 
0.32330429554 0.33920955658 0.35324347019 0.33952647448 0.33818015456 0.32455062866 0.30235812068 0.28746107221 0.26377663016 
0.2603752017 0.25650051236 0.27420189977 0.29349893332 0.29132142663 0.2913416326 0.30525243282 0.30555975437 0.28687015176 
0.27915391326 0.27175453305 0.2792532444 0.29973232746 0.29327777028 0.25831589103 0.25572258234 0.26072907448 0.30215516686 
0.31898969412 0.31088173389 0.30983924866 0.31204667687 0.31178203225 0.32681512833 0.34165486693 0.3305529654 0.3249849081 
0.31791001558 0.29166334867 0.27918508649 0.25968888402 0.25200554729 0.24826751649 0.27595975995 0.28526425362 0.28058668971 
0.2806289494 0.29367360473 0.29816022515 0.27720287442 0.271669209 0.26575165987 0.27821934223 0.29282343388 0.28343114257 
0.25945800543 0.25320807099 0.25793111324 0.28344836831 0.31443437934 0.30919805169 0.29848659039 0.29805338383 0.29805508256 
0.31420406699 0.3300704062 0.31750068069 0.31063470244 0.30727958679 0.28159075975 0.26895409822 0.25777599216 0.24934068322 
0.24797682464 0.26518237591 0.27644109726 0.26599141955 0.26678037643 0.28013271093 0.28671833873 0.26648935676 0.26436212659 
0.25900644064 0.26978510618 0.2858902216 0.27402788401 0.25355893373 0.25006073713 0.26024031639 0.26947459579 0.30658015609 
0.30101582408 0.28457677364 0.28366300464 0.28067472577 0.2993606329 0.31708195806 0.30417141318 0.29763939977 0.29378411174 
0.26848459244 0.25778785348 0.25327274203 0.24564525485 0.24379689991 0.25480899215 0.26517739892 0.25354152918 0.25183305144 
0.26758563519 0.27570644021 0.25483232737 0.25489762425 0.25148916245 0.25918352604 0.2751930058 0.26650562882 0.24343778193 
0.23781755567 0.25433635712 0.26690402627 0.29868039489 0.28828451037 0.27393901348 0.2706386447 0.25797182322 0.27967658639 
0.2999509871 0.28853988647 0.27795869112 0.27770912647 0.25699329376 0.24318903685 0.24210608006 0.23670613766 0.23581284285 
0.24767547846 0.2543195188 0.24055017531 0.23523117602 0.2523445785 0.26254543662 0.24165563285 0.24277673662 0.24381928146 
0.25376668572 0.25664362311 0.25644662976 0.23804213107 0.22501730919 0.23598557711 0.26463079453 0.28231060505 0.27460846305 
0.26446568966 0.25564071536 0.23366713524 0.25745511055 0.27739557624 0.27047523856 0.2495944649 0.25847423077 0.248466447 
0.22467559576 0.22657315433 0.2257130295 0.22660791874 0.23645778 0.23928968608 0.22151657939 0.21655297279 0.23266731203 
0.24451079965 0.22563691437 0.2325258106 0.23415899277 0.24133276939 0.23994746804 0.23037499189 0.23913784325 0.22576850653 
0.23578521609 0.24724562466 0.25179639459 0.25793460011 0.23968051374 0.23992539942 0.21780815721 0.23354466259 0.25061497092 
0.24684378505 0.23119407892 0.23482882977 0.22369161248 0.20944492519 0.20685535669 0.21151295304 0.20686197281 0.21054083109 
0.20593105257 0.19896997511 0.19553346932 0.21783240139 0.22188386321 0.20825365186 0.21992652118 0.21873800457 0.21884834766 
0.21868492663 0.21114878356 0.22455261648 0.22388850152 0.22706468403 0.22906418145 0.23712068796 0.24379248917 0.22601673007 
0.21879331768 0.1993252039 0.21169622242 0.23000003397 0.2218786478 0.21252533793 0.20986391604 0.20377154648 0.19054661691 
0.1873613596 0.18926014006 0.18305152655 0.18346433342 0.17544049025 0.17288756371 0.17449770868 0.19797924161 0.19886271656 
0.19122555852 0.20397771895 0.19889472425 0.18982164562 0.19404402375 0.19329763949 0.2030826509 0.21095846593 0.20981912315 
0.20997966826 0.22158806026 0.22342093289 0.21421161294 0.18996334076 0.17364054918 0.19081753492 0.21143688262 0.19593058527 
0.18777602911 0.18336631358 0.18343450129 0.16831938922 0.16584391892 0.16142563522 0.15752218664 0.15912109613 0.1535962373 
0.14946459234 0.15301723778 0.17191752791 0.17510429025 0.1759750098 0.1831433475 0.17883148789 0.16368149221 0.16932724416 
0.16968853772 0.18936730921 0.19012998044 0.19096434116 0.18839895725 0.18613106012 0.1857779026 0.19032271206 0.15544332564 
0.14606438577 0.17077791691 0.18659983575 0.17243385315 0.15673586726 0.15780514479 0.15442994237 0.14619509876 0.14311945438 
0.13391524553 0.13340474665 0.13288927078 0.13630115986 0.12878730893 0.13515368104 0.14381696284 0.15379157662 0.15712052584 
0.15609245002 0.15278530121 0.14531673491 0.14965078235 0.14245559275 0.17408140004 0.16897372901 0.1574408859 0.16323778033 
0.15300141275 0.15067242086 0.14135159552 0.1352302134 0.1249262467 0.14871996641 0.16412831843 0.1480435133 0.13385502994 
0.13087818027 0.13003773987 0.12502093613 0.12122873962 0.1147954613 0.10943685472 0.10969104618 0.10938568413 0.10898032039 
0.11831054837 0.1301368475 0.13430590928 0.13615162671 0.13120338321 0.12602525949 0.12366652489 0.12909659743 0.11733021587 
0.15401870012 0.14679419994 0.13098573685 0.14318194985 0.1306720674 0.12324550748 0.10654838383 0.12436725199 0.11138086021 
0.13246437907 0.14420841634 0.12855552137 0.11673286557 0.10757832974 0.11011182517 0.10125264525 0.10107699782 0.097338229418 
0.090740077198 0.09039003402 0.084277749062 0.08835593611 0.10174003243 0.11790405959 0.1168922931 0.11562922597 0.11528848112 
0.10300915688 0.096557371318 0.10213840753 0.10181484371 0.12708114088 0.124970451 0.122709997 0.12587669492 0.11716018617 
0.099737942219 0.10300970078 0.11093612015 0.10090640932 0.12153468281 0.1222749427 0.11367848516 0.099979698658 0.087640911341 
0.09282515198 0.073555104434 0.083101533353 0.075370371342 0.077210180461 0.073029659688 0.067645132542 0.067779414356 0.084286950529 
0.096484333277 0.099398881197 0.099460728467 0.10018264502 0.087252683938 0.073011301458 0.080416306853 0.084680244327 0.10392017663 
0.1089707315 0.1061277464 0.10561040044 0.096081927419 0.088278107345 0.096867278218 0.092534743249 0.086788967252 0.10281548649 
0.099795877934 0.092480242252 0.079694792628 0.072459116578 0.072036504745 0.056913714856 0.063096754253 0.055410765111 0.059407588094 
0.053569879383 0.051253918558 0.049706250429 0.065999098122 0.072094969451 0.078369349241 0.086374431849 0.084289453924 0.072915703058 
0.05389226228 0.062877625227 0.066577605903 0.085505731404 0.095775157213 0.085971519351 0.085791677237 0.075206629932 0.079199023545 
0.087481282651 0.07465082407 0.069783337414 0.080768510699 0.07709287107 0.070148281753 0.061310064048 0.061811517924 0.056878011674 
0.048123586923 0.049928117543 0.041162651032 0.04602021724 0.038351301104 0.040109898895 0.037476826459 0.053817696869 0.053955867887 
0.061663154513 0.076431177557 0.067199103534 0.053801517934 0.04128793627 0.044061884284 0.052086118609 0.070461541414 0.082513518631 
0.074323497713 0.073341242969 0.064875327051 0.067690618336 0.078171618283 0.066506251693 0.056540627033 0.062086928636 0.060320902616 
0.053890954703 0.051604442298 0.054811559618 0.050418332219 0.042618311942 0.04435730353 0.036520708352 0.041435390711 0.035305127501 
0.035732455552 0.034720946103 0.047605019063 0.048449225724 0.054320089519 0.069108478725 0.053404841572 0.041650295258 0.033982358873 
0.032302372158 0.044436074793 0.060394652188 0.073064349592 0.06984501332 0.064597502351 0.058216683567 0.058749847114 0.069794997573 
0.057131126523 0.048640500754 0.053435120732 0.051849972457 0.047100763768 0.04483775422 0.048725970089 0.044281791896 0.037599623203 
0.040671482682 0.03357924521 0.039347074926 0.034295309335 0.03316853568 0.03298702091 0.043530367315 0.045050948858 0.049068771303 
0.063415043056 0.043343443424 0.037591420114 0.032116919756 0.026994593441 0.04376892373 0.054335042834 0.066455081105 0.069919161499 
0.056796230376 0.053179163486 0.051812633872 0.061899237335 0.045077644289 0.044815573841 0.052768427879 0.049340184778 0.045407939702 
0.03785848245 0.042507857084 0.038276180625 0.032378897071 0.036124054343 0.029305208474 0.035891789943 0.031801730394 0.029090989381 
0.029933253303 0.038342773914 0.040321979672 0.042686656117 0.055033285171 0.036106888205 0.03548117727 0.030631085858 0.025628345087 
0.043257001787 0.049444802105 0.062387794256 0.063903801143 0.055827196687 0.047329060733 0.045519188046 0.052089441568 0.040008537471 
0.04058900848 0.05096097663 0.048838566989 0.035620462149 0.031721759588 0.036628901958 0.040546521544 0.027921715751 0.030894523486 
0.025246951729 0.031829651445 0.029015460983 0.025246847421 0.026816438884 0.032953336835 0.036119624972 0.036226645112 0.046574208885 
0.030385326594 0.03593704477 0.030950723216 0.026890480891 0.044856604189 0.045280553401 0.058290965855 0.054653629661 0.056924242526 
0.043254371732 0.042196106166 0.046336878091 0.040893927217 0.037218093872 0.045418873429 0.045287720859 0.021958980709 0.027290198952 
0.030432950705 0.044718660414 0.022399671376 0.027230348438 0.021278118715 0.029164435342 0.027121396735 0.022202497348 0.024178851396 
0.0283113271 0.033190891147 0.030396251008 0.040749922395 0.028045639396 0.039533384144 0.033940430731 0.03480328247 0.046636767685 
0.047464326024 0.048049561679 0.051105145365 0.04903248325 0.04547027871 0.045132759959 0.048841051757 0.043953996152 0.038809835911 
0.034739289433 0.030534934253 0.018930161372 0.024032948539 0.026337068528 0.03188226372 0.019298037514 0.023470463231 0.019141586497 
0.027442576364 0.026800086722 0.019929936156 0.021103896201 0.025039680302 0.030559649691 0.025702746585 0.032257545739 0.020531501621 
0.037166930735 0.029364911839 0.034255996346 0.040110468864 0.042072009295 0.043061126024 0.042034965008 0.033209372312 0.040091320872 
0.04012228176 0.04402526468 0.038159698248 0.034223068506 0.020473513752 0.014587542042 0.015632942319 0.01955123432 0.01854497008 
0.015564958565 0.012680748478 0.018558280542 0.013682987541 0.022482408211 0.022488381714 0.014656895772 0.015624690801 0.018565896899 
0.024428768083 0.018564976752 0.014076311141 0.0090476255864 0.016704682261 0.013699809089 0.015913562849 0.018234254792 0.0192354545 
0.019925134256 0.018396291882 0.013921217062 0.017800496891 0.018501803279 0.020048942417 0.017476979643 0.015167696401 0.0077340593562 
0.0046998821199 0.0066644591279 0.0085584083572 0.0074803121388 0.0051244706847 0.0049388050102 0.0077818259597 0.005925714504 0.0098079638556 
0.0099432561547 0.0062708975747 0.006477563642 0.0079543758184 0.010465277359 0.0079335337505 
