# vtk DataFile Version 5.1
vtk output
ASCII
DATASET UNSTRUCTURED_GRID
POINTS 693 double
0.1016 1.5 0.1439999938 0.1016 1.3125 0.11299386621 0.1016 1.125 0.044603906572 
0.1016 0.9375 4.3171767174e-05 0.1016 0.75 -2.7692611041e-19 0.1016 0.5625 0.028883494437 
0.1016 0.375 0.09996420145 0.1016 0.1875 0.19062872231 0.1016 0 0.2658187151 
5.08 1.5 0.28700000048 5.08 1.3125 0.28700006008 5.08 1.125 0.28700017929 
5.08 0.9375 0.28700008988 5.08 0.75 0.28700000048 5.08 0.5625 0.28700008988 
5.08 0.375 0.28700017929 5.08 0.1875 0.28700011969 5.08 0 0.28700000048 
0.300736 1.5 0.19399508834 0.300736 1.3125 0.15319642425 0.300736 1.125 0.068133160472 
0.300736 0.9375 0.046390365809 0.300736 0.75 0.013365014456 0.300736 0.5625 0.026417372748 
0.300736 0.375 0.095226302743 0.300736 0.1875 0.19705471396 0.300736 0 0.28301364183 
0.499872 1.5 0.28093001246 0.499872 1.3125 0.20878048241 0.499872 1.125 0.12747275829 
0.499872 0.9375 0.076707467437 0.499872 0.75 0.067907102406 0.499872 0.5625 0.11992693692 
0.499872 0.375 0.18823242188 0.499872 0.1875 0.2669030726 0.499872 0 0.28098458052 
0.699008 1.5 0.28123101592 0.699008 1.3125 0.27719938755 0.699008 1.125 0.23602952063 
0.699008 0.9375 0.19533678889 0.699008 0.75 0.20024216175 0.699008 0.5625 0.20777213573 
0.699008 0.375 0.24031040072 0.699008 0.1875 0.28071248531 0.699008 0 0.2808482945 
0.898144 1.5 0.28474295139 0.898144 1.3125 0.28480017185 0.898144 1.125 0.28481325507 
0.898144 0.9375 0.28535923362 0.898144 0.75 0.28542524576 0.898144 0.5625 0.28530728817 
0.898144 0.375 0.28527057171 0.898144 0.1875 0.28495153785 0.898144 0 0.28482493758 
1.09728 1.5 0.28700000048 1.09728 1.3125 0.28699988127 1.09728 1.125 0.28700000048 
1.09728 0.9375 0.28700000048 1.09728 0.75 0.28700000048 1.09728 0.5625 0.28700000048 
1.09728 0.375 0.28700000048 1.09728 0.1875 0.28700003028 1.09728 0 0.28700000048 
1.296416 1.5 0.28700000048 1.296416 1.3125 0.28699988127 1.296416 1.125 0.28700000048 
1.296416 0.9375 0.28700000048 1.296416 0.75 0.28700000048 1.296416 0.5625 0.28700000048 
1.296416 0.375 0.28700000048 1.296416 0.1875 0.28700003028 1.296416 0 0.28700000048 
1.495552 1.5 0.28700000048 1.495552 1.3125 0.28699991107 1.495552 1.125 0.28700000048 
1.495552 0.9375 0.28700000048 1.495552 0.75 0.28700000048 1.495552 0.5625 0.28700000048 
1.495552 0.375 0.28700000048 1.495552 0.1875 0.28700000048 1.495552 0 0.28700000048 
1.694688 1.5 0.28700000048 1.694688 1.3125 0.28699994087 1.694688 1.125 0.28700000048 
1.694688 0.9375 0.28700000048 1.694688 0.75 0.28700000048 1.694688 0.5625 0.28700000048 
1.694688 0.375 0.28700000048 1.694688 0.1875 0.28700000048 1.694688 0 0.28700000048 
1.893824 1.5 0.28700000048 1.893824 1.3125 0.28699994087 1.893824 1.125 0.28700000048 
1.893824 0.9375 0.28700000048 1.893824 0.75 0.28700000048 1.893824 0.5625 0.28700000048 
1.893824 0.375 0.28700000048 1.893824 0.1875 0.28700000048 1.893824 0 0.28700000048 
2.09296 1.5 0.28700000048 2.09296 1.3125 0.28699994087 2.09296 1.125 0.28700000048 
2.09296 0.9375 0.28700000048 2.09296 0.75 0.28700000048 2.09296 0.5625 0.28700000048 
2.09296 0.375 0.28700000048 2.09296 0.1875 0.28700000048 2.09296 0 0.28700000048 
2.292096 1.5 0.28700000048 2.292096 1.3125 0.28699994087 2.292096 1.125 0.28700000048 
2.292096 0.9375 0.28700000048 2.292096 0.75 0.28700000048 2.292096 0.5625 0.28700000048 
2.292096 0.375 0.28700000048 2.292096 0.1875 0.28700000048 2.292096 0 0.28700000048 
2.491232 1.5 0.28700000048 2.491232 1.3125 0.28699994087 2.491232 1.125 0.28700000048 
2.491232 0.9375 0.28700000048 2.491232 0.75 0.28700000048 2.491232 0.5625 0.28700000048 
2.491232 0.375 0.28700000048 2.491232 0.1875 0.28700000048 2.491232 0 0.28700000048 
2.690368 1.5 0.28700000048 2.690368 1.3125 0.28699994087 2.690368 1.125 0.28700000048 
2.690368 0.9375 0.28700000048 2.690368 0.75 0.28700000048 2.690368 0.5625 0.28700000048 
2.690368 0.375 0.28700000048 2.690368 0.1875 0.28700000048 2.690368 0 0.28700000048 
2.889504 1.5 0.28700000048 2.889504 1.3125 0.28699994087 2.889504 1.125 0.28700000048 
2.889504 0.9375 0.28700000048 2.889504 0.75 0.28700000048 2.889504 0.5625 0.28700000048 
2.889504 0.375 0.28700000048 2.889504 0.1875 0.28700000048 2.889504 0 0.28700000048 
3.08864 1.5 0.28700000048 3.08864 1.3125 0.28699997067 3.08864 1.125 0.28700000048 
3.08864 0.9375 0.28700000048 3.08864 0.75 0.28700000048 3.08864 0.5625 0.28700000048 
3.08864 0.375 0.28700000048 3.08864 0.1875 0.28700000048 3.08864 0 0.28700000048 
3.287776 1.5 0.28700000048 3.287776 1.3125 0.28699997067 3.287776 1.125 0.28700000048 
3.287776 0.9375 0.28700000048 3.287776 0.75 0.28700000048 3.287776 0.5625 0.28700000048 
3.287776 0.375 0.28700000048 3.287776 0.1875 0.28700000048 3.287776 0 0.28700000048 
3.486912 1.5 0.28700000048 3.486912 1.3125 0.28699997067 3.486912 1.125 0.28700000048 
3.486912 0.9375 0.28700000048 3.486912 0.75 0.28700000048 3.486912 0.5625 0.28700000048 
3.486912 0.375 0.28700000048 3.486912 0.1875 0.28700000048 3.486912 0 0.28700000048 
3.686048 1.5 0.28700000048 3.686048 1.3125 0.28699997067 3.686048 1.125 0.28700000048 
3.686048 0.9375 0.28700000048 3.686048 0.75 0.28700000048 3.686048 0.5625 0.28700000048 
3.686048 0.375 0.28700000048 3.686048 0.1875 0.28700000048 3.686048 0 0.28700000048 
3.885184 1.5 0.28700000048 3.885184 1.3125 0.28699997067 3.885184 1.125 0.28700000048 
3.885184 0.9375 0.28700000048 3.885184 0.75 0.28700000048 3.885184 0.5625 0.28700000048 
3.885184 0.375 0.28700000048 3.885184 0.1875 0.28700000048 3.885184 0 0.28700000048 
4.08432 1.5 0.28700000048 4.08432 1.3125 0.28699997067 4.08432 1.125 0.28700000048 
4.08432 0.9375 0.28700000048 4.08432 0.75 0.28700000048 4.08432 0.5625 0.28700000048 
4.08432 0.375 0.28700000048 4.08432 0.1875 0.28700000048 4.08432 0 0.28700000048 
4.283456 1.5 0.28700000048 4.283456 1.3125 0.28700000048 4.283456 1.125 0.28700000048 
4.283456 0.9375 0.28700000048 4.283456 0.75 0.28700000048 4.283456 0.5625 0.28700000048 
4.283456 0.375 0.28700000048 4.283456 0.1875 0.28700000048 4.283456 0 0.28700000048 
4.482592 1.5 0.28700000048 4.482592 1.3125 0.28700000048 4.482592 1.125 0.28700000048 
4.482592 0.9375 0.28700000048 4.482592 0.75 0.28700000048 4.482592 0.5625 0.28700000048 
4.482592 0.375 0.28700000048 4.482592 0.1875 0.28700000048 4.482592 0 0.28700000048 
4.681728 1.5 0.28700000048 4.681728 1.3125 0.28700000048 4.681728 1.125 0.28700000048 
4.681728 0.9375 0.28700000048 4.681728 0.75 0.28700000048 4.681728 0.5625 0.28700000048 
4.681728 0.375 0.28700000048 4.681728 0.1875 0.28700000048 4.681728 0 0.28700000048 
4.880864 1.5 0.28700000048 4.880864 1.3125 0.28700000048 4.880864 1.125 0.28700000048 
4.880864 0.9375 0.28700000048 4.880864 0.75 0.28700000048 4.880864 0.5625 0.28700000048 
4.880864 0.375 0.28700000048 4.880864 0.1875 0.28700000048 4.880864 0 0.28700000048 
-0.1 1.5 0.12513391674 -0.1 1.3125 0.097646377981 -0.1 1.125 0.0069025200792 
-0.1 0.9375 -6.4758249209e-05 -0.1 0.75 -0.00020060798852 -0.1 0.5625 0.15258419514 
-0.1 0.375 0.25206366181 -0.1 0.1875 0.28200760484 -0.1 0 0.27514004707 
-10.16 1.5 3.4180752324e-22 -10.16 1.3125 -6.3734766798e-08 -10.16 1.125 -7.2232289483e-08 
-10.16 0.9375 -3.0702832277e-08 -10.16 0.75 -6.267088501e-24 -10.16 0.5625 -2.754597439e-08 
-10.16 0.375 -5.6747229138e-08 -10.16 0.1875 -3.8738217967e-08 -10.16 0 0 
-9.9588 1.5 -3.0990227743e-22 -9.9588 1.3125 -1.2778509806e-08 -9.9588 1.125 -1.5967345501e-10 
-9.9588 0.9375 3.1973826364e-11 -9.9588 0.75 1.1976343282e-25 -9.9588 0.5625 1.7098544802e-12 
-9.9588 0.375 -5.5833511425e-11 -9.9588 0.1875 -4.875580828e-09 -9.9588 0 0 
-9.7576 1.5 2.6216733218e-22 -9.7576 1.3125 -1.0496587599e-08 -9.7576 1.125 -1.0783942489e-10 
-9.7576 0.9375 -1.6308166623e-11 -9.7576 0.75 -5.6787877896e-27 -9.7576 0.5625 2.3537727323e-11 
-9.7576 0.375 -3.250175129e-11 -9.7576 0.1875 -4.2115280152e-09 -9.7576 0 0 
-9.5564 1.5 1.2111004087e-22 -9.5564 1.3125 -9.7926386999e-09 -9.5564 1.125 -1.4961888672e-10 
-9.5564 0.9375 -1.1166298788e-11 -9.5564 0.75 -1.499264663e-26 -9.5564 0.5625 2.6266211428e-11 
-9.5564 0.375 -3.3719183695e-11 -9.5564 0.1875 -4.1252694594e-09 -9.5564 0 0 
-9.3552 1.5 2.3459410657e-22 -9.3552 1.3125 -9.484319996e-09 -9.3552 1.125 -8.4908698128e-11 
-9.3552 0.9375 1.0948028942e-11 -9.3552 0.75 6.2361673229e-27 -9.3552 0.5625 -2.1937007766e-11 
-9.3552 0.375 -7.2720038324e-11 -9.3552 0.1875 -4.274061105e-09 -9.3552 0 0 
-9.154 1.5 1.1643735898e-22 -9.154 1.3125 -9.4488497027e-09 -9.154 1.125 -5.2009337809e-11 
-9.154 0.9375 -1.5069247933e-11 -9.154 0.75 3.9905021929e-27 -9.154 0.5625 -1.1932566046e-11 
-9.154 0.375 -6.0961055648e-11 -9.154 0.1875 -4.5202117605e-09 -9.154 0 0 
-8.9528 1.5 2.3455815975e-22 -8.9528 1.3125 -9.5352516993e-09 -8.9528 1.125 -1.0514674548e-10 
-8.9528 0.9375 -4.1365820491e-11 -8.9528 0.75 6.2361673229e-27 -8.9528 0.5625 9.8953067962e-12 
-8.9528 0.375 -7.1075133626e-12 -8.9528 0.1875 -4.8315458301e-09 -8.9528 0 0 
-8.7516 1.5 2.3878534349e-22 -8.7516 1.3125 -9.756015551e-09 -8.7516 1.125 -1.0096450065e-10 
-8.7516 0.9375 7.1668226909e-12 -8.7516 0.75 -1.2601559923e-27 -8.7516 0.5625 9.2651060435e-12 
-8.7516 0.375 -5.8583478346e-11 -8.7516 0.1875 -5.2060569189e-09 -8.7516 0 -3.2389177264e-23 
-8.5504 1.5 1.225150968e-22 -8.5504 1.3125 -9.9733270531e-09 -8.5504 1.125 -8.6068839555e-11 
-8.5504 0.9375 1.2551071293e-12 -8.5504 0.75 -1.2601559923e-27 -8.5504 0.5625 5.171804391e-12 
-8.5504 0.375 -5.0691645326e-11 -8.5504 0.1875 -5.6198770082e-09 -8.5504 0 -3.5103161701e-23 
-8.3492 1.5 -2.5300331806e-22 -8.3492 1.3125 -1.0290611918e-08 -8.3492 1.125 -8.74223402e-11 
-8.3492 0.9375 8.0035977845e-13 -8.3492 0.75 -9.8470055532e-27 -8.3492 0.5625 2.4868637965e-12 
-8.3492 0.375 -4.0343457741e-11 -8.3492 0.1875 -6.184698087e-09 -8.3492 0 0 
-8.148 1.5 1.3131095901e-22 -8.148 1.3125 -1.0700744291e-08 -8.148 1.125 -1.0285510638e-10 
-8.148 0.9375 3.4451663744e-11 -8.148 0.75 3.7885538011e-27 -8.148 0.5625 1.4054960537e-12 
-8.148 0.375 -6.7105515589e-11 -8.148 0.1875 -6.7244583235e-09 -8.148 0 2.0859041123e-23 
-7.9468 1.5 0 -7.9468 1.3125 -1.114187409e-08 -7.9468 1.125 -7.3063784189e-11 
-7.9468 0.9375 1.3078538252e-11 -7.9468 0.75 0 -7.9468 0.5625 6.9350957269e-12 
-7.9468 0.375 -6.8731152714e-11 -7.9468 0.1875 -7.3370030051e-09 -7.9468 0 -2.285817874e-23 
-7.7456 1.5 0 -7.7456 1.3125 -1.1634423203e-08 -7.7456 1.125 -1.1315316045e-10 
-7.7456 0.9375 -1.1932566046e-11 -7.7456 0.75 0 -7.7456 0.5625 -2.473710646e-11 
-7.7456 0.375 -2.4445202806e-11 -7.7456 0.1875 -8.0682367454e-09 -7.7456 0 2.5135045883e-23 
-7.5444 1.5 0 -7.5444 1.3125 -1.2247869385e-08 -7.5444 1.125 -8.3633974746e-11 
-7.5444 0.9375 7.7039260388e-12 -7.5444 0.75 0 -7.5444 0.5625 -1.2842060748e-11 
-7.5444 0.375 -1.1661210886e-10 -7.5444 0.1875 -8.9165483885e-09 -7.5444 0 0 
-7.3432 1.5 0 -7.3432 1.3125 -1.2900382096e-08 -7.3432 1.125 -1.0514674548e-10 
-7.3432 0.9375 1.2996182255e-11 -7.3432 0.75 0 -7.3432 0.5625 8.5310647435e-12 
-7.3432 0.375 -6.7334679499e-11 -7.3432 0.1875 -9.8404120408e-09 -7.3432 0 0 
-7.142 1.5 3.3489015974e-22 -7.142 1.3125 -1.371165137e-08 -7.142 1.125 -6.3961676233e-11 
-7.142 0.9375 7.1381772021e-12 -7.142 0.75 6.0342189312e-27 -7.142 0.5625 -1.0186296251e-12 
-7.142 0.375 -8.7866346143e-11 -7.142 0.1875 -1.0910608417e-08 -7.142 0 0 
-6.9408 1.5 0 -6.9408 1.3125 -1.4598408704e-08 -6.9408 1.125 -1.1150604745e-10 
-6.9408 0.9375 2.7179286599e-11 -6.9408 0.75 0 -6.9408 0.5625 1.2169043551e-11 
-6.9408 0.375 -8.9463332575e-11 -6.9408 0.1875 -1.2148140272e-08 -6.9408 0 0 
-6.7396 1.5 3.8033228392e-22 -6.7396 1.3125 -1.5594304514e-08 -6.7396 1.125 -1.1827354374e-10 
-6.7396 0.9375 8.3681438515e-12 -6.7396 0.75 4.0147350138e-27 -6.7396 0.5625 7.6215700417e-12 
-6.7396 0.375 -1.1637578401e-10 -6.7396 0.1875 -1.3597227344e-08 -6.7396 0 0 
-6.5384 1.5 0 -6.5384 1.3125 -1.6727080165e-08 -6.5384 1.125 -1.5071099924e-10 
-6.5384 0.9375 1.0062493373e-12 -6.5384 0.75 0 -6.5384 0.5625 1.0577427823e-11 
-6.5384 0.375 -1.3427564616e-10 -6.5384 0.1875 -1.5340228643e-08 -6.5384 0 0 
-6.3372 1.5 0 -6.3372 1.3125 -1.8047666472e-08 -6.3372 1.125 -1.402482297e-10 
-6.3372 0.9375 9.6983688441e-12 -6.3372 0.75 0 -6.3372 0.5625 2.8467228574e-12 
-6.3372 0.375 -1.2999314125e-10 -6.3372 0.1875 -1.7360394011e-08 -6.3372 0 0 
-6.136 1.5 2.3816589204e-22 -6.136 1.3125 -1.9533176854e-08 -6.136 1.125 -1.6644453871e-10 
-6.136 0.9375 1.2851164577e-11 -6.136 0.75 1.3148459932e-25 -6.136 0.5625 7.4926653423e-12 
-6.136 0.375 -1.4691904637e-10 -6.136 0.1875 -1.9850512345e-08 -6.136 0 0 
-5.9348 1.5 0 -5.9348 1.3125 -2.1265529782e-08 -5.9348 1.125 -2.0332562023e-10 
-5.9348 0.9375 6.2573279891e-12 -5.9348 0.75 0 -5.9348 0.5625 1.827590683e-11 
-5.9348 0.375 -2.0433180148e-10 -5.9348 0.1875 -2.2908460906e-08 -5.9348 0 -1.4088410795e-22 
-5.7336 1.5 0 -5.7336 1.3125 -2.3303169172e-08 -5.7336 1.125 -1.953371076e-10 
-5.7336 0.9375 1.6489143384e-11 -5.7336 0.75 -5.1537269014e-26 -5.7336 0.5625 -3.0309760778e-12 
-5.7336 0.375 -2.2690087309e-10 -5.7336 0.1875 -2.6679908061e-08 -5.7336 0 0 
-5.5324 1.5 0 -5.5324 1.3125 -2.5743521093e-08 -5.5324 1.125 -2.2272579614e-10 
-5.5324 0.9375 5.7298610301e-13 -5.5324 0.75 0 -5.5324 0.5625 8.5543395284e-12 
-5.5324 0.375 -2.6740920589e-10 -5.5324 0.1875 -3.142315208e-08 -5.5324 0 9.8619786854e-23 
-5.3312 1.5 7.0338695524e-22 -5.3312 1.3125 -2.8694410403e-08 -5.3312 1.125 -2.461488513e-10 
-5.3312 0.9375 4.8930859364e-12 -5.3312 0.75 2.1265964372e-27 -5.3312 0.5625 -5.8715673382e-13 
-5.3312 0.375 -3.4539657245e-10 -5.3312 0.1875 -3.747765831e-08 -5.3312 0 0 
-5.13 1.5 7.9467611014e-22 -5.13 1.3125 -3.2355419677e-08 -5.13 1.125 -3.125258663e-10 
-5.13 0.9375 1.0918488336e-11 -5.13 0.75 3.4593769365e-27 -5.13 0.5625 3.5941913508e-12 
-5.13 0.375 -4.15791096e-10 -5.13 0.1875 -4.5418456551e-08 -5.13 0 1.4308491628e-22 
-4.9288 1.5 8.9498347241e-22 -4.9288 1.3125 -3.7068272007e-08 -4.9288 1.125 -3.25126287e-10 
-4.9288 0.9375 1.2121599731e-11 -4.9288 0.75 -8.7659776858e-26 -4.9288 0.5625 8.1130198046e-12 
-4.9288 0.375 -5.1816473334e-10 -4.9288 0.1875 -5.6099334955e-08 -4.9288 0 0 
-4.7276 1.5 5.2178920586e-22 -4.7276 1.3125 -4.3357768931e-08 -4.7276 1.125 -3.9558886722e-10 
-4.7276 0.9375 9.4521968377e-12 -4.7276 0.75 6.3129086978e-27 -4.7276 0.5625 2.619349182e-12 
-4.7276 0.375 -6.538352082e-10 -4.7276 0.1875 -7.0462306212e-08 -4.7276 0 0 
-4.5264 1.5 0 -4.5264 1.3125 -5.2044807575e-08 -4.5264 1.125 -4.8508280726e-10 
-4.5264 0.9375 8.0145508286e-12 -4.5264 0.75 4.4469075303e-26 -4.5264 0.5625 1.1941669875e-11 
-4.5264 0.375 -8.5366985703e-10 -4.5264 0.1875 -9.1349328102e-08 -4.5264 0 0 
-4.3252 1.5 0 -4.3252 1.3125 -6.4600833127e-08 -4.3252 1.125 -5.9698557209e-10 
-4.3252 0.9375 6.8445609423e-12 -4.3252 0.75 0 -4.3252 0.5625 7.9626305549e-12 
-4.3252 0.375 -1.17703991e-09 -4.3252 0.1875 -1.2319624432e-07 -4.3252 0 0 
-4.124 1.5 0 -4.124 1.3125 -8.2638841548e-08 -4.124 1.125 -7.6205169952e-10 
-4.124 0.9375 1.0124023148e-11 -4.124 0.75 -8.3344140713e-26 -4.124 0.5625 5.5183635439e-12 
-4.124 0.375 -1.7005311603e-09 -4.124 0.1875 -1.7566038935e-07 -4.124 0 0 
-3.9228 1.5 0 -3.9228 1.3125 -8.7932157555e-08 -3.9228 1.125 -7.192669238e-10 
-3.9228 0.9375 3.0159104381e-12 -3.9228 0.75 5.9110333704e-26 -3.9228 0.5625 4.5929926529e-13 
-3.9228 0.375 -2.7159514637e-09 -3.9228 0.1875 -2.7390615287e-07 -3.9228 0 0 
-3.7216 1.5 0 -3.7216 1.3125 -1.855713208e-06 -3.7216 1.125 -3.748540621e-06 
-3.7216 0.9375 9.8682399141e-08 -3.7216 0.75 0 -3.7216 0.5625 -3.229707545e-06 
-3.7216 0.375 -2.007536068e-06 -3.7216 0.1875 -6.1017635744e-07 -3.7216 0 0 
-3.5204 1.5 0.091016158462 -3.5204 1.3125 0.10699232668 -3.5204 1.125 0.12085029483 
-3.5204 0.9375 0.12393387407 -3.5204 0.75 0.12141260505 -3.5204 0.5625 0.099658489227 
-3.5204 0.375 0.065970644355 -3.5204 0.1875 0.025315344334 -3.5204 0 -0.0056578996591 
-3.3192 1.5 0.23550508916 -3.3192 1.3125 0.27005970478 -3.3192 1.125 0.2987626195 
-3.3192 0.9375 0.30674925447 -3.3192 0.75 0.29422578216 -3.3192 0.5625 0.24878746271 
-3.3192 0.375 0.18975260854 -3.3192 0.1875 0.11177523434 -3.3192 0 0.03501778096 
-3.118 1.5 0.36856815219 -3.118 1.3125 0.375877738 -3.118 1.125 0.35981160402 
-3.118 0.9375 0.35921904445 -3.118 0.75 0.36145824194 -3.118 0.5625 0.34519273043 
-3.118 0.375 0.29794678092 -3.118 0.1875 0.21002705395 -3.118 0 0.10982624441 
-2.9168 1.5 0.42184051871 -2.9168 1.3125 0.40120574832 -2.9168 1.125 0.36448556185 
-2.9168 0.9375 0.35786682367 -2.9168 0.75 0.37171718478 -2.9168 0.5625 0.39151513577 
-2.9168 0.375 0.37379169464 -2.9168 0.1875 0.28439500928 -2.9168 0 0.17671343684 
-2.7156 1.5 0.40864756703 -2.7156 1.3125 0.37681737542 -2.7156 1.125 0.34222248197 
-2.7156 0.9375 0.33520576358 -2.7156 0.75 0.35100924969 -2.7156 0.5625 0.3889657855 
-2.7156 0.375 0.4053799808 -2.7156 0.1875 0.32948997617 -2.7156 0 0.22248077393 
-2.5144 1.5 0.38459536433 -2.5144 1.3125 0.35092836618 -2.5144 1.125 0.3237131536 
-2.5144 0.9375 0.31651854515 -2.5144 0.75 0.32905313373 -2.5144 0.5625 0.37720343471 
-2.5144 0.375 0.42592960596 -2.5144 0.1875 0.35505011678 -2.5144 0 0.27209308743 
-2.3132 1.5 0.3456556499 -2.3132 1.3125 0.33637809753 -2.3132 1.125 0.30741405487 
-2.3132 0.9375 0.30526530743 -2.3132 0.75 0.32647353411 -2.3132 0.5625 0.37303310633 
-2.3132 0.375 0.41355797648 -2.3132 0.1875 0.3704199791 -2.3132 0 0.29589265585 
-2.112 1.5 0.3211593926 -2.112 1.3125 0.30888447165 -2.112 1.125 0.28886190057 
-2.112 0.9375 0.28695574403 -2.112 0.75 0.30465313792 -2.112 0.5625 0.35958781838 
-2.112 0.375 0.4095068574 -2.112 0.1875 0.3801266551 -2.112 0 0.29012182355 
-1.9108 1.5 0.32282429934 -1.9108 1.3125 0.28987318277 -1.9108 1.125 0.26156499982 
-1.9108 0.9375 0.25109323859 -1.9108 0.75 0.27457717061 -1.9108 0.5625 0.32854264975 
-1.9108 0.375 0.40853747725 -1.9108 0.1875 0.39057704806 -1.9108 0 0.28283140063 
-1.7096 1.5 0.29969647527 -1.7096 1.3125 0.27179098129 -1.7096 1.125 0.23675100505 
-1.7096 0.9375 0.2231169641 -1.7096 0.75 0.23552015424 -1.7096 0.5625 0.30672365427 
-1.7096 0.375 0.40217274427 -1.7096 0.1875 0.38281708956 -1.7096 0 0.28618234396 
-1.5084 1.5 0.27166417241 -1.5084 1.3125 0.24515870214 -1.5084 1.125 0.20265229046 
-1.5084 0.9375 0.185754776 -1.5084 0.75 0.19273997843 -1.5084 0.5625 0.27800548077 
-1.5084 0.375 0.37658980489 -1.5084 0.1875 0.36783400178 -1.5084 0 0.28865793347 
-1.3072 1.5 0.2413046211 -1.3072 1.3125 0.21600398421 -1.3072 1.125 0.16696844995 
-1.3072 0.9375 0.13486605883 -1.3072 0.75 0.15109759569 -1.3072 0.5625 0.24339404702 
-1.3072 0.375 0.33639219403 -1.3072 0.1875 0.33233907819 -1.3072 0 0.28612807393 
-1.106 1.5 0.21298150718 -1.106 1.3125 0.18687471747 -1.106 1.125 0.12633951008 
-1.106 0.9375 0.08624034375 -1.106 0.75 0.10094048828 -1.106 0.5625 0.21073809266 
-1.106 0.375 0.32569953799 -1.106 0.1875 0.2893460393 -1.106 0 0.28381898999 
-0.9048 1.5 0.17993551493 -0.9048 1.3125 0.16010814905 -0.9048 1.125 0.094355046749 
-0.9048 0.9375 0.05162839219 -0.9048 0.75 0.081946820021 -0.9048 0.5625 0.19101664424 
-0.9048 0.375 0.2956777513 -0.9048 0.1875 0.28789961338 -0.9048 0 0.28714716434 
-0.7036 1.5 0.15224632621 -0.7036 1.3125 0.13434101641 -0.7036 1.125 0.044579036534 
-0.7036 0.9375 0.0099100507796 -0.7036 0.75 0.052464336157 -0.7036 0.5625 0.17366465926 
-0.7036 0.375 0.28593063354 -0.7036 0.1875 0.28874731064 -0.7036 0 0.2888918221 
-0.5024 1.5 0.13184936345 -0.5024 1.3125 0.10572998226 -0.5024 1.125 0.01329058595 
-0.5024 0.9375 0.0015966492938 -0.5024 0.75 0.015878999606 -0.5024 0.5625 0.1359731406 
-0.5024 0.375 0.26608133316 -0.5024 0.1875 0.27896612883 -0.5024 0 0.28094911575 
-0.3012 1.5 0.11832167208 -0.3012 1.3125 0.097123600543 -0.3012 1.125 -0.00080244260607 
-0.3012 0.9375 0.001018246403 -0.3012 0.75 0.020701617002 -0.3012 0.5625 0.13838350773 
-0.3012 0.375 0.2607216537 -0.3012 0.1875 0.28474891186 -0.3012 0 0.33109438419 

CELLS 609 2432
OFFSETS vtktypeint64
0 4 8 12 16 20 24 28 32 
36 40 44 48 52 56 60 64 68 
72 76 80 84 88 92 96 100 104 
108 112 116 120 124 128 132 136 140 
144 148 152 156 160 164 168 172 176 
180 184 188 192 196 200 204 208 212 
216 220 224 228 232 236 240 244 248 
252 256 260 264 268 272 276 280 284 
288 292 296 300 304 308 312 316 320 
324 328 332 336 340 344 348 352 356 
360 364 368 372 376 380 384 388 392 
396 400 404 408 412 416 420 424 428 
432 436 440 444 448 452 456 460 464 
468 472 476 480 484 488 492 496 500 
504 508 512 516 520 524 528 532 536 
540 544 548 552 556 560 564 568 572 
576 580 584 588 592 596 600 604 608 
612 616 620 624 628 632 636 640 644 
648 652 656 660 664 668 672 676 680 
684 688 692 696 700 704 708 712 716 
720 724 728 732 736 740 744 748 752 
756 760 764 768 772 776 780 784 788 
792 796 800 804 808 812 816 820 824 
828 832 836 840 844 848 852 856 860 
864 868 872 876 880 884 888 892 896 
900 904 908 912 916 920 924 928 932 
936 940 944 948 952 956 960 964 968 
972 976 980 984 988 992 996 1000 1004 
1008 1012 1016 1020 1024 1028 1032 1036 1040 
1044 1048 1052 1056 1060 1064 1068 1072 1076 
1080 1084 1088 1092 1096 1100 1104 1108 1112 
1116 1120 1124 1128 1132 1136 1140 1144 1148 
1152 1156 1160 1164 1168 1172 1176 1180 1184 
1188 1192 1196 1200 1204 1208 1212 1216 1220 
1224 1228 1232 1236 1240 1244 1248 1252 1256 
1260 1264 1268 1272 1276 1280 1284 1288 1292 
1296 1300 1304 1308 1312 1316 1320 1324 1328 
1332 1336 1340 1344 1348 1352 1356 1360 1364 
1368 1372 1376 1380 1384 1388 1392 1396 1400 
1404 1408 1412 1416 1420 1424 1428 1432 1436 
1440 1444 1448 1452 1456 1460 1464 1468 1472 
1476 1480 1484 1488 1492 1496 1500 1504 1508 
1512 1516 1520 1524 1528 1532 1536 1540 1544 
1548 1552 1556 1560 1564 1568 1572 1576 1580 
1584 1588 1592 1596 1600 1604 1608 1612 1616 
1620 1624 1628 1632 1636 1640 1644 1648 1652 
1656 1660 1664 1668 1672 1676 1680 1684 1688 
1692 1696 1700 1704 1708 1712 1716 1720 1724 
1728 1732 1736 1740 1744 1748 1752 1756 1760 
1764 1768 1772 1776 1780 1784 1788 1792 1796 
1800 1804 1808 1812 1816 1820 1824 1828 1832 
1836 1840 1844 1848 1852 1856 1860 1864 1868 
1872 1876 1880 1884 1888 1892 1896 1900 1904 
1908 1912 1916 1920 1924 1928 1932 1936 1940 
1944 1948 1952 1956 1960 1964 1968 1972 1976 
1980 1984 1988 1992 1996 2000 2004 2008 2012 
2016 2020 2024 2028 2032 2036 2040 2044 2048 
2052 2056 2060 2064 2068 2072 2076 2080 2084 
2088 2092 2096 2100 2104 2108 2112 2116 2120 
2124 2128 2132 2136 2140 2144 2148 2152 2156 
2160 2164 2168 2172 2176 2180 2184 2188 2192 
2196 2200 2204 2208 2212 2216 2220 2224 2228 
2232 2236 2240 2244 2248 2252 2256 2260 2264 
2268 2272 2276 2280 2284 2288 2292 2296 2300 
2304 2308 2312 2316 2320 2324 2328 2332 2336 
2340 2344 2348 2352 2356 2360 2364 2368 2372 
2376 2380 2384 2388 2392 2396 2400 2404 2408 
2412 2416 2420 2424 2428 2432 
CONNECTIVITY vtktypeint64
0 1 19 18 1 2 20 19 2 
3 21 20 3 4 22 21 4 5 
23 22 5 6 24 23 6 7 25 
24 7 8 26 25 18 19 28 27 
19 20 29 28 20 21 30 29 21 
22 31 30 22 23 32 31 23 24 
33 32 24 25 34 33 25 26 35 
34 27 28 37 36 28 29 38 37 
29 30 39 38 30 31 40 39 31 
32 41 40 32 33 42 41 33 34 
43 42 34 35 44 43 36 37 46 
45 37 38 47 46 38 39 48 47 
39 40 49 48 40 41 50 49 41 
42 51 50 42 43 52 51 43 44 
53 52 45 46 55 54 46 47 56 
55 47 48 57 56 48 49 58 57 
49 50 59 58 50 51 60 59 51 
52 61 60 52 53 62 61 54 55 
64 63 55 56 65 64 56 57 66 
65 57 58 67 66 58 59 68 67 
59 60 69 68 60 61 70 69 61 
62 71 70 63 64 73 72 64 65 
74 73 65 66 75 74 66 67 76 
75 67 68 77 76 68 69 78 77 
69 70 79 78 70 71 80 79 72 
73 82 81 73 74 83 82 74 75 
84 83 75 76 85 84 76 77 86 
85 77 78 87 86 78 79 88 87 
79 80 89 88 81 82 91 90 82 
83 92 91 83 84 93 92 84 85 
94 93 85 86 95 94 86 87 96 
95 87 88 97 96 88 89 98 97 
90 91 100 99 91 92 101 100 92 
93 102 101 93 94 103 102 94 95 
104 103 95 96 105 104 96 97 106 
105 97 98 107 106 99 100 109 108 
100 101 110 109 101 102 111 110 102 
103 112 111 103 104 113 112 104 105 
114 113 105 106 115 114 106 107 116 
115 108 109 118 117 109 110 119 118 
110 111 120 119 111 112 121 120 112 
113 122 121 113 114 123 122 114 115 
124 123 115 116 125 124 117 118 127 
126 118 119 128 127 119 120 129 128 
120 121 130 129 121 122 131 130 122 
123 132 131 123 124 133 132 124 125 
134 133 126 127 136 135 127 128 137 
136 128 129 138 137 129 130 139 138 
130 131 140 139 131 132 141 140 132 
133 142 141 133 134 143 142 135 136 
145 144 136 137 146 145 137 138 147 
146 138 139 148 147 139 140 149 148 
140 141 150 149 141 142 151 150 142 
143 152 151 144 145 154 153 145 146 
155 154 146 147 156 155 147 148 157 
156 148 149 158 157 149 150 159 158 
150 151 160 159 151 152 161 160 153 
154 163 162 154 155 164 163 155 156 
165 164 156 157 166 165 157 158 167 
166 158 159 168 167 159 160 169 168 
160 161 170 169 162 163 172 171 163 
164 173 172 164 165 174 173 165 166 
175 174 166 167 176 175 167 168 177 
176 168 169 178 177 169 170 179 178 
171 172 181 180 172 173 182 181 173 
174 183 182 174 175 184 183 175 176 
185 184 176 177 186 185 177 178 187 
186 178 179 188 187 180 181 190 189 
181 182 191 190 182 183 192 191 183 
184 193 192 184 185 194 193 185 186 
195 194 186 187 196 195 187 188 197 
196 189 190 199 198 190 191 200 199 
191 192 201 200 192 193 202 201 193 
194 203 202 194 195 204 203 195 196 
205 204 196 197 206 205 198 199 208 
207 199 200 209 208 200 201 210 209 
201 202 211 210 202 203 212 211 203 
204 213 212 204 205 214 213 205 206 
215 214 207 208 217 216 208 209 218 
217 209 210 219 218 210 211 220 219 
211 212 221 220 212 213 222 221 213 
214 223 222 214 215 224 223 216 217 
226 225 217 218 227 226 218 219 228 
227 219 220 229 228 220 221 230 229 
221 222 231 230 222 223 232 231 223 
224 233 232 225 226 10 9 226 227 
11 10 227 228 12 11 228 229 13 
12 229 230 14 13 230 231 15 14 
231 232 16 15 232 233 17 16 234 
235 1 0 235 236 2 1 236 237 
3 2 237 238 4 3 238 239 5 
4 239 240 6 5 240 241 7 6 
241 242 8 7 243 244 253 252 244 
245 254 253 245 246 255 254 246 247 
256 255 247 248 257 256 248 249 258 
257 249 250 259 258 250 251 260 259 
252 253 262 261 253 254 263 262 254 
255 264 263 255 256 265 264 256 257 
266 265 257 258 267 266 258 259 268 
267 259 260 269 268 261 262 271 270 
262 263 272 271 263 264 273 272 264 
265 274 273 265 266 275 274 266 267 
276 275 267 268 277 276 268 269 278 
277 270 271 280 279 271 272 281 280 
272 273 282 281 273 274 283 282 274 
275 284 283 275 276 285 284 276 277 
286 285 277 278 287 286 279 280 289 
288 280 281 290 289 281 282 291 290 
282 283 292 291 283 284 293 292 284 
285 294 293 285 286 295 294 286 287 
296 295 288 289 298 297 289 290 299 
298 290 291 300 299 291 292 301 300 
292 293 302 301 293 294 303 302 294 
295 304 303 295 296 305 304 297 298 
307 306 298 299 308 307 299 300 309 
308 300 301 310 309 301 302 311 310 
302 303 312 311 303 304 313 312 304 
305 314 313 306 307 316 315 307 308 
317 316 308 309 318 317 309 310 319 
318 310 311 320 319 311 312 321 320 
312 313 322 321 313 314 323 322 315 
316 325 324 316 317 326 325 317 318 
327 326 318 319 328 327 319 320 329 
328 320 321 330 329 321 322 331 330 
322 323 332 331 324 325 334 333 325 
326 335 334 326 327 336 335 327 328 
337 336 328 329 338 337 329 330 339 
338 330 331 340 339 331 332 341 340 
333 334 343 342 334 335 344 343 335 
336 345 344 336 337 346 345 337 338 
347 346 338 339 348 347 339 340 349 
348 340 341 350 349 342 343 352 351 
343 344 353 352 344 345 354 353 345 
346 355 354 346 347 356 355 347 348 
357 356 348 349 358 357 349 350 359 
358 351 352 361 360 352 353 362 361 
353 354 363 362 354 355 364 363 355 
356 365 364 356 357 366 365 357 358 
367 366 358 359 368 367 360 361 370 
369 361 362 371 370 362 363 372 371 
363 364 373 372 364 365 374 373 365 
366 375 374 366 367 376 375 367 368 
377 376 369 370 379 378 370 371 380 
379 371 372 381 380 372 373 382 381 
373 374 383 382 374 375 384 383 375 
376 385 384 376 377 386 385 378 379 
388 387 379 380 389 388 380 381 390 
389 381 382 391 390 382 383 392 391 
383 384 393 392 384 385 394 393 385 
386 395 394 387 388 397 396 388 389 
398 397 389 390 399 398 390 391 400 
399 391 392 401 400 392 393 402 401 
393 394 403 402 394 395 404 403 396 
397 406 405 397 398 407 406 398 399 
408 407 399 400 409 408 400 401 410 
409 401 402 411 410 402 403 412 411 
403 404 413 412 405 406 415 414 406 
407 416 415 407 408 417 416 408 409 
418 417 409 410 419 418 410 411 420 
419 411 412 421 420 412 413 422 421 
414 415 424 423 415 416 425 424 416 
417 426 425 417 418 427 426 418 419 
428 427 419 420 429 428 420 421 430 
429 421 422 431 430 423 424 433 432 
424 425 434 433 425 426 435 434 426 
427 436 435 427 428 437 436 428 429 
438 437 429 430 439 438 430 431 440 
439 432 433 442 441 433 434 443 442 
434 435 444 443 435 436 445 444 436 
437 446 445 437 438 447 446 438 439 
448 447 439 440 449 448 441 442 451 
450 442 443 452 451 443 444 453 452 
444 445 454 453 445 446 455 454 446 
447 456 455 447 448 457 456 448 449 
458 457 450 451 460 459 451 452 461 
460 452 453 462 461 453 454 463 462 
454 455 464 463 455 456 465 464 456 
457 466 465 457 458 467 466 459 460 
469 468 460 461 470 469 461 462 471 
470 462 463 472 471 463 464 473 472 
464 465 474 473 465 466 475 474 466 
467 476 475 468 469 478 477 469 470 
479 478 470 471 480 479 471 472 481 
480 472 473 482 481 473 474 483 482 
474 475 484 483 475 476 485 484 477 
478 487 486 478 479 488 487 479 480 
489 488 480 481 490 489 481 482 491 
490 482 483 492 491 483 484 493 492 
484 485 494 493 486 487 496 495 487 
488 497 496 488 489 498 497 489 490 
499 498 490 491 500 499 491 492 501 
500 492 493 502 501 493 494 503 502 
495 496 505 504 496 497 506 505 497 
498 507 506 498 499 508 507 499 500 
509 508 500 501 510 509 501 502 511 
510 502 503 512 511 504 505 514 513 
505 506 515 514 506 507 516 515 507 
508 517 516 508 509 518 517 509 510 
519 518 510 511 520 519 511 512 521 
520 513 514 523 522 514 515 524 523 
515 516 525 524 516 517 526 525 517 
518 527 526 518 519 528 527 519 520 
529 528 520 521 530 529 522 523 532 
531 523 524 533 532 524 525 534 533 
525 526 535 534 526 527 536 535 527 
528 537 536 528 529 538 537 529 530 
539 538 531 532 541 540 532 533 542 
541 533 534 543 542 534 535 544 543 
535 536 545 544 536 537 546 545 537 
538 547 546 538 539 548 547 540 541 
550 549 541 542 551 550 542 543 552 
551 543 544 553 552 544 545 554 553 
545 546 555 554 546 547 556 555 547 
548 557 556 549 550 559 558 550 551 
560 559 551 552 561 560 552 553 562 
561 553 554 563 562 554 555 564 563 
555 556 565 564 556 557 566 565 558 
559 568 567 559 560 569 568 560 561 
570 569 561 562 571 570 562 563 572 
571 563 564 573 572 564 565 574 573 
565 566 575 574 567 568 577 576 568 
569 578 577 569 570 579 578 570 571 
580 579 571 572 581 580 572 573 582 
581 573 574 583 582 574 575 584 583 
576 577 586 585 577 578 587 586 578 
579 588 587 579 580 589 588 580 581 
590 589 581 582 591 590 582 583 592 
591 583 584 593 592 585 586 595 594 
586 587 596 595 587 588 597 596 588 
589 598 597 589 590 599 598 590 591 
600 599 591 592 601 600 592 593 602 
601 594 595 604 603 595 596 605 604 
596 597 606 605 597 598 607 606 598 
599 608 607 599 600 609 608 600 601 
610 609 601 602 611 610 603 604 613 
612 604 605 614 613 605 606 615 614 
606 607 616 615 607 608 617 616 608 
609 618 617 609 610 619 618 610 611 
620 619 612 613 622 621 613 614 623 
622 614 615 624 623 615 616 625 624 
616 617 626 625 617 618 627 626 618 
619 628 627 619 620 629 628 621 622 
631 630 622 623 632 631 623 624 633 
632 624 625 634 633 625 626 635 634 
626 627 636 635 627 628 637 636 628 
629 638 637 630 631 640 639 631 632 
641 640 632 633 642 641 633 634 643 
642 634 635 644 643 635 636 645 644 
636 637 646 645 637 638 647 646 639 
640 649 648 640 641 650 649 641 642 
651 650 642 643 652 651 643 644 653 
652 644 645 654 653 645 646 655 654 
646 647 656 655 648 649 658 657 649 
650 659 658 650 651 660 659 651 652 
661 660 652 653 662 661 653 654 663 
662 654 655 664 663 655 656 665 664 
657 658 667 666 658 659 668 667 659 
660 669 668 660 661 670 669 661 662 
671 670 662 663 672 671 663 664 673 
672 664 665 674 673 666 667 676 675 
667 668 677 676 668 669 678 677 669 
670 679 678 670 671 680 679 671 672 
681 680 672 673 682 681 673 674 683 
682 675 676 685 684 676 677 686 685 
677 678 687 686 678 679 688 687 679 
680 689 688 680 681 690 689 681 682 
691 690 682 683 692 691 684 685 235 
234 685 686 236 235 686 687 237 236 
687 688 238 237 688 689 239 238 689 
690 240 239 690 691 241 240 691 692 
242 241 
CELL_TYPES 608
9
9
9
9
9
9
9
9
9
9
9
9
9
9
9
9
9
9
9
9
9
9
9
9
9
9
9
9
9
9
9
9
9
9
9
9
9
9
9
9
9
9
9
9
9
9
9
9
9
9
9
9
9
9
9
9
9
9
9
9
9
9
9
9
9
9
9
9
9
9
9
9
9
9
9
9
9
9
9
9
9
9
9
9
9
9
9
9
9
9
9
9
9
9
9
9
9
9
9
9
9
9
9
9
9
9
9
9
9
9
9
9
9
9
9
9
9
9
9
9
9
9
9
9
9
9
9
9
9
9
9
9
9
9
9
9
9
9
9
9
9
9
9
9
9
9
9
9
9
9
9
9
9
9
9
9
9
9
9
9
9
9
9
9
9
9
9
9
9
9
9
9
9
9
9
9
9
9
9
9
9
9
9
9
9
9
9
9
9
9
9
9
9
9
9
9
9
9
9
9
9
9
9
9
9
9
9
9
9
9
9
9
9
9
9
9
9
9
9
9
9
9
9
9
9
9
9
9
9
9
9
9
9
9
9
9
9
9
9
9
9
9
9
9
9
9
9
9
9
9
9
9
9
9
9
9
9
9
9
9
9
9
9
9
9
9
9
9
9
9
9
9
9
9
9
9
9
9
9
9
9
9
9
9
9
9
9
9
9
9
9
9
9
9
9
9
9
9
9
9
9
9
9
9
9
9
9
9
9
9
9
9
9
9
9
9
9
9
9
9
9
9
9
9
9
9
9
9
9
9
9
9
9
9
9
9
9
9
9
9
9
9
9
9
9
9
9
9
9
9
9
9
9
9
9
9
9
9
9
9
9
9
9
9
9
9
9
9
9
9
9
9
9
9
9
9
9
9
9
9
9
9
9
9
9
9
9
9
9
9
9
9
9
9
9
9
9
9
9
9
9
9
9
9
9
9
9
9
9
9
9
9
9
9
9
9
9
9
9
9
9
9
9
9
9
9
9
9
9
9
9
9
9
9
9
9
9
9
9
9
9
9
9
9
9
9
9
9
9
9
9
9
9
9
9
9
9
9
9
9
9
9
9
9
9
9
9
9
9
9
9
9
9
9
9
9
9
9
9
9
9
9
9
9
9
9
9
9
9
9
9
9
9
9
9
9
9
9
9
9
9
9
9
9
9
9
9
9
9
9
9
9
9
9
9
9
9
9
9
9
9
9
9
9
9
9
9
9
9
9
9
9
9
9
9
9
9
9
9
9
9
9
9
9
9
9
9
9
9
9
9
9
9
9
9
9
9
9
9
9
9
9
9
9
9
9
9
9
9
9
9
9
9
9
9
9
9
9
9
9
9
9
9
9
9
9
9
9
9
9
9
9
9
9
9
9
9
9
9
9
9
9
9
9
9
9
9
9

CELL_DATA 608
FIELD FieldData 7
B_Stress_n_p_m2 1 608 float
0.528216 0.507329 0.458835 0.316406 0.0928457 0.041793 0.064186 0.0740815 0.533576 
0.479237 0.405566 0.329893 0.235818 0.164029 0.119282 0.132505 0.581333 0.534372 
0.462356 0.377243 0.293645 0.252762 0.222847 0.222071 0.549372 0.561381 0.54349 
0.490204 0.431737 0.373791 0.324681 0.311003 0.523131 0.531283 0.530214 0.510505 
0.470573 0.42838 0.38553 0.363813 0.501718 0.509501 0.504594 0.487992 0.462435 
0.435301 0.4087 0.393457 0.485213 0.493576 0.490485 0.47943 0.462863 0.444699 
0.426269 0.41297 0.474025 0.48275 0.481455 0.474263 0.463379 0.451096 0.437832 
0.425808 0.466481 0.475436 0.475642 0.471152 0.463966 0.4555 0.445518 0.434359 
0.461465 0.470526 0.471809 0.469154 0.464396 0.458443 0.45062 0.440091 0.458183 
0.467242 0.469223 0.467778 0.464625 0.460353 0.45401 0.443976 0.456087 0.465052 
0.467433 0.466761 0.464671 0.461548 0.456264 0.446655 0.454803 0.463596 0.466152 
0.465954 0.464569 0.462252 0.457766 0.44855 0.454075 0.462628 0.465198 0.465269 
0.464353 0.462617 0.458768 0.449938 0.453736 0.461986 0.464452 0.464655 0.464051 
0.462748 0.459436 0.451006 0.453672 0.461557 0.463835 0.46408 0.463683 0.462715 
0.45988 0.451878 0.453812 0.461267 0.463296 0.463524 0.463264 0.462564 0.460171 
0.452639 0.454107 0.461063 0.462798 0.462974 0.462806 0.462325 0.460352 0.453348 
0.45453 0.460905 0.462319 0.462424 0.462317 0.462017 0.460451 0.454046 0.455064 
0.460766 0.461843 0.461872 0.461805 0.461655 0.460482 0.454762 0.455699 0.46062 
0.46136 0.461319 0.461279 0.461247 0.46045 0.455519 0.456432 0.460446 0.460864 
0.460768 0.460745 0.460801 0.46035 0.456331 0.457256 0.460216 0.460347 0.460223 
0.460212 0.460316 0.460167 0.457207 0.45812 0.459911 0.45984 0.459731 0.459727 
0.459828 0.459892 0.458102 0.458833 0.4596 0.459488 0.459429 0.459428 0.459485 
0.459595 0.458829 0.593014 0.557383 0.450603 0.135327 434.535 200.096 175.522 
92.8874 0.153761 0.151297 0.142869 0.130227 0.115325 0.100486 0.0879547 0.0799789 
0.1554 0.152658 0.143834 0.130638 0.115158 0.0997694 0.0868409 0.0785859 0.15661 
0.153686 0.144549 0.130945 0.115035 0.0992532 0.0860302 0.0775982 0.157978 0.154861 
0.145365 0.131292 0.114888 0.098656 0.0850925 0.0764729 0.159421 0.156101 0.14622 
0.131653 0.11473 0.0980328 0.0841216 0.0753164 0.160941 0.157408 0.147118 0.132027 
0.114559 0.0973789 0.0831107 0.0741192 0.162537 0.158778 0.148056 0.132412 0.114375 
0.0966967 0.0820655 0.0728881 0.164209 0.160212 0.149032 0.132808 0.114178 0.0959866 
0.0809882 0.0716259 0.165959 0.161711 0.150047 0.133213 0.113965 0.0952484 0.0798805 
0.0703357 0.167788 0.163275 0.151101 0.133626 0.113735 0.0944816 0.0787438 0.0690202 
0.1697 0.164906 0.152194 0.134045 0.113486 0.0936853 0.0775792 0.0676821 0.171697 
0.166608 0.153327 0.13447 0.113217 0.0928581 0.0763877 0.0663244 0.173782 0.168383 
0.1545 0.134897 0.112923 0.0919986 0.0751708 0.0649505 0.175959 0.170233 0.155714 
0.135325 0.112603 0.0911054 0.0739301 0.0635643 0.178229 0.172161 0.156969 0.135752 
0.112251 0.0901769 0.0726676 0.0621705 0.180596 0.17417 0.158265 0.136172 0.111864 
0.0892116 0.0713864 0.0607745 0.183059 0.176261 0.1596 0.136583 0.111437 0.0882086 
0.0700902 0.0593831 0.185616 0.178435 0.160972 0.136978 0.110965 0.0871672 0.0687846 
0.0580039 0.188262 0.180693 0.162379 0.137351 0.110443 0.086088 0.0674768 0.0566465 
0.190986 0.183031 0.163814 0.137693 0.109863 0.084973 0.0661771 0.055322 0.193771 
0.185442 0.165267 0.137994 0.109222 0.0838268 0.0648997 0.0540443 0.196585 0.187914 
0.166723 0.138239 0.108513 0.0826576 0.0636645 0.0528303 0.199381 0.190426 0.16816 
0.13841 0.107733 0.0814789 0.0624993 0.0517012 0.202091 0.192945 0.169546 0.138487 
0.106883 0.0803124 0.0614433 0.0506845 0.20461 0.195419 0.170833 0.138444 0.105968 
0.0791929 0.0605529 0.0498185 0.206752 0.197735 0.171929 0.138235 0.105001 0.0781707 
0.0599066 0.0491575 0.208239 0.1997 0.172672 0.137773 0.103981 0.0773027 0.0596014 
0.0487753 0.209015 0.201323 0.173074 0.137103 0.102981 0.0767024 0.0597977 0.0488099 
0.209157 0.202788 0.173422 0.136573 0.102473 0.07675 0.0607841 0.0495534 0.205803 
0.20142 0.171735 0.135069 0.101873 0.0773643 0.0628559 0.0514826 0.192946 0.19051 
0.161748 0.127671 0.0980313 0.0768787 0.0653097 0.0547915 0.189625 0.188247 0.159793 
0.12698 0.0992416 0.0799927 0.0697706 0.0606292 0.265223 0.27038 0.241935 0.194441 
0.147201 0.112508 0.0919839 0.0804439 0.546232 0.573291 0.555028 0.458567 0.329796 
0.222081 0.159334 0.134955 1.0806 1.05079 0.980481 0.841307 0.653444 0.435461 
0.281951 0.23031 1.45809 1.30265 1.11546 0.966067 0.840677 0.66248 0.436705 
0.337361 1.39015 1.22556 1.04159 0.899283 0.817012 0.749536 0.55358 0.42153 
1.21716 1.09565 0.954322 0.826098 0.738975 0.699061 0.581812 0.454902 1.07951 
1.0064 0.89226 0.778079 0.68446 0.615729 0.530313 0.413687 0.960265 0.919916 
0.809984 0.696827 0.606436 0.545441 0.448113 0.33717 0.928822 0.848485 0.724179 
0.597958 0.500378 0.445966 0.369616 0.268885 0.901421 0.798097 0.654145 0.506187 
0.403957 0.338537 0.276783 0.200331 0.830403 0.734056 0.580571 0.427477 0.312114 
0.238537 0.181774 0.131303 0.772991 0.675646 0.511729 0.351679 0.234695 0.158929 
0.101304 0.0753084 0.735556 0.635475 0.465378 0.29202 0.172913 0.103067 0.0556293 
0.0438328 0.705393 0.603548 0.431014 0.248514 0.126316 0.0628591 0.0322963 0.0341112 
0.674562 0.572759 0.400055 0.201719 0.0837923 0.0374798 0.0198415 0.0327489 0.656688 
0.557927 0.382534 0.16336 0.0473498 0.0247225 0.0172681 0.0351501 0.651699 0.55744 
0.383832 0.149369 0.0378722 0.0400024 0.0363919 0.0530617 0.637991 0.568547 0.413556 
0.175074 0.0259574 0.0247439 0.0777828 0.0627659 
Froude 1 608 float
0.148145 0.139913 0.129617 0.105365 0.0572396 0.0394165 0.051471 0.0590245 0.15466 
0.140329 0.123723 0.110547 0.0938911 0.0802059 0.0718097 0.0791136 0.172088 0.157256 
0.139821 0.124306 0.109574 0.104598 0.102304 0.105602 0.167855 0.169361 0.163647 
0.152748 0.143577 0.133961 0.12652 0.126055 0.164192 0.165467 0.165285 0.162194 
0.155683 0.148492 0.140831 0.136782 0.160933 0.162174 0.161378 0.15868 0.154442 
0.149816 0.145143 0.142407 0.15824 0.159596 0.159085 0.157268 0.154509 0.15143 
0.148244 0.145911 0.156388 0.157819 0.1576 0.156409 0.154592 0.152518 0.15025 
0.14817 0.155126 0.156607 0.156635 0.155888 0.154686 0.153261 0.151567 0.149655 
0.154279 0.155786 0.155994 0.15555 0.154755 0.153755 0.152433 0.150641 0.153721 
0.155233 0.155559 0.155317 0.154789 0.154072 0.153005 0.151304 0.153362 0.154862 
0.155256 0.155142 0.154792 0.154269 0.153382 0.151758 0.15314 0.154613 0.155038 
0.155003 0.154771 0.154383 0.153631 0.152077 0.153012 0.154446 0.154874 0.154885 
0.154731 0.154441 0.153796 0.152309 0.152949 0.154334 0.154744 0.154778 0.154676 
0.154459 0.153904 0.152486 0.152934 0.154257 0.154637 0.154677 0.154611 0.154449 
0.153975 0.152629 0.152952 0.154204 0.154542 0.15458 0.154536 0.154419 0.154019 
0.152753 0.152998 0.154165 0.154455 0.154484 0.154455 0.154375 0.154045 0.152869 
0.153064 0.154134 0.15437 0.154387 0.154369 0.154319 0.154057 0.152982 0.153149 
0.154106 0.154286 0.154291 0.154279 0.154254 0.154058 0.153098 0.153252 0.154077 
0.154201 0.154194 0.154187 0.154182 0.154048 0.153221 0.15337 0.154043 0.154113 
0.154097 0.154093 0.154103 0.154027 0.153353 0.153504 0.154 0.154022 0.154002 
0.154 0.154017 0.153992 0.153496 0.153644 0.153945 0.153933 0.153915 0.153914 
0.153931 0.153942 0.153641 0.153759 0.153888 0.15387 0.153861 0.15386 0.15387 
0.153887 0.153758 0.154034 0.145079 0.125766 0.068804 0.0266685 0.0192934 0.0193301 
0.0146979 0.0733612 0.0727708 0.0707147 0.0675136 0.0635334 0.059305 0.0554841 0.0529086 
0.0737507 0.0730972 0.0709531 0.06762 0.0634873 0.0590933 0.0551317 0.0524459 0.074037 
0.0733425 0.0711292 0.0676992 0.0634533 0.0589401 0.0548737 0.0521152 0.0743598 0.0736224 
0.0713294 0.0677888 0.0634127 0.0587624 0.0545738 0.0517358 0.0746984 0.0739165 0.0715389 
0.0678817 0.063369 0.0585765 0.0542615 0.0513431 0.0750536 0.0742251 0.071758 0.0679779 
0.0633217 0.0583807 0.0539344 0.0509334 0.0754247 0.0745474 0.0719863 0.068077 0.0632708 
0.0581758 0.0535941 0.0505085 0.0758117 0.0748832 0.0722232 0.0681787 0.063216 0.0579617 
0.0532411 0.0500692 0.0762144 0.0752325 0.0724687 0.0682825 0.0631569 0.0577384 0.0528757 
0.0496162 0.0766332 0.0755954 0.0727227 0.0683881 0.0630932 0.0575055 0.0524981 0.04915 
0.0770684 0.0759721 0.0729852 0.0684953 0.0630242 0.0572626 0.0521084 0.0486712 0.0775205 
0.0763631 0.0732563 0.0686037 0.0629493 0.0570092 0.0517067 0.0481805 0.0779898 0.0767686 
0.073536 0.0687126 0.0628676 0.0567448 0.0512932 0.0476789 0.0784767 0.0771892 0.0738244 
0.0688216 0.0627783 0.0564686 0.0508681 0.0471673 0.0789815 0.0776251 0.0741212 0.0689299 
0.0626802 0.0561801 0.0504319 0.0466473 0.0795041 0.0780766 0.0744264 0.0690366 0.0625721 
0.0558786 0.0499854 0.0461207 0.0800444 0.0785439 0.0747397 0.0691406 0.0624526 0.0555636 
0.0495296 0.0455897 0.0806016 0.079027 0.0750604 0.0692406 0.0623203 0.0552347 0.0490661 
0.0450572 0.081174 0.0795253 0.0753877 0.0693349 0.0621734 0.0548918 0.0485975 0.0445269 
0.0817593 0.0800381 0.07572 0.0694212 0.0620102 0.0545352 0.0481272 0.0440033 0.0823531 
0.0805636 0.0760551 0.069497 0.0618289 0.0541662 0.0476606 0.0434923 0.0829489 0.0810989 
0.0763896 0.0695587 0.0616281 0.0537873 0.0472049 0.0430011 0.0835366 0.081639 0.0767181 
0.0696019 0.0614064 0.0534025 0.0467711 0.0425392 0.0841021 0.082177 0.0770334 0.0696212 
0.0611635 0.053019 0.0463744 0.0421191 0.0846245 0.0827019 0.0773252 0.0696104 0.0609015 
0.0526484 0.0460374 0.0417579 0.0850656 0.0831899 0.0775725 0.0695577 0.060623 0.0523077 
0.0457913 0.0414802 0.08537 0.0836013 0.0777394 0.0694414 0.060328 0.0520167 0.0456748 
0.0413189 0.0855276 0.0839392 0.0778291 0.0692719 0.0600372 0.0518146 0.0457503 0.041334 
0.0855551 0.0842425 0.0779068 0.0691376 0.0598891 0.0518312 0.0461267 0.0416483 0.0848613 
0.083953 0.0775238 0.0687544 0.0597133 0.0520387 0.0469071 0.0424524 0.0821567 0.0816354 
0.0752265 0.0668391 0.0585737 0.0518746 0.0478144 0.0437967 0.0814535 0.0811542 0.0747758 
0.0666617 0.0589368 0.052917 0.049422 0.046073 0.099252 0.100609 0.0952649 0.0853349 
0.0737805 0.0638953 0.0571388 0.0530031 0.154863 0.161308 0.160089 0.144929 0.120625 
0.0961556 0.078564 0.0699003 0.243174 0.241868 0.236945 0.220566 0.191283 0.149096 
0.112754 0.0958018 0.309589 0.286717 0.261346 0.245033 0.231747 0.201428 0.151834 
0.122791 0.307502 0.278138 0.24959 0.233083 0.229422 0.2253 0.182346 0.144135 
0.279843 0.256017 0.233386 0.217781 0.213694 0.220163 0.193614 0.156441 0.256819 
0.239457 0.222019 0.208858 0.202427 0.203048 0.189183 0.152921 0.233167 0.224789 
0.207727 0.19418 0.188623 0.189902 0.173479 0.138684 0.224227 0.210092 0.191362 
0.175599 0.166406 0.169912 0.158127 0.123948 0.218942 0.199612 0.177463 0.156228 
0.145616 0.144477 0.1359 0.107735 0.205159 0.187107 0.162955 0.139477 0.124044 
0.117892 0.108479 0.0869225 0.192983 0.175039 0.148203 0.122834 0.104146 0.0927652 
0.0779504 0.0651852 0.183728 0.16541 0.137342 0.108197 0.0869072 0.0730729 0.0552013 
0.0487614 0.176155 0.157804 0.129083 0.097746 0.0724895 0.055484 0.0418023 0.0421907 
0.168661 0.149976 0.121702 0.0864323 0.0583327 0.0423122 0.0323008 0.0413444 0.163293 
0.145483 0.117112 0.0761383 0.0429349 0.0338501 0.0298573 0.0426921 0.161146 0.143639 
0.116324 0.0727543 0.0380156 0.0423575 0.043079 0.0534983 0.158753 0.145011 0.120284 
0.078358 0.0316482 0.0332161 0.0627669 0.0567883 
Vel_Mag_m_p_s 1 608 float
0.326351 0.325805 0.313929 0.263485 0.142525 0.094386 0.113951 0.118491 0.321831 
0.311715 0.292913 0.265415 0.223892 0.184504 0.153553 0.158295 0.32536 0.31952 
0.303994 0.276783 0.244305 0.223456 0.205579 0.201814 0.315757 0.319489 0.317219 
0.303889 0.284965 0.26479 0.245151 0.237801 0.307753 0.310141 0.309843 0.30402 
0.291924 0.278574 0.26431 0.256782 0.301261 0.303591 0.302138 0.297145 0.289285 
0.280694 0.272004 0.266887 0.296286 0.29883 0.297902 0.294539 0.289422 0.283703 
0.277775 0.273411 0.292866 0.29555 0.295161 0.292957 0.289587 0.285733 0.28151 
0.277619 0.290539 0.293315 0.293383 0.292002 0.289773 0.287124 0.283966 0.280389 
0.288982 0.291806 0.292207 0.291388 0.289911 0.288051 0.285587 0.282231 0.28796 
0.290793 0.291411 0.290965 0.289986 0.288653 0.28666 0.283475 0.287307 0.290118 
0.290861 0.290654 0.290004 0.28903 0.287372 0.284331 0.286908 0.289669 0.290467 
0.290407 0.289976 0.289254 0.287848 0.284935 0.286684 0.289372 0.290175 0.290198 
0.289913 0.289371 0.288166 0.285379 0.286582 0.289175 0.289947 0.290011 0.289823 
0.289416 0.288379 0.285721 0.286566 0.289046 0.289759 0.289835 0.289712 0.28941 
0.288522 0.286001 0.286615 0.28896 0.289594 0.289666 0.289585 0.289366 0.288617 
0.286245 0.286712 0.2889 0.289443 0.289498 0.289446 0.289296 0.288678 0.286473 
0.28685 0.288855 0.289298 0.289331 0.289297 0.289203 0.288713 0.286698 0.287023 
0.288816 0.289153 0.289162 0.289141 0.289094 0.288727 0.286928 0.287227 0.288774 
0.289006 0.288993 0.288981 0.288971 0.288721 0.287171 0.287462 0.288724 0.288855 
0.288825 0.288818 0.288835 0.288694 0.287431 0.287726 0.288656 0.288697 0.288658 
0.288654 0.288687 0.288641 0.287711 0.288002 0.288565 0.288542 0.288508 0.288506 
0.288538 0.288559 0.287997 0.288231 0.288471 0.288435 0.288416 0.288416 0.288434 
0.288469 0.28823 0.349067 0.343346 0.3144 0.172445 0.0661339 0.043464 0.0393582 
0.0280056 0.18379 0.182311 0.177161 0.169141 0.15917 0.148577 0.139005 0.132552 
0.184767 0.18313 0.177758 0.169408 0.159055 0.148047 0.138122 0.131393 0.185485 
0.183745 0.1782 0.169607 0.15897 0.147663 0.137476 0.130565 0.186294 0.184447 
0.178702 0.169832 0.158869 0.147218 0.136724 0.129615 0.187143 0.185184 0.179227 
0.170065 0.158759 0.146753 0.135942 0.128631 0.188033 0.185958 0.179777 0.170307 
0.158641 0.146263 0.135123 0.127605 0.188963 0.186765 0.180349 0.170555 0.158514 
0.145749 0.134271 0.12654 0.189933 0.187607 0.180943 0.17081 0.158377 0.145213 
0.133387 0.12544 0.190942 0.188482 0.181558 0.17107 0.158229 0.144654 0.132471 
0.124305 0.191991 0.189392 0.182195 0.171335 0.15807 0.144071 0.131525 0.123137 
0.193082 0.190336 0.182852 0.171604 0.157897 0.143462 0.130549 0.121938 0.194215 
0.191315 0.183532 0.171875 0.157709 0.142827 0.129543 0.120709 0.195391 0.192332 
0.184233 0.172148 0.157505 0.142165 0.128507 0.119452 0.19661 0.193385 0.184955 
0.172421 0.157281 0.141473 0.127442 0.11817 0.197875 0.194477 0.185699 0.172693 
0.157035 0.14075 0.126349 0.116868 0.199185 0.195609 0.186464 0.17296 0.156764 
0.139995 0.12523 0.115548 0.200538 0.196779 0.187248 0.173221 0.156465 0.139206 
0.124088 0.114218 0.201934 0.19799 0.188052 0.173471 0.156133 0.138381 0.122927 
0.112883 0.203368 0.199238 0.188872 0.173707 0.155765 0.137522 0.121753 0.111555 
0.204834 0.200523 0.189704 0.173923 0.155356 0.136629 0.120574 0.110243 0.206322 
0.201839 0.190543 0.174113 0.154902 0.135704 0.119405 0.108962 0.207815 0.20318 
0.191381 0.174267 0.154398 0.134754 0.118263 0.107731 0.209288 0.204534 0.192204 
0.174375 0.153842 0.13379 0.117175 0.106574 0.210705 0.205883 0.192995 0.174424 
0.153233 0.132828 0.116181 0.10552 0.212015 0.207199 0.193726 0.174396 0.152576 
0.131899 0.115336 0.104615 0.213123 0.208423 0.194347 0.174265 0.151878 0.131045 
0.114719 0.103918 0.213889 0.209458 0.194767 0.173974 0.151139 0.130315 0.114426 
0.103513 0.214289 0.210309 0.194994 0.17355 0.15041 0.129808 0.114613 0.103549 
0.214364 0.211074 0.195191 0.173215 0.150038 0.129847 0.115554 0.104334 0.212644 
0.210367 0.194243 0.172261 0.149599 0.130365 0.117506 0.106344 0.205909 0.204606 
0.188522 0.167484 0.146755 0.129956 0.119777 0.109707 0.20412 0.203381 0.187373 
0.167026 0.147654 0.132559 0.123798 0.1154 0.237825 0.239652 0.226583 0.203211 
0.17737 0.155802 0.141657 0.133011 0.327325 0.332563 0.325818 0.296752 0.254029 
0.211502 0.182406 0.170735 0.435722 0.427828 0.41037 0.379199 0.33689 0.281449 
0.233606 0.217755 0.483467 0.461652 0.430431 0.399083 0.36973 0.331696 0.279497 
0.256099 0.468051 0.447755 0.418387 0.387782 0.363726 0.34406 0.304689 0.279355 
0.444093 0.429081 0.405186 0.376429 0.34954 0.33032 0.30693 0.283911 0.423668 
0.416279 0.394997 0.367505 0.339076 0.312725 0.289654 0.267418 0.407268 0.401647 
0.379779 0.350883 0.320783 0.295269 0.266586 0.240876 0.405065 0.39102 0.363812 
0.328974 0.295672 0.268401 0.241674 0.215018 0.400822 0.383149 0.350043 0.307803 
0.269195 0.236715 0.209853 0.18495 0.389351 0.371682 0.334024 0.286981 0.240362 
0.201532 0.171354 0.14999 0.380444 0.361111 0.318618 0.264162 0.211825 0.167545 
0.130386 0.114151 0.375659 0.354783 0.308229 0.244833 0.184401 0.136421 0.0988378 
0.087949 0.371788 0.349458 0.30016 0.228236 0.159542 0.108047 0.0755412 0.0783402 
0.367434 0.344657 0.292322 0.207559 0.130727 0.0839527 0.0596342 0.0767553 0.365979 
0.34312 0.288152 0.188789 0.0993123 0.0687003 0.0558891 0.079651 0.366307 0.345089 
0.289861 0.180586 0.0892647 0.0881087 0.0813843 0.0969026 0.363219 0.348573 0.301451 
0.196017 0.0736955 0.0693979 0.119184 0.10668 
Water_Depth_m 1 608 float
0.494836 0.55292 0.598145 0.637655 0.632201 0.584686 0.499777 0.410933 0.44153 
0.503136 0.571529 0.587786 0.579821 0.539591 0.466247 0.408224 0.364496 0.420964 
0.482001 0.505544 0.506894 0.465374 0.411757 0.372409 0.360831 0.362867 0.383149 
0.403592 0.401677 0.398393 0.382835 0.362887 0.358231 0.358227 0.358329 0.358259 
0.358526 0.35887 0.359164 0.359368 0.357322 0.357338 0.357427 0.357565 0.357755 
0.357941 0.358115 0.358146 0.35748 0.357492 0.357562 0.357659 0.357783 0.357903 
0.358011 0.35803 0.357598 0.357607 0.357658 0.357725 0.357806 0.357884 0.357952 
0.357965 0.357688 0.357695 0.357731 0.357776 0.35783 0.35788 0.357924 0.357932 
0.357759 0.357764 0.357789 0.357819 0.357855 0.357888 0.357917 0.357922 0.357817 
0.35782 0.357837 0.357858 0.357882 0.357903 0.357922 0.357925 0.357866 0.357868 
0.35788 0.357894 0.357909 0.357924 0.357936 0.357938 0.357909 0.357911 0.357919 
0.357928 0.357938 0.357948 0.357956 0.357957 0.357948 0.35795 0.357955 0.357961 
0.357968 0.357974 0.35798 0.35798 0.357985 0.357986 0.357989 0.357994 0.357998 
0.358002 0.358006 0.358006 0.35802 0.358021 0.358023 0.358026 0.358029 0.358031 
0.358034 0.358034 0.358053 0.358054 0.358055 0.358057 0.358059 0.358061 0.358063 
0.358063 0.358086 0.358087 0.358088 0.358089 0.35809 0.358091 0.358093 0.358092 
0.358118 0.358119 0.35812 0.35812 0.358121 0.358122 0.358123 0.358123 0.35815 
0.358151 0.358151 0.358152 0.358152 0.358153 0.358154 0.358153 0.358182 0.358183 
0.358183 0.358183 0.358183 0.358184 0.358185 0.358184 0.358214 0.358215 0.358214 
0.358214 0.358214 0.358215 0.358216 0.358215 0.358246 0.358246 0.358245 0.358245 
0.358245 0.358246 0.358247 0.358247 0.358279 0.358278 0.358276 0.358275 0.358275 
0.358276 0.358279 0.35828 0.358317 0.358308 0.358303 0.358302 0.358302 0.358304 
0.358308 0.358317 0.523656 0.57111 0.637239 0.640527 0.627069 0.517493 0.422733 
0.370206 0.639993 0.639995 0.639997 0.64 0.640003 0.640006 0.640008 0.64001 
0.640001 0.640003 0.640003 0.640004 0.640005 0.640006 0.640006 0.640008 0.640004 
0.640006 0.640006 0.640007 0.640008 0.640009 0.640009 0.640011 0.640007 0.640009 
0.640009 0.64001 0.640011 0.640012 0.640011 0.640013 0.64001 0.640012 0.640012 
0.640013 0.640013 0.640014 0.640014 0.640016 0.640013 0.640015 0.640014 0.640015 
0.640015 0.640016 0.640016 0.640018 0.640015 0.640017 0.640017 0.640018 0.640018 
0.640018 0.640018 0.64002 0.640017 0.640019 0.640019 0.640019 0.640019 0.64002 
0.64002 0.640022 0.640019 0.640021 0.64002 0.640021 0.640021 0.640022 0.640021 
0.640023 0.64002 0.640023 0.640022 0.640023 0.640023 0.640023 0.640022 0.640025 
0.640021 0.640024 0.640023 0.640024 0.640024 0.640024 0.640024 0.640026 0.640022 
0.640025 0.640024 0.640025 0.640025 0.640025 0.640024 0.640027 0.640023 0.640026 
0.640025 0.640025 0.640025 0.640026 0.640025 0.640027 0.640023 0.640026 0.640025 
0.640026 0.640025 0.640026 0.640025 0.640027 0.640023 0.640027 0.640025 0.640026 
0.640025 0.640026 0.640025 0.640027 0.640023 0.640027 0.640025 0.640025 0.640025 
0.640025 0.640024 0.640026 0.640023 0.640026 0.640025 0.640025 0.640024 0.640024 
0.640023 0.640025 0.640022 0.640026 0.640024 0.640024 0.640023 0.640023 0.640022 
0.640024 0.640022 0.640026 0.640023 0.640023 0.640021 0.640021 0.640019 0.640021 
0.640022 0.640025 0.640022 0.640022 0.640019 0.640019 0.640017 0.640019 0.640022 
0.640026 0.640022 0.64002 0.640017 0.640016 0.640013 0.640015 0.640023 0.640026 
0.640021 0.640019 0.640014 0.640012 0.640009 0.640011 0.640025 0.640028 0.640022 
0.640017 0.640011 0.640008 0.640004 0.640005 0.64003 0.640032 0.640023 0.640016 
0.640008 0.640002 0.639997 0.639998 0.640038 0.640039 0.640026 0.640016 0.640004 
0.639996 0.639989 0.639989 0.640052 0.640052 0.640033 0.640018 0.640001 0.639988 
0.639979 0.639978 0.640075 0.640073 0.640046 0.640024 0.639998 0.63998 0.639967 
0.639963 0.640104 0.640101 0.640062 0.640031 0.639996 0.639969 0.63995 0.639943 
0.640138 0.640134 0.640078 0.640036 0.639988 0.63995 0.639925 0.639912 0.640251 
0.640247 0.640155 0.64008 0.639999 0.639932 0.63989 0.639864 0.640515 0.640537 
0.640394 0.640252 0.640092 0.639954 0.639871 0.639805 0.640349 0.640415 0.640259 
0.640143 0.640005 0.639869 0.639809 0.639713 0.585465 0.578568 0.576836 0.578235 
0.589309 0.606277 0.626725 0.642152 0.455542 0.433413 0.422369 0.427504 0.452225 
0.493338 0.549662 0.608344 0.327377 0.31904 0.305859 0.301386 0.316292 0.363354 
0.437689 0.526809 0.248673 0.264355 0.276592 0.270485 0.259541 0.276506 0.345524 
0.443558 0.23624 0.264256 0.286527 0.282239 0.256297 0.2378 0.284699 0.383035 
0.256794 0.286421 0.307343 0.304642 0.272818 0.229532 0.256252 0.335835 0.277498 
0.308159 0.322754 0.31571 0.286104 0.241875 0.239033 0.311826 0.311094 0.325539 
0.340831 0.332951 0.294914 0.246514 0.240793 0.307607 0.332764 0.353218 0.368558 
0.357886 0.321919 0.254438 0.238184 0.306854 0.341752 0.375686 0.396725 0.395814 
0.348483 0.273729 0.243138 0.300508 0.367254 0.402371 0.428435 0.431684 0.382863 
0.297976 0.254425 0.303614 0.396286 0.433984 0.471292 0.471592 0.421824 0.332625 
0.285292 0.312696 0.426289 0.4691 0.513577 0.522123 0.45907 0.355398 0.326897 
0.331721 0.454221 0.500055 0.551357 0.555946 0.493929 0.38668 0.33299 0.351559 
0.483945 0.53851 0.588292 0.588024 0.51212 0.401421 0.347559 0.351436 0.512204 
0.567192 0.617317 0.62692 0.545567 0.420011 0.357287 0.354937 0.526888 0.588548 
0.633148 0.628225 0.562212 0.441205 0.363927 0.334545 0.533773 0.589177 0.640449 
0.638097 0.552903 0.445101 0.367652 0.359843 
Water_Elev_m 1 608 float
0.643434 0.643483 0.643642 0.644359 0.64541 0.646741 0.648286 0.647754 0.642918 
0.643471 0.64395 0.644935 0.646467 0.646916 0.647312 0.647243 0.64356 0.643369 
0.643405 0.644019 0.644733 0.645493 0.64623 0.646285 0.643846 0.643873 0.643843 
0.643973 0.644451 0.644914 0.645466 0.645656 0.644102 0.644127 0.644235 0.644439 
0.644739 0.645024 0.645299 0.645344 0.644322 0.644338 0.644427 0.644565 0.644755 
0.644941 0.645115 0.645146 0.64448 0.644492 0.644562 0.644659 0.644783 0.644903 
0.645011 0.64503 0.644598 0.644607 0.644658 0.644725 0.644806 0.644884 0.644952 
0.644965 0.644688 0.644695 0.644731 0.644776 0.64483 0.64488 0.644924 0.644932 
0.644759 0.644764 0.644789 0.644819 0.644855 0.644888 0.644917 0.644922 0.644817 
0.64482 0.644837 0.644858 0.644881 0.644903 0.644922 0.644925 0.644866 0.644868 
0.64488 0.644894 0.644909 0.644924 0.644936 0.644938 0.644909 0.644911 0.644919 
0.644928 0.644938 0.644948 0.644956 0.644957 0.644948 0.64495 0.644955 0.644961 
0.644968 0.644974 0.64498 0.64498 0.644985 0.644986 0.644989 0.644994 0.644998 
0.645002 0.645006 0.645006 0.64502 0.645021 0.645023 0.645026 0.645029 0.645031 
0.645034 0.645034 0.645053 0.645054 0.645055 0.645057 0.645059 0.645061 0.645063 
0.645063 0.645086 0.645087 0.645088 0.645089 0.64509 0.645091 0.645093 0.645092 
0.645118 0.645119 0.64512 0.645121 0.645121 0.645122 0.645123 0.645123 0.64515 
0.645151 0.645151 0.645152 0.645152 0.645153 0.645154 0.645153 0.645182 0.645183 
0.645183 0.645183 0.645183 0.645184 0.645185 0.645184 0.645214 0.645215 0.645214 
0.645214 0.645214 0.645215 0.645216 0.645215 0.645246 0.645246 0.645245 0.645245 
0.645245 0.645246 0.645247 0.645247 0.645279 0.645278 0.645276 0.645275 0.645275 
0.645276 0.645279 0.64528 0.645317 0.645308 0.645303 0.645302 0.645302 0.645304 
0.645308 0.645317 0.64272 0.642235 0.640712 0.640495 0.64141 0.643767 0.64408 
0.644119 0.639993 0.639995 0.639997 0.64 0.640003 0.640006 0.640008 0.64001 
0.640001 0.640003 0.640003 0.640004 0.640005 0.640006 0.640006 0.640008 0.640004 
0.640006 0.640006 0.640007 0.640008 0.640009 0.640009 0.640011 0.640007 0.640009 
0.640009 0.64001 0.640011 0.640012 0.640011 0.640013 0.64001 0.640012 0.640012 
0.640013 0.640013 0.640014 0.640014 0.640016 0.640013 0.640015 0.640014 0.640015 
0.640015 0.640016 0.640016 0.640018 0.640015 0.640017 0.640017 0.640018 0.640018 
0.640018 0.640018 0.64002 0.640017 0.640019 0.640019 0.640019 0.640019 0.64002 
0.64002 0.640022 0.640019 0.640021 0.64002 0.640021 0.640021 0.640022 0.640021 
0.640023 0.64002 0.640023 0.640022 0.640023 0.640023 0.640023 0.640022 0.640025 
0.640021 0.640024 0.640023 0.640024 0.640024 0.640024 0.640024 0.640026 0.640022 
0.640025 0.640024 0.640025 0.640025 0.640025 0.640024 0.640027 0.640023 0.640026 
0.640025 0.640025 0.640025 0.640026 0.640025 0.640027 0.640023 0.640026 0.640025 
0.640026 0.640025 0.640026 0.640025 0.640027 0.640023 0.640027 0.640025 0.640026 
0.640025 0.640026 0.640025 0.640027 0.640023 0.640027 0.640025 0.640025 0.640025 
0.640025 0.640024 0.640026 0.640023 0.640026 0.640025 0.640025 0.640024 0.640024 
0.640023 0.640025 0.640022 0.640026 0.640024 0.640024 0.640023 0.640023 0.640022 
0.640024 0.640022 0.640026 0.640023 0.640023 0.640021 0.640021 0.640019 0.640021 
0.640022 0.640025 0.640022 0.640022 0.640019 0.640019 0.640017 0.640019 0.640022 
0.640026 0.640022 0.64002 0.640017 0.640016 0.640013 0.640015 0.640023 0.640026 
0.640021 0.640019 0.640014 0.640012 0.640009 0.640011 0.640025 0.640028 0.640022 
0.640017 0.640011 0.640008 0.640004 0.640005 0.64003 0.640032 0.640023 0.640016 
0.640008 0.640002 0.639997 0.639998 0.640038 0.640039 0.640026 0.640016 0.640004 
0.639996 0.639989 0.639989 0.640052 0.640052 0.640033 0.640018 0.640001 0.639988 
0.639979 0.639978 0.640075 0.640073 0.640046 0.640024 0.639998 0.63998 0.639967 
0.639963 0.640104 0.640101 0.640062 0.640031 0.639996 0.639969 0.63995 0.639943 
0.640138 0.640134 0.640078 0.640036 0.639988 0.63995 0.639925 0.639912 0.640251 
0.640247 0.640155 0.64008 0.639999 0.639932 0.63989 0.639864 0.640515 0.640537 
0.640394 0.640252 0.640092 0.639954 0.639871 0.639805 0.640348 0.640413 0.640259 
0.640143 0.640003 0.639868 0.639809 0.639713 0.638961 0.638992 0.638801 0.638941 
0.639138 0.639261 0.639381 0.639323 0.63608 0.636291 0.636169 0.636584 0.637325 
0.638044 0.638535 0.638511 0.633069 0.633976 0.63485 0.635489 0.636001 0.636722 
0.637579 0.637609 0.63356 0.634536 0.635431 0.635953 0.636027 0.635998 0.636695 
0.636928 0.635569 0.63597 0.636372 0.636678 0.636638 0.636248 0.636339 0.636473 
0.636582 0.636686 0.636713 0.636772 0.636924 0.63698 0.636467 0.636627 0.637985 
0.637331 0.637243 0.637206 0.637147 0.637256 0.637208 0.637297 0.638364 0.638159 
0.638016 0.63791 0.637945 0.637784 0.637635 0.637878 0.63828 0.638443 0.638536 
0.638653 0.638517 0.6385 0.638226 0.638333 0.639059 0.638998 0.639066 0.639121 
0.639133 0.639087 0.638815 0.638887 0.639682 0.639593 0.639688 0.639613 0.639625 
0.639633 0.639428 0.639351 0.64012 0.640048 0.640051 0.640018 0.639891 0.639824 
0.639757 0.639677 0.640378 0.640271 0.640181 0.640026 0.639987 0.639945 0.639766 
0.6398 0.640766 0.64067 0.640341 0.640039 0.639908 0.639888 0.639789 0.639806 
0.641083 0.640854 0.640424 0.64007 0.639926 0.639895 0.639772 0.639832 0.641192 
0.641008 0.640405 0.639815 0.639785 0.639884 0.639736 0.639785 0.641375 0.641012 
0.640302 0.639375 0.639343 0.639553 0.639342 0.639575 0.641757 0.64119 0.640016 
0.638506 0.639546 0.640324 0.639016 0.639788 
Velocity_m_p_s 3 608 double
-0.32520836592 0.027286291122 0 -0.31818982959 0.070028223097 0 -0.29345661402 0.11151143909 0 
-0.22700458765 0.13376572728 0 -0.083031244576 0.11584173143 0 -0.074136801064 0.05841620639 0 
-0.10922210664 0.032486826181 0 -0.10178341717 0.060665335506 0 -0.32125645876 0.019214102998 0 
-0.30664816499 0.055977229029 0 -0.27684664726 0.095677614212 0 -0.23387111723 0.1254966557 0 
-0.18911574781 0.11984600127 0 -0.16134226322 0.089501731098 0 -0.14277534187 0.056513905525 0 
-0.15524372458 0.030932510272 0 -0.32535722852 -0.0012987176888 0 -0.31880542636 0.021360879764 0 
-0.29942029715 0.05253514275 0 -0.26556557417 0.077998124063 0 -0.2290109396 0.085082635283 0 
-0.21000769734 0.076350219548 0 -0.19926476479 0.050560712814 0 -0.20004995167 0.026627093554 0 
-0.31570887566 0.0055240173824 0 -0.31922450662 0.012999028899 0 -0.31609892845 0.026637503877 0 
-0.30085432529 0.042839121073 0 -0.28047722578 0.050375156105 0 -0.2605214119 0.047355890274 0 
-0.24287614226 0.033316761255 0 -0.23702718318 0.019167646766 0 -0.30771452188 0.0048488266766 0 
-0.3099578619 0.010643027723 0 -0.30923345685 0.019429065287 0 -0.30280870199 0.027113270015 0 
-0.2903676331 0.030103227124 0 -0.27721333504 0.02749828808 0 -0.26370471716 0.017880413681 0 
-0.25662431121 0.0090075982735 0 -0.3012394011 0.0035963035189 0 -0.30349361897 0.0076772072352 0 
-0.30183801055 0.013449902646 0 -0.29661664367 0.017706964165 0 -0.28864359856 0.019250620157 0 
-0.28015229106 0.017427885905 0 -0.27177655697 0.01112460997 0 -0.26683187485 0.0054440409876 0 
-0.2962744832 0.0025850974489 0 -0.29878076911 0.0054289381951 0 -0.29775696993 0.0093062315136 0 
-0.29430216551 0.011817047372 0 -0.28914797306 0.012599472888 0 -0.28347834945 0.011280152015 0 
-0.27768421173 0.0071199284866 0 -0.27338901162 0.0034381349105 0 -0.29286056757 0.0017820633948 0 
-0.29552674294 0.0037375232205 0 -0.2950925827 0.0063436604105 0 -0.2928506434 0.0078937923536 0 
-0.28946748376 0.0083100488409 0 -0.28563779593 0.0073875989765 0 -0.28147175908 0.0046398360282 0 
-0.27761027217 0.0022384959739 0 -0.29053613544 0.0012017562985 0 -0.29330417514 0.0025201386306 0 
-0.29335215688 0.0042684753425 0 -0.29195418954 0.0052628717385 0 -0.28972107172 0.0055056838319 0 
-0.28708282113 0.0048832846805 0 -0.28394985199 0.0030671712011 0 -0.28038486838 0.0014819870703 0 
-0.28898057342 0.00079259061022 0 -0.29180088639 0.0016658864915 0 -0.29219293594 0.0028373186942 0 
-0.29136651754 0.0034992352594 0 -0.28988802433 0.0036616146099 0 -0.28803277016 0.0032586392481 0 
-0.28557947278 0.0020574571099 0 -0.28222945333 0.00099738338031 0 -0.28795966506 0.00050742446911 0 
-0.29079124331 0.0010748218047 0 -0.29140555859 0.0018596687587 0 -0.29095596075 0.0023182295263 0 
-0.28997576237 0.0024449122138 0 -0.28864437342 0.0021991420072 0 -0.28665623069 0.0014048432931 0 
-0.28347405791 0.00068545126123 0 -0.28730723262 0.00030959962169 0 -0.29011678696 0.00066885439446 0 
-0.29085823894 0.0011956024682 0 -0.29064956307 0.0015281720553 0 -0.28999954462 0.0016404546332 0 
-0.28902614117 0.0015060252044 0 -0.28737074137 0.00098178174812 0 -0.28433018923 0.00048478579265 0 
-0.28690809011 0.00017194559041 0 -0.28966835141 0.00039055050001 0 -0.29046624899 0.00074573943857 0 
-0.29040500522 0.0010000009788 0 -0.28997418284 0.0011079413816 0 -0.28925159574 0.001052109641 0 
-0.28784683347 0.00070781313116 0 -0.28493517637 0.00035671464866 0 -0.28668382764 7.4944764492e-05 0 
-0.28937143087 0.0001991341851 0 -0.29017445445 0.00044101203093 0 -0.29019707441 0.00064699811628 0 
-0.28991192579 0.00075529527385 0 -0.28937035799 0.00075518764788 0 -0.28816521168 0.00053148547886 0 
-0.28537890315 0.00027662306093 0 -0.28658157587 4.8622191571e-06 0 -0.2891754508 6.6280612373e-05 0 
-0.28994658589 0.00023409615096 0 -0.29001036286 0.00041101544048 0 -0.28982210159 0.00052182248328 0 
-0.28941559792 0.00056168035371 0 -0.28837877512 0.0004195542715 0 -0.2857208252 0.00022875444847 0 
-0.28656625748 -4.7811106924e-05 0 -0.28904592991 -2.7373891498e-05 0 -0.28975862265 9.2890397354e-05 0 
-0.28983530402 0.0002531259961 0 -0.28971147537 0.00036738987546 0 -0.28940936923 0.00043641871889 0 
-0.28852188587 0.00035036346526 0 -0.286000669 0.00020302127814 0 -0.28661468625 -8.983664884e-05 0 
-0.28895953298 -9.4974129752e-05 0 -0.28959444165 -4.1509028961e-06 0 -0.28966590762 0.00014731686679 0 
-0.28958496451 0.00026539590908 0 -0.28936612606 0.00035614788067 0 -0.28861689568 0.00030969883665 0 
-0.28624531627 0.00019300951681 0 -0.28671222925 -0.00012609185069 0 -0.28889983892 -0.00014540622942 0 
-0.28944325447 -7.1312882937e-05 0 -0.28949841857 7.625312719e-05 0 -0.28944599628 0.00019816604618 0 
-0.28929543495 0.00030533369863 0 -0.28867778182 0.00028813708923 0 -0.28647330403 0.00019470082771 0 
-0.28684997559 -0.00016001258336 0 -0.28885483742 -0.00018450591597 0 -0.28929772973 -0.00011791048018 0 
-0.2893307209 2.8430335078e-05 0 -0.28929725289 0.00015390125918 0 -0.28920337558 0.00027340481756 0 
-0.28871297836 0.00027931487421 0 -0.28669774532 0.00020563197904 0 -0.28702270985 -0.00019392117974 0 
-0.28881543875 -0.00021583687339 0 -0.28915292025 -0.0001497038611 0 -0.28916203976 -3.6802798604e-06 0 
-0.28914117813 0.00012461181905 0 -0.28909406066 0.000252840342 0 -0.28872680664 0.00027868998586 0 
-0.28692802787 0.00022422794427 0 -0.28722733259 -0.00022873411945 0 -0.28877413273 -0.0002408415894 0 
-0.2890059948 -0.00016956620675 0 -0.28899306059 -2.4816787118e-05 0 -0.28898048401 0.00010465954983 0 
-0.28897064924 0.00023765812512 0 -0.28872075677 0.00028229801683 0 -0.28717070818 0.00024880233104 0 
-0.28746217489 -0.00026295077987 0 -0.28872379661 -0.00025849920348 0 -0.28885477781 -0.00017791523715 0 
-0.28882455826 -3.7654219341e-05 0 -0.28881749511 8.9766959718e-05 0 -0.28883489966 0.00022234680364 0 
-0.28869360685 0.00028551096329 0 -0.28743061423 0.00027613207931 0 -0.28772595525 -0.00029360875487 0 
-0.2886556983 -0.00026639108546 0 -0.2886968255 -0.00017343426589 0 -0.28865787387 -4.3244137487e-05 0 
-0.28865435719 7.6315889601e-05 0 -0.28868702054 0.00020161566499 0 -0.28864058852 0.00028348912019 0 
-0.28771057725 0.00030207892996 0 -0.28800210357 -0.00031605290133 0 -0.288564533 -0.00026002019877 0 
-0.28854200244 -0.00015159159375 0 -0.28850769997 -4.0289534809e-05 0 -0.28850638866 5.9820169554e-05 0 
-0.28853833675 0.00016820906603 0 -0.28855863214 0.00027006870368 0 -0.28799647093 0.00032116490183 0 
-0.28823107481 -0.00028029081295 0 -0.28847077489 -0.00020408544515 0 -0.28843516111 -9.7099364211e-05 0 
-0.28841632605 -2.4718932764e-05 0 -0.28841602802 3.3734468161e-05 0 -0.28843432665 0.00010471318819 0 
-0.28846925497 0.00020863191457 0 -0.28822988272 0.00028270308394 0 -0.3487226069 0.015508667566 0 
-0.34074297547 0.042200621217 0 -0.3071808219 0.066988296807 0 -0.16742683947 0.041297599673 0 
-0.061159860343 0.025162646547 0 -0.038599897176 0.019979091361 0 -0.038351170719 0.0088463658467 0 
-0.027488032356 0.0053592496552 0 -0.18378961086 -0.00037724891445 0 -0.1823092401 -0.00086718495004 0 
-0.17715515196 -0.0013775507687 0 -0.16913309693 -0.0016403890913 0 -0.15916100144 -0.0016901394119 0 
-0.14856931567 -0.0015044613974 0 -0.13900102675 -0.00099938362837 0 -0.13255174458 -0.00043617904885 0 
-0.1847666353 -0.00041661277646 0 -0.18312744796 -0.00096538761863 0 -0.17775176466 -0.0015453393571 0 
-0.1693983525 -0.0018447055481 0 -0.15904340148 -0.0019060170744 0 -0.14803674817 -0.0017024354311 0 
-0.13811700046 -0.001130204997 0 -0.13139201701 -0.00049663626123 0 -0.18548431993 -0.00044330168748 0 
-0.18374232948 -0.0010330803925 0 -0.17819234729 -0.0016573339235 0 -0.16959558427 -0.0019762881566 0 
-0.15895694494 -0.0020386348478 0 -0.14765197039 -0.0018172992859 0 -0.13747031987 -0.0012011006474 0 
-0.13056375086 -0.00052064436022 0 -0.18629325926 -0.0004688866029 0 -0.18444365263 -0.0010941420915 0 
-0.17869347334 -0.001757354592 0 -0.16981902719 -0.0020942480769 0 -0.15885390341 -0.0021579791792 0 
-0.14720581472 -0.0019208430313 0 -0.13671848178 -0.0012667600531 0 -0.12961350381 -0.00054661737522 0 
-0.1871419698 -0.0004935778561 0 -0.18518042564 -0.0011505015427 0 -0.1792177856 -0.0018481491134 0 
-0.17005081475 -0.002200295683 0 -0.15874323249 -0.0022640647367 0 -0.14673897624 -0.0020115850493 0 
-0.13593569398 -0.0013244441943 0 -0.12862963974 -0.00057021598332 0 -0.18803215027 -0.00051724008517 0 
-0.18595360219 -0.0012040096335 0 -0.17976637185 -0.0019337701378 0 -0.17029097676 -0.002299646847 0 
-0.15862356126 -0.0023627167102 0 -0.14624755085 -0.0020951854531 0 -0.1351159215 -0.0013775269035 0 
-0.12760324776 -0.00059206859441 0 -0.18896228075 -0.00054036162328 0 -0.18676121533 -0.0012561779004 0 
-0.18033753335 -0.002016878454 0 -0.17053827643 -0.0023954459466 0 -0.15849477053 -0.0024570331443 0 
-0.14573317766 -0.0021741962992 0 -0.13426308334 -0.0014273829293 0 -0.12653894722 -0.00061244115932 0 
-0.18993186951 -0.00056337623391 0 -0.18760251999 -0.0013080755016 0 -0.18093048036 -0.0020992984064 0 
-0.17079178989 -0.0024898364209 0 -0.15835623443 -0.0025491002016 0 -0.14519585669 -0.0022502937354 0 
-0.1333783567 -0.0014749253169 0 -0.12543849647 -0.00063162209699 0 -0.19094106555 -0.00058661028743 0 
-0.18847747147 -0.0013604419073 0 -0.18154481053 -0.002182277618 0 -0.17105071247 -0.0025842348114 0 
-0.1582070291 -0.0026402121875 0 -0.14463526011 -0.0023244081531 0 -0.13246254623 -0.0015205906238 0 
-0.12430354953 -0.00064974714769 0 -0.19199046493 -0.0006102839252 0 -0.1893864274 -0.0014137639664 0 
-0.18218040466 -0.0022666472942 0 -0.1713142395 -0.0026795414742 0 -0.15804600716 -0.002731107641 0 
-0.14405062795 -0.0023969516624 0 -0.13151608407 -0.0015644762898 0 -0.12313553691 -0.00066682207398 0 
-0.19308097661 -0.00063452718314 0 -0.19033010304 -0.0014683287591 0 -0.18283729255 -0.0023529278114 0 
-0.17158146203 -0.0027762665413 0 -0.15787170827 -0.0028220980894 0 -0.14344093204 -0.0024679319467 0 
-0.13053926826 -0.0016064050142 0 -0.12193598598 -0.00068274274236 0 -0.19421359897 -0.00065939041087 0 
-0.19130933285 -0.001524252235 0 -0.18351554871 -0.0024413859937 0 -0.17185136676 -0.0028745976742 0 
-0.15768243372 -0.002913136268 0 -0.14280489087 -0.0025370069779 0 -0.12953238189 -0.0016459585167 0 
-0.12070668489 -0.00069731293479 0 -0.19538937509 -0.00068484578514 0 -0.1923250854 -0.0015814816579 0 
-0.18421526253 -0.0025320569985 0 -0.1721227169 -0.0029744191561 0 -0.15747615695 -0.0030038321856 0 
-0.14214110374 -0.0026034968905 0 -0.12849584222 -0.0016824837076 0 -0.11944980919 -0.00071025657235 0 
-0.19660921395 -0.00071077869507 0 -0.19337832928 -0.0016397736035 0 -0.18493643403 -0.0026247303467 0 
-0.17239405215 -0.0030752848834 0 -0.15725055337 -0.0030934254173 0 -0.14144799113 -0.0026663551107 0 
-0.12743036449 -0.0017150765052 0 -0.11816816777 -0.00072122685378 0 -0.19787375629 -0.00073696824256 0 
-0.19446997344 -0.0016986428527 0 -0.18567889929 -0.0027188991662 0 -0.17266358435 -0.0031763429288 0 
-0.15700295568 -0.0031807101332 0 -0.14072395861 -0.002724098973 0 -0.12633708119 -0.0017425434198 0 
-0.11686529964 -0.00072981423 0 -0.19918309152 -0.00076305563562 0 -0.19560074806 -0.001757274149 0 
-0.18644227087 -0.0028136663605 0 -0.17292907834 -0.0032762002666 0 -0.15673032403 -0.0032639028504 0 
-0.13996748626 -0.002774694236 0 -0.12521784008 -0.001763340435 0 -0.11554574221 -0.00073555763811 0 
-0.20053654909 -0.00078849785496 0 -0.19677104056 -0.001814383897 0 -0.18722571433 -0.0029075937346 0 
-0.17318786681 -0.0033727032132 0 -0.15642927587 -0.0033404408023 0 -0.13917721808 -0.0028153790627 0 
-0.12407544255 -0.0017754795263 0 -0.11421523243 -0.0007379607996 0 -0.20193222165 -0.00081250345102 0 
-0.19798073173 -0.0018680077046 0 -0.18802784383 -0.0029984689318 0 -0.17343655229 -0.003462605644 0 
-0.1560960412 -0.0034066764638 0 -0.1383522898 -0.0028424018528 0 -0.12291406095 -0.0017763969954 0 
-0.11288103461 -0.00073651666753 0 -0.20336633921 -0.00083394785179 0 -0.19922886789 -0.0019151800079 0 
-0.18884634972 -0.0030829566531 0 -0.17367096245 -0.0035410681739 0 -0.15572661161 -0.0034574314486 0 
-0.1374925673 -0.002850639401 0 -0.12173986435 -0.0017627618508 0 -0.11155226827 -0.00073074002285 0 
-0.20483246446 -0.00085126957856 0 -0.20051324368 -0.001951456652 0 -0.1896776706 -0.003156080842 0 
-0.1738859266 -0.0036009140313 0 -0.15531677008 -0.0034853403922 0 -0.13659918308 -0.0028330374043 0 
-0.1205618456 -0.0017301969929 0 -0.11024039239 -0.00072020181688 0 -0.20632015169 -0.00086235586787 0 
-0.20182968676 -0.0019702066202 0 -0.19051630795 -0.0032104663551 0 -0.17407490313 -0.0036315373145 0 
-0.15486241877 -0.0034798958804 0 -0.13567537069 -0.0027797888033 0 -0.11939305067 -0.0016728690825 0 
-0.10895986855 -0.00070454453817 0 -0.20781295002 -0.00086440419545 0 -0.20317094028 -0.001961520873 0 
-0.19135382771 -0.0032351789996 0 -0.17422962189 -0.0036172687542 0 -0.15435993671 -0.0034260309767 0 
-0.13472737372 -0.0026771146804 0 -0.11825228482 -0.0015828681644 0 -0.10772906244 -0.00068342161831 0 
-0.2092858851 -0.00085379276425 0 -0.2045250535 -0.0019105495885 0 -0.1921774447 -0.0032139373943 0 
-0.17433939874 -0.0035348867532 0 -0.1538066715 -0.0033019294497 0 -0.13376611471 -0.0025053883437 0 
-0.11716652662 -0.001449225354 0 -0.10657157004 -0.0006562161725 0 -0.21070362628 -0.00082635408035 0 
-0.20587469637 -0.0017953373026 0 -0.1929693073 -0.0031227555592 0 -0.17439135909 -0.0033502168953 0 
-0.15320250392 -0.0030758667272 0 -0.13280940056 -0.0022363204043 0 -0.1161744073 -0.0012563276105 0 
-0.10551850498 -0.00062121351948 0 -0.21201378107 -0.00077842106111 0 -0.20719268918 -0.0015840142732 0 
-0.19370390475 -0.0029270751402 0 -0.17437036335 -0.0030141682364 0 -0.15255242586 -0.0027023458388 0 
-0.13188633323 -0.0018292262685 0 -0.11533194035 -0.00098154856823 0 -0.10461321473 -0.00057372933952 0 
-0.2131216228 -0.00070684764069 0 -0.20841963589 -0.001228240435 0 -0.19432958961 -0.0025746987667 0 
-0.17424754798 -0.002454883419 0 -0.15186363459 -0.0021150817629 0 -0.1310390085 -0.0012252022279 0 
-0.11471709609 -0.00059155811323 0 -0.10391688347 -0.00050231773639 0 -0.21388833225 -0.00060894986382 0 
-0.2094566226 -0.00065129459836 0 -0.19475677609 -0.0019789286889 0 -0.17396701872 -0.0015567240771 0 
-0.15113408864 -0.001207022462 0 -0.13031443954 -0.000333278178 0 -0.11442559958 -3.3484004234e-05 0 
-0.10351224244 -0.00037830683868 0 -0.21428821981 -0.00050358200679 0 -0.21030855179 0.0002473765926 0 
-0.19499140978 -0.0010167255532 0 -0.17355029285 -0.00015182586503 0 -0.15041002631 0.00018737647042 0 
-0.12980377674 0.0009897070704 0 -0.11461070925 0.00078518502414 0 -0.10354906321 -0.00012832166976 0 
-0.21436308324 -0.00047346932115 0 -0.21106816828 0.0015656383475 0 -0.1951905787 0.00041886544204 0 
-0.1732044369 0.0018873029621 0 -0.15002167225 0.0022199072409 0 -0.12981404364 0.0029320868198 0 
-0.11553671211 0.0020037603099 0 -0.10433328897 0.00037282961421 0 -0.2126429975 -0.00062389660161 0 
-0.21033771336 0.0035199921113 0 -0.1942268163 0.0025229251478 0 -0.17219558358 0.0047333501279 0 
-0.14951311052 0.0050710719079 0 -0.13024064898 0.0056966966949 0 -0.117446132 0.0037462683395 0 
-0.10633652657 0.0012774930801 0 -0.20590575039 -0.0011580788996 0 -0.20449738204 0.0066680968739 0 
-0.18841849267 0.0062492350116 0 -0.16720971465 0.0095856515691 0 -0.14641578496 0.0099668800831 0 
-0.12954571843 0.010320141912 0 -0.11959111691 0.0066688219085 0 -0.10965891927 0.0032401005737 0 
-0.20409049094 -0.003494373057 0 -0.20308212936 0.011018221267 0 -0.18692731857 0.012918205932 0 
-0.16595818102 0.018852781504 0 -0.1463175118 0.01982438378 0 -0.13112829626 0.019423078746 0 
-0.12314832956 0.012666201219 0 -0.11510011554 0.0083196852356 0 -0.23773017526 -0.0067217098549 0 
-0.23915879428 0.015373118222 0 -0.22576914728 0.019187200814 0 -0.20133112371 0.027576399967 0 
-0.17487601936 0.029642179608 0 -0.15312176943 0.028773609549 0 -0.14040152729 0.018816929311 0 
-0.13210621476 0.015490050428 0 -0.32732266188 -0.0011898013763 0 -0.33185091615 0.021750440821 0 
-0.32528868318 0.018567316234 0 -0.29610350728 0.019611639902 0 -0.25310835242 0.02161289379 0 
-0.21001335979 0.025052668527 0 -0.18162348866 0.01687945798 0 -0.16970564425 0.018717909232 0 
-0.43560779095 0.0099824983627 0 -0.42714947462 0.024081028998 0 -0.41021627188 0.011242992245 0 
-0.37914079428 -0.0066424026154 0 -0.33653968573 -0.015360007063 0 -0.28140777349 -0.0047992723994 0 
-0.23359487951 0.002240054775 0 -0.21711139381 0.016729097813 0 -0.48340013623 0.0080537134781 0 
-0.46163761616 0.0036391012836 0 -0.43033030629 -0.0093291914091 0 -0.39813783765 -0.027456244454 0 
-0.36711621284 -0.043888740242 0 -0.32910013199 -0.041414719075 0 -0.27864482999 -0.021804176271 0 
-0.25592255592 0.009516004473 0 -0.46805021167 -0.00099494610913 0 -0.4474080801 -0.017617635429 0 
-0.41755080223 -0.026444112882 0 -0.3859705925 -0.037435781211 0 -0.36016979814 -0.050738222897 0 
-0.33901566267 -0.058701533824 0 -0.30155175924 -0.043614007533 0 -0.27930909395 -0.0050776205026 0 
-0.4439958334 -0.0093117719516 0 -0.42815294862 -0.028208311647 0 -0.40361395478 -0.035652369261 0 
-0.37408563495 -0.041941225529 0 -0.34624454379 -0.047881636769 0 -0.32490038872 -0.059588585049 0 
-0.3026484251 -0.051086049527 0 -0.28361269832 -0.013020462357 0 -0.42340373993 -0.014971368946 0 
-0.41505941749 -0.03183728084 0 -0.39317792654 -0.037864569575 0 -0.36467301846 -0.045532401651 0 
-0.33522626758 -0.050952717662 0 -0.30751165748 -0.056864663959 0 -0.28566598892 -0.047896716744 0 
-0.26675191522 -0.018861491233 0 -0.40723031759 -0.0055376100354 0 -0.40083569288 -0.025510249659 0 
-0.37798643112 -0.0368552953 0 -0.34791228175 -0.045560538769 0 -0.31643614173 -0.052628777921 0 
-0.28910773993 -0.060001645237 0 -0.26196742058 -0.049408130348 0 -0.24001860619 -0.02030403167 0 
-0.40504795313 -0.0037244788837 0 -0.39037311077 -0.02247819677 0 -0.36214986444 -0.034732237458 0 
-0.32580429316 -0.045559711754 0 -0.29111072421 -0.05173337087 0 -0.26207709312 -0.057919476181 0 
-0.23613920808 -0.051427721977 0 -0.2134219259 -0.026148552075 0 -0.40073317289 -0.0084445662796 0 
-0.382250458 -0.026228640229 0 -0.34797433019 -0.03799656406 0 -0.30426123738 -0.046560935676 0 
-0.26456022263 -0.049738146365 0 -0.23037578166 -0.054416257888 0 -0.20415908098 -0.048551477492 0 
-0.18293972313 -0.027191665024 0 -0.38925141096 -0.0088180378079 0 -0.37065058947 -0.027670513839 0 
-0.33151844144 -0.040835127234 0 -0.28282511234 -0.048662718385 0 -0.23541167378 -0.048531651497 0 
-0.19557279348 -0.048646431416 0 -0.16583141685 -0.043153505772 0 -0.14756594598 -0.02685411647 0 
-0.38032484055 -0.0095392744988 0 -0.3599473536 -0.028970535845 0 -0.31576010585 -0.042581766844 0 
-0.25956168771 -0.049084350467 0 -0.20646293461 -0.047358237207 0 -0.1621208787 -0.042285248637 0 
-0.12609489262 -0.033176098019 0 -0.11294604838 -0.016539195552 0 -0.37550860643 -0.010641718283 0 
-0.35356780887 -0.029336838052 0 -0.30510783195 -0.043750025332 0 -0.24021838605 -0.04731234163 0 
-0.17976275086 -0.041098099202 0 -0.13209271431 -0.034092120826 0 -0.096071511507 -0.023220200092 0 
-0.087906248868 -0.0027428600006 0 -0.37163680792 -0.010616179556 0 -0.3483504355 -0.027794461697 0 
-0.29716023803 -0.042333539575 0 -0.2239395529 -0.044074729085 0 -0.1557418257 -0.034614481032 0 
-0.10606152564 -0.020617075264 0 -0.074839711189 -0.010270956904 0 -0.078339792788 0.0002431065077 0 
-0.36727887392 -0.010676630773 0 -0.34389960766 -0.022839756683 0 -0.29019913077 -0.035161543638 0 
-0.2045083344 -0.035455424339 0 -0.12843099236 -0.024394864216 0 -0.083779573441 -0.0053880745545 0 
-0.059634041041 0.00012579005852 0 -0.07675459981 0.00032996191294 0 -0.36589339375 -0.0079043479636 0 
-0.34284281731 -0.013785480522 0 -0.28712385893 -0.024323947728 0 -0.18733251095 -0.023408956826 0 
-0.098688259721 -0.011115518399 0 -0.067271068692 0.013940453529 0 -0.055398602039 0.0073885945603 0 
-0.079354606569 -0.00686528394 0 -0.3662673831 -0.0054062181152 0 -0.34508550167 -0.0016475596931 0 
-0.28979596496 -0.0061535132118 0 -0.18045957386 -0.0067595359869 0 -0.08881354332 -0.0089628454298 0 
-0.084572412074 0.024711484089 0 -0.079835824668 0.015800295398 0 -0.095758035779 -0.014849915169 0 
-0.36321437359 0.0019081645878 0 -0.34822845459 0.015484984964 0 -0.30070403218 0.021211171523 0 
-0.19499099255 0.020034195855 0 -0.068388000131 -0.027461050078 0 -0.059660471976 0.035449951887 0 
-0.11796538532 0.016998393461 0 -0.097471833229 -0.043357700109 0 
ManningN 1 608 double
0.02 0.02 0.02 0.02 0.02 0.02 0.02 0.02 0.02 
0.02 0.02 0.02 0.02 0.02 0.02 0.02 0.02 0.02 
0.02 0.02 0.02 0.02 0.02 0.02 0.02 0.02 0.02 
0.02 0.02 0.02 0.02 0.02 0.02 0.02 0.02 0.02 
0.02 0.02 0.02 0.02 0.02 0.02 0.02 0.02 0.02 
0.02 0.02 0.02 0.02 0.02 0.02 0.02 0.02 0.02 
0.02 0.02 0.02 0.02 0.02 0.02 0.02 0.02 0.02 
0.02 0.02 0.02 0.02 0.02 0.02 0.02 0.02 0.02 
0.02 0.02 0.02 0.02 0.02 0.02 0.02 0.02 0.02 
0.02 0.02 0.02 0.02 0.02 0.02 0.02 0.02 0.02 
0.02 0.02 0.02 0.02 0.02 0.02 0.02 0.02 0.02 
0.02 0.02 0.02 0.02 0.02 0.02 0.02 0.02 0.02 
0.02 0.02 0.02 0.02 0.02 0.02 0.02 0.02 0.02 
0.02 0.02 0.02 0.02 0.02 0.02 0.02 0.02 0.02 
0.02 0.02 0.02 0.02 0.02 0.02 0.02 0.02 0.02 
0.02 0.02 0.02 0.02 0.02 0.02 0.02 0.02 0.02 
0.02 0.02 0.02 0.02 0.02 0.02 0.02 0.02 0.02 
0.02 0.02 0.02 0.02 0.02 0.02 0.02 0.02 0.02 
0.02 0.02 0.02 0.02 0.02 0.02 0.02 0.02 0.02 
0.02 0.02 0.02 0.02 0.02 0.02 0.02 0.02 0.02 
0.02 0.02 0.02 0.02 0.02 0.02 0.02 0.02 0.02 
0.02 0.02 0.02 0.02 0.02 0.02 0.02 0.02 0.02 
0.02 0.02 0.02 0.02 0.02 0.02 2.9446939121 2.9446939121 2.9446939121 
2.9446939121 0.02 0.02 0.02 0.02 0.02 0.02 0.02 0.02 
0.02 0.02 0.02 0.02 0.02 0.02 0.02 0.02 0.02 
0.02 0.02 0.02 0.02 0.02 0.02 0.02 0.02 0.02 
0.02 0.02 0.02 0.02 0.02 0.02 0.02 0.02 0.02 
0.02 0.02 0.02 0.02 0.02 0.02 0.02 0.02 0.02 
0.02 0.02 0.02 0.02 0.02 0.02 0.02 0.02 0.02 
0.02 0.02 0.02 0.02 0.02 0.02 0.02 0.02 0.02 
0.02 0.02 0.02 0.02 0.02 0.02 0.02 0.02 0.02 
0.02 0.02 0.02 0.02 0.02 0.02 0.02 0.02 0.02 
0.02 0.02 0.02 0.02 0.02 0.02 0.02 0.02 0.02 
0.02 0.02 0.02 0.02 0.02 0.02 0.02 0.02 0.02 
0.02 0.02 0.02 0.02 0.02 0.02 0.02 0.02 0.02 
0.02 0.02 0.02 0.02 0.02 0.02 0.02 0.02 0.02 
0.02 0.02 0.02 0.02 0.02 0.02 0.02 0.02 0.02 
0.02 0.02 0.02 0.02 0.02 0.02 0.02 0.02 0.02 
0.02 0.02 0.02 0.02 0.02 0.02 0.02 0.02 0.02 
0.02 0.02 0.02 0.02 0.02 0.02 0.02 0.02 0.02 
0.02 0.02 0.02 0.02 0.02 0.02 0.02 0.02 0.02 
0.02 0.02 0.02 0.02 0.02 0.02 0.02 0.02 0.02 
0.02 0.02 0.02 0.02 0.02 0.02 0.02 0.02 0.02 
0.02 0.02 0.02 0.02 0.02 0.02 0.02 0.02 0.02 
0.02 0.02 0.02 0.02 0.02 0.02 0.02 0.02 0.02 
0.02 0.02 0.02 0.02 0.02 0.02 0.02 0.02 0.02 
0.02 0.02 0.02 0.02 0.02 0.02 0.02 0.02 0.02 
0.02 0.02 0.02 0.02 0.02 0.02 0.02 0.02 0.02 
0.02 0.02 0.02 0.02 0.02 0.02 0.02 0.02 0.02 
0.02 0.02 0.02 0.02 0.02 0.02 0.02 0.02 0.02 
0.02 0.02 0.02 0.02 0.02 0.02 0.02 0.02 0.02 
0.02 0.02 0.02 0.02 0.02 0.02 0.02 0.02 0.02 
0.02 0.02 0.02 0.02 0.02 0.02 0.02 0.02 0.02 
0.02 0.02 0.02 0.02 0.02 0.02 0.02 0.02 0.02 
0.02 0.02 0.02 0.02 0.02 0.02 0.02 0.02 0.02 
0.02 0.02 0.02 0.02 0.02 0.02 0.02 0.02 0.02 
0.02 0.02 0.02 0.02 0.02 0.02 0.02 0.02 0.02 
0.02 0.02 0.02 0.02 0.02 0.02 0.02 0.02 0.02 
0.02 0.02 0.02 0.02 0.02 0.02 0.02 0.02 0.02 
0.02 0.02 0.02 0.02 0.02 0.02 0.02 0.02 0.02 
0.02 0.02 0.02 0.02 0.02 0.02 0.02 0.02 0.02 
0.02 0.02 0.02 0.02 0.02 0.02 0.02 0.02 0.02 
0.02 0.02 0.02 0.02 0.02 0.02 0.02 0.02 0.02 
0.02 0.02 0.02 0.02 0.02 0.02 0.02 0.02 0.02 
0.02 0.02 0.02 0.02 0.02 0.02 0.02 0.02 0.02 
0.02 0.02 0.02 0.02 0.02 0.02 0.02 0.02 0.02 
0.02 0.02 0.02 0.02 0.02 0.02 0.02 0.02 0.02 
0.02 0.02 0.02 0.02 0.02 
POINT_DATA 693
FIELD FieldData 1
Bed_Elev_m 1 693 double
0.1439999938 0.11299386621 0.044603906572 4.3171767174e-05 -2.7692611041e-19 0.028883494437 0.09996420145 0.19062872231 0.2658187151 
0.28700000048 0.28700006008 0.28700017929 0.28700008988 0.28700000048 0.28700008988 0.28700017929 0.28700011969 0.28700000048 
0.19399508834 0.15319642425 0.068133160472 0.046390365809 0.013365014456 0.026417372748 0.095226302743 0.19705471396 0.28301364183 
0.28093001246 0.20878048241 0.12747275829 0.076707467437 0.067907102406 0.11992693692 0.18823242188 0.2669030726 0.28098458052 
0.28123101592 0.27719938755 0.23602952063 0.19533678889 0.20024216175 0.20777213573 0.24031040072 0.28071248531 0.2808482945 
0.28474295139 0.28480017185 0.28481325507 0.28535923362 0.28542524576 0.28530728817 0.28527057171 0.28495153785 0.28482493758 
0.28700000048 0.28699988127 0.28700000048 0.28700000048 0.28700000048 0.28700000048 0.28700000048 0.28700003028 0.28700000048 
0.28700000048 0.28699988127 0.28700000048 0.28700000048 0.28700000048 0.28700000048 0.28700000048 0.28700003028 0.28700000048 
0.28700000048 0.28699991107 0.28700000048 0.28700000048 0.28700000048 0.28700000048 0.28700000048 0.28700000048 0.28700000048 
0.28700000048 0.28699994087 0.28700000048 0.28700000048 0.28700000048 0.28700000048 0.28700000048 0.28700000048 0.28700000048 
0.28700000048 0.28699994087 0.28700000048 0.28700000048 0.28700000048 0.28700000048 0.28700000048 0.28700000048 0.28700000048 
0.28700000048 0.28699994087 0.28700000048 0.28700000048 0.28700000048 0.28700000048 0.28700000048 0.28700000048 0.28700000048 
0.28700000048 0.28699994087 0.28700000048 0.28700000048 0.28700000048 0.28700000048 0.28700000048 0.28700000048 0.28700000048 
0.28700000048 0.28699994087 0.28700000048 0.28700000048 0.28700000048 0.28700000048 0.28700000048 0.28700000048 0.28700000048 
0.28700000048 0.28699994087 0.28700000048 0.28700000048 0.28700000048 0.28700000048 0.28700000048 0.28700000048 0.28700000048 
0.28700000048 0.28699994087 0.28700000048 0.28700000048 0.28700000048 0.28700000048 0.28700000048 0.28700000048 0.28700000048 
0.28700000048 0.28699997067 0.28700000048 0.28700000048 0.28700000048 0.28700000048 0.28700000048 0.28700000048 0.28700000048 
0.28700000048 0.28699997067 0.28700000048 0.28700000048 0.28700000048 0.28700000048 0.28700000048 0.28700000048 0.28700000048 
0.28700000048 0.28699997067 0.28700000048 0.28700000048 0.28700000048 0.28700000048 0.28700000048 0.28700000048 0.28700000048 
0.28700000048 0.28699997067 0.28700000048 0.28700000048 0.28700000048 0.28700000048 0.28700000048 0.28700000048 0.28700000048 
0.28700000048 0.28699997067 0.28700000048 0.28700000048 0.28700000048 0.28700000048 0.28700000048 0.28700000048 0.28700000048 
0.28700000048 0.28699997067 0.28700000048 0.28700000048 0.28700000048 0.28700000048 0.28700000048 0.28700000048 0.28700000048 
0.28700000048 0.28700000048 0.28700000048 0.28700000048 0.28700000048 0.28700000048 0.28700000048 0.28700000048 0.28700000048 
0.28700000048 0.28700000048 0.28700000048 0.28700000048 0.28700000048 0.28700000048 0.28700000048 0.28700000048 0.28700000048 
0.28700000048 0.28700000048 0.28700000048 0.28700000048 0.28700000048 0.28700000048 0.28700000048 0.28700000048 0.28700000048 
0.28700000048 0.28700000048 0.28700000048 0.28700000048 0.28700000048 0.28700000048 0.28700000048 0.28700000048 0.28700000048 
0.12513391674 0.097646377981 0.0069025200792 -6.4758249209e-05 -0.00020060798852 0.15258419514 0.25206366181 0.28200760484 0.27514004707 
3.4180752324e-22 -6.3734766798e-08 -7.2232289483e-08 -3.0702832277e-08 -6.267088501e-24 -2.754597439e-08 -5.6747229138e-08 -3.8738217967e-08 0 
-3.0990227743e-22 -1.2778509806e-08 -1.5967345501e-10 3.1973826364e-11 1.1976343282e-25 1.7098544802e-12 -5.5833511425e-11 -4.875580828e-09 0 
2.6216733218e-22 -1.0496587599e-08 -1.0783942489e-10 -1.6308166623e-11 -5.6787877896e-27 2.3537727323e-11 -3.250175129e-11 -4.2115280152e-09 0 
1.2111004087e-22 -9.7926386999e-09 -1.4961888672e-10 -1.1166298788e-11 -1.499264663e-26 2.6266211428e-11 -3.3719183695e-11 -4.1252694594e-09 0 
2.3459410657e-22 -9.484319996e-09 -8.4908698128e-11 1.0948028942e-11 6.2361673229e-27 -2.1937007766e-11 -7.2720038324e-11 -4.274061105e-09 0 
1.1643735898e-22 -9.4488497027e-09 -5.2009337809e-11 -1.5069247933e-11 3.9905021929e-27 -1.1932566046e-11 -6.0961055648e-11 -4.5202117605e-09 0 
2.3455815975e-22 -9.5352516993e-09 -1.0514674548e-10 -4.1365820491e-11 6.2361673229e-27 9.8953067962e-12 -7.1075133626e-12 -4.8315458301e-09 0 
2.3878534349e-22 -9.756015551e-09 -1.0096450065e-10 7.1668226909e-12 -1.2601559923e-27 9.2651060435e-12 -5.8583478346e-11 -5.2060569189e-09 -3.2389177264e-23 
1.225150968e-22 -9.9733270531e-09 -8.6068839555e-11 1.2551071293e-12 -1.2601559923e-27 5.171804391e-12 -5.0691645326e-11 -5.6198770082e-09 -3.5103161701e-23 
-2.5300331806e-22 -1.0290611918e-08 -8.74223402e-11 8.0035977845e-13 -9.8470055532e-27 2.4868637965e-12 -4.0343457741e-11 -6.184698087e-09 0 
1.3131095901e-22 -1.0700744291e-08 -1.0285510638e-10 3.4451663744e-11 3.7885538011e-27 1.4054960537e-12 -6.7105515589e-11 -6.7244583235e-09 2.0859041123e-23 
0 -1.114187409e-08 -7.3063784189e-11 1.3078538252e-11 0 6.9350957269e-12 -6.8731152714e-11 -7.3370030051e-09 -2.285817874e-23 
0 -1.1634423203e-08 -1.1315316045e-10 -1.1932566046e-11 0 -2.473710646e-11 -2.4445202806e-11 -8.0682367454e-09 2.5135045883e-23 
0 -1.2247869385e-08 -8.3633974746e-11 7.7039260388e-12 0 -1.2842060748e-11 -1.1661210886e-10 -8.9165483885e-09 0 
0 -1.2900382096e-08 -1.0514674548e-10 1.2996182255e-11 0 8.5310647435e-12 -6.7334679499e-11 -9.8404120408e-09 0 
3.3489015974e-22 -1.371165137e-08 -6.3961676233e-11 7.1381772021e-12 6.0342189312e-27 -1.0186296251e-12 -8.7866346143e-11 -1.0910608417e-08 0 
0 -1.4598408704e-08 -1.1150604745e-10 2.7179286599e-11 0 1.2169043551e-11 -8.9463332575e-11 -1.2148140272e-08 0 
3.8033228392e-22 -1.5594304514e-08 -1.1827354374e-10 8.3681438515e-12 4.0147350138e-27 7.6215700417e-12 -1.1637578401e-10 -1.3597227344e-08 0 
0 -1.6727080165e-08 -1.5071099924e-10 1.0062493373e-12 0 1.0577427823e-11 -1.3427564616e-10 -1.5340228643e-08 0 
0 -1.8047666472e-08 -1.402482297e-10 9.6983688441e-12 0 2.8467228574e-12 -1.2999314125e-10 -1.7360394011e-08 0 
2.3816589204e-22 -1.9533176854e-08 -1.6644453871e-10 1.2851164577e-11 1.3148459932e-25 7.4926653423e-12 -1.4691904637e-10 -1.9850512345e-08 0 
0 -2.1265529782e-08 -2.0332562023e-10 6.2573279891e-12 0 1.827590683e-11 -2.0433180148e-10 -2.2908460906e-08 -1.4088410795e-22 
0 -2.3303169172e-08 -1.953371076e-10 1.6489143384e-11 -5.1537269014e-26 -3.0309760778e-12 -2.2690087309e-10 -2.6679908061e-08 0 
0 -2.5743521093e-08 -2.2272579614e-10 5.7298610301e-13 0 8.5543395284e-12 -2.6740920589e-10 -3.142315208e-08 9.8619786854e-23 
7.0338695524e-22 -2.8694410403e-08 -2.461488513e-10 4.8930859364e-12 2.1265964372e-27 -5.8715673382e-13 -3.4539657245e-10 -3.747765831e-08 0 
7.9467611014e-22 -3.2355419677e-08 -3.125258663e-10 1.0918488336e-11 3.4593769365e-27 3.5941913508e-12 -4.15791096e-10 -4.5418456551e-08 1.4308491628e-22 
8.9498347241e-22 -3.7068272007e-08 -3.25126287e-10 1.2121599731e-11 -8.7659776858e-26 8.1130198046e-12 -5.1816473334e-10 -5.6099334955e-08 0 
5.2178920586e-22 -4.3357768931e-08 -3.9558886722e-10 9.4521968377e-12 6.3129086978e-27 2.619349182e-12 -6.538352082e-10 -7.0462306212e-08 0 
0 -5.2044807575e-08 -4.8508280726e-10 8.0145508286e-12 4.4469075303e-26 1.1941669875e-11 -8.5366985703e-10 -9.1349328102e-08 0 
0 -6.4600833127e-08 -5.9698557209e-10 6.8445609423e-12 0 7.9626305549e-12 -1.17703991e-09 -1.2319624432e-07 0 
0 -8.2638841548e-08 -7.6205169952e-10 1.0124023148e-11 -8.3344140713e-26 5.5183635439e-12 -1.7005311603e-09 -1.7566038935e-07 0 
0 -8.7932157555e-08 -7.192669238e-10 3.0159104381e-12 5.9110333704e-26 4.5929926529e-13 -2.7159514637e-09 -2.7390615287e-07 0 
0 -1.855713208e-06 -3.748540621e-06 9.8682399141e-08 0 -3.229707545e-06 -2.007536068e-06 -6.1017635744e-07 0 
0.091016158462 0.10699232668 0.12085029483 0.12393387407 0.12141260505 0.099658489227 0.065970644355 0.025315344334 -0.0056578996591 
0.23550508916 0.27005970478 0.2987626195 0.30674925447 0.29422578216 0.24878746271 0.18975260854 0.11177523434 0.03501778096 
0.36856815219 0.375877738 0.35981160402 0.35921904445 0.36145824194 0.34519273043 0.29794678092 0.21002705395 0.10982624441 
0.42184051871 0.40120574832 0.36448556185 0.35786682367 0.37171718478 0.39151513577 0.37379169464 0.28439500928 0.17671343684 
0.40864756703 0.37681737542 0.34222248197 0.33520576358 0.35100924969 0.3889657855 0.4053799808 0.32948997617 0.22248077393 
0.38459536433 0.35092836618 0.3237131536 0.31651854515 0.32905313373 0.37720343471 0.42592960596 0.35505011678 0.27209308743 
0.3456556499 0.33637809753 0.30741405487 0.30526530743 0.32647353411 0.37303310633 0.41355797648 0.3704199791 0.29589265585 
0.3211593926 0.30888447165 0.28886190057 0.28695574403 0.30465313792 0.35958781838 0.4095068574 0.3801266551 0.29012182355 
0.32282429934 0.28987318277 0.26156499982 0.25109323859 0.27457717061 0.32854264975 0.40853747725 0.39057704806 0.28283140063 
0.29969647527 0.27179098129 0.23675100505 0.2231169641 0.23552015424 0.30672365427 0.40217274427 0.38281708956 0.28618234396 
0.27166417241 0.24515870214 0.20265229046 0.185754776 0.19273997843 0.27800548077 0.37658980489 0.36783400178 0.28865793347 
0.2413046211 0.21600398421 0.16696844995 0.13486605883 0.15109759569 0.24339404702 0.33639219403 0.33233907819 0.28612807393 
0.21298150718 0.18687471747 0.12633951008 0.08624034375 0.10094048828 0.21073809266 0.32569953799 0.2893460393 0.28381898999 
0.17993551493 0.16010814905 0.094355046749 0.05162839219 0.081946820021 0.19101664424 0.2956777513 0.28789961338 0.28714716434 
0.15224632621 0.13434101641 0.044579036534 0.0099100507796 0.052464336157 0.17366465926 0.28593063354 0.28874731064 0.2888918221 
0.13184936345 0.10572998226 0.01329058595 0.0015966492938 0.015878999606 0.1359731406 0.26608133316 0.27896612883 0.28094911575 
0.11832167208 0.097123600543 -0.00080244260607 0.001018246403 0.020701617002 0.13838350773 0.2607216537 0.28474891186 0.33109438419 

